<?xml version="1.0"?>
<VTKFile type="UnstructuredGrid">
  <UnstructuredGrid>
  <Piece NumberOfPoints="3487"  NumberOfCells="1698">
    <Points>
      <DataArray type="Float64" NumberOfComponents="3" format="ascii">
39.973 48.6116 0
60.0276 48.6107 0
40.634 48.7425 0
41.2965 48.8646 0
41.9603 48.9776 0
42.6254 49.0816 0
43.2918 49.1766 0
43.9594 49.2626 0
44.6279 49.3395 0
45.2975 49.4074 0
45.9678 49.4662 0
46.6388 49.516 0
47.3105 49.5568 0
47.9826 49.5885 0
48.655 49.6111 0
49.3277 49.6247 0
50.0005 49.6292 0
50.6733 49.6246 0
51.346 49.611 0
52.0184 49.5883 0
52.6905 49.5565 0
53.3621 49.5157 0
54.0331 49.4658 0
54.7035 49.4069 0
55.373 49.339 0
56.0415 49.262 0
56.709 49.176 0
57.3753 49.0809 0
58.0404 48.9769 0
58.7041 48.8638 0
59.3665 48.7417 0
39.9934 49.6279 0
39.993 49.3738 0
39.9894 49.1198 0
39.9826 48.8657 0
19.893 69.528 0
39.9905 49.8895 0
39.9841 50.1511 0
39.9689 50.5294 0
39.9465 50.9074 0
39.9013 51.4535 0
39.8412 51.9982 0
39.7277 52.783 0
39.5832 53.5627 0
39.3194 54.6793 0
38.9919 55.7792 0
38.7158 56.5622 0
38.4073 57.3332 0
38.0671 58.0907 0
37.6957 58.8335 0
37.1043 59.8795 0
36.4512 60.8881 0
35.7386 61.8557 0
-0.0553992 49.4762 0
17.2834 69.3474 0
14.7195 68.8285 0
12.2451 67.9802 0
9.90219 66.8169 0
7.73087 65.3582 0
11.567 31.5708 0
0.153702 46.6578 0
0.760047 43.8979 0
1.75187 41.2519 0
0 0 0
0.113219 3.70568 0
0.519534 7.39869 0
1.21063 11.0533 0
2.18121 14.6431 0
3.09048 17.2855 0
49.9997 -0.355434 0
5.1116 0 0
10.2232 0 0
15.3348 0 0
100 0 0
57.4091 -0.344371 0
64.8185 -0.303964 0
72.22 -0.219133 0
88.4338 31.57 0
99.8869 3.70569 0
99.4806 7.3985 0
98.7896 11.053 0
97.819 14.6428 0
96.9097 17.2852 0
100.056 49.4758 0
99.8465 46.6574 0
99.2402 43.8975 0
98.2483 41.2515 0
80.1069 69.5274 0
99.8919 52.0862 0
99.388 54.6529 0
98.5528 57.1315 0
97.4009 59.4801 0
95.9523 61.6579 0
60.007 49.6269 0
77.5958 69.3791 0
75.1231 68.9176 0
72.7276 68.15 0
70.4472 67.0884 0
68.9576 66.1916 0
67.5513 65.169 0
66.2391 64.0282 0
65.0308 62.7779 0
64.2615 61.8548 0
63.5489 60.8872 0
62.8958 59.8786 0
62.3045 58.8326 0
61.5929 57.3324 0
61.0083 55.7783 0
60.6808 54.6785 0
60.417 53.5617 0
60.2725 52.7821 0
60.0074 49.3729 0
60.011 49.1188 0
60.0178 48.8648 0
52.8152 29.8873 0
26.5462 36.711 0
40.3464 24.0205 0
24.9594 22.3245 0
71.911 22.3428 0
72.7017 43.7539 0
54.7961 23.8399 0
15.2853 47.189 0
38.3576 49.2374 0
23.5501 65.0106 0
7.68105 7.71447 0
91.9603 7.69236 0
29.1375 56.6739 0
37.1739 51.706 0
28.0855 46.9947 0
29.7233 47.9563 0
71.517 46.4802 0
30.9804 48.855 0
70.5193 47.9573 0
31.6381 45.4465 0
30.8858 46.8996 0
70.065 46.47 0
68.9804 44.7967 0
31.2822 49.9493 0
30.8915 51.1706 0
28.1797 48.949 0
45.3112 41.0884 0
53.8415 40.7094 0
56.0237 40.2583 0
73.1323 47.2327 0
70.1221 49.1969 0
68.325 42.2294 0
32.3182 42.5599 0
26.1356 45.4777 0
27.6791 44.4848 0
30.3101 43.1164 0
70.4064 42.4274 0
72.6777 45.7463 0
44.8514 42.8805 0
51.43 41.7871 0
55.4073 42.3733 0
32.4448 48.8925 0
68.5624 49.4344 0
39.4826 41.8714 0
35.4452 43.1856 0
32.8951 46.3447 0
33.5743 48.0918 0
67.1071 48.0357 0
67.9824 46.2741 0
65.0671 42.8484 0
60.4135 41.5088 0
32.356 51.2089 0
28.2031 50.8056 0
41.7851 37.0957 0
46.8261 37.4998 0
52.0477 39.6721 0
58.672 39.0417 0
26.5885 51.6993 0
24.2852 50.1325 0
74.2397 49.7413 0
71.1772 50.4459 0
69.1572 52.027 0
67.9316 52.162 0
59.754 36.1629 0
66.494 40.4775 0
34.1161 40.8541 0
36.0375 35.5959 0
23.1759 46.9667 0
21.6471 43.0765 0
28.3609 41.601 0
74.3168 44.5068 0
76.648 48.3474 0
43.0571 43.4684 0
46.2704 42.7543 0
49.9682 42.8021 0
48.4336 42.5851 0
51.7626 43.8395 0
54.087 43.9552 0
52.9053 44.2508 0
56.2703 43.5038 0
33.8763 49.1866 0
33.7733 50.6989 0
66.5486 51.513 0
66.6022 49.5233 0
41.8351 43.7057 0
40.7065 43.4431 0
38.4654 43.0499 0
37.1468 43.6542 0
35.3488 45.3601 0
34.3263 46.638 0
66.0228 46.3616 0
65.0158 45.0898 0
63.1851 43.3376 0
61.6994 42.8891 0
58.8751 43.3032 0
57.5363 43.6196 0
33.3825 51.9209 0
29.1467 53.5246 0
40.8445 30.8218 0
50.8846 35.8139 0
55.662 34.0968 0
23.5367 53.2401 0
76.9386 51.7098 0
70.2568 53.132 0
66.4226 52.7537 0
65.459 34.9811 0
30.9692 34.4014 0
19.434 47.0832 0
26.1387 39.8404 0
71.9843 33.9243 0
72.0449 41.189 0
77.4885 45.1063 0
43.1692 44.9103 0
45.8109 44.5466 0
48.7653 44.6375 0
51.4431 45.2659 0
53.7681 45.3816 0
56.2164 45.2019 0
34.903 49.8984 0
65.093 50.1142 0
40.818 44.885 0
38.3705 45.2263 0
36.0288 47.1081 0
64.1397 46.8525 0
61.6468 45.1325 0
58.822 45.0011 0
36.0553 52.1731 0
34.9017 52.934 0
33.4845 53.4434 0
31.8782 55.2319 0
26.0568 58.6887 0
22.9623 57.0893 0
32.4176 22.542 0
47.0408 26.5073 0
63.1216 22.8774 0
19.958 54.7961 0
80.2185 54.0619 0
75.8306 55.5749 0
71.9659 55.9327 0
69.1154 55.2583 0
65.7926 53.7628 0
64.1157 53.6099 0
68.1329 28.8324 0
26.8 29.925 0
17.2122 51.5277 0
14.5937 42.2415 0
22.4244 33.8969 0
84.9129 46.651 0
84.7502 51.7953 0
75.155 37.7553 0
81.2177 43.7409 0
42.458 46.2407 0
41.4177 46.0489 0
44.9667 46.0863 0
43.6806 46.0032 0
47.7369 46.0275 0
46.3865 45.9601 0
50.62 46.3407 0
49.2723 46.2446 0
53.0504 46.7357 0
51.763 46.752 0
55.5123 46.348 0
54.2327 46.4401 0
58.0603 46.3014 0
56.779 46.4639 0
36.3709 48.4301 0
36.0216 49.4307 0
35.9185 50.9438 0
63.3973 51.8779 0
63.8382 50.8648 0
63.892 48.874 0
63.8389 47.9718 0
40.2887 45.7859 0
39.3729 45.965 0
38.0535 46.5686 0
37.3938 47.152 0
62.8318 46.6997 0
62.0155 46.376 0
60.5291 45.9283 0
59.3997 45.9846 0
38.0465 52.3778 0
36.157 53.6966 0
34.0453 56.5527 0
29.5574 59.6114 0
22.8243 61.145 0
21.7527 15.3111 0
39.9767 16.0505 0
48.9018 11.324 0
56.9344 16.776 0
76.6284 15.5407 0
15.5921 56.8334 0
84.5678 57.2676 0
73.453 59.2703 0
66.5457 55.4207 0
62.4735 53.3839 0
82.9414 7.79303 0
79.7211 22.4808 0
16.3057 7.87649 0
18.3664 22.2033 0
10.6949 46.5393 0
16.5986 35.8274 0
15.5544 30.2534 0
89.4382 49.4101 0
83.2795 31.0926 0
81.5669 39.1121 0
41.9289 47.142 0
44.2561 47.4168 0
46.8932 47.5673 0
49.5918 47.7308 0
52.2272 47.8106 0
54.7947 47.7022 0
57.3563 47.4478 0
37.3868 49.4755 0
37.91 51.1478 0
62.1959 50.6377 0
62.5836 48.7219 0
39.9723 47.1294 0
38.3963 47.8914 0
38.5098 48.6612 0
61.7667 48.359 0
61.714 47.496 0
59.7678 47.2292 0
38.8806 50.9103 0
61.3566 50.8438 0
39.1829 52.6911 0
38.4469 53.249 0
38.1513 54.3571 0
36.9979 55.1174 0
36.4882 56.889 0
34.835 58.4068 0
33.3217 60.2595 0
30.6984 62.3621 0
27.9316 64.5059 0
27.18 7.72033 0
38.6602 8.19134 0
59.8728 8.41185 0
71.7565 7.79257 0
19.1758 64.4462 0
14.8814 62.7048 0
10.6855 59.9108 0
6.24138 56.861 0
5.96007 50.932 0
94.2757 52.0274 0
93.3682 57.08 0
89.3879 60.4296 0
84.6384 62.949 0
79.5332 64.6302 0
74.6307 63.6746 0
70.3181 62.4043 0
66.8761 60.9602 0
65.253 58.2934 0
62.7481 56.974 0
62.1001 55.447 0
61.8045 54.3389 0
61.086 52.6063 0
93.5058 14.5018 0
89.7935 20.6381 0
86.0918 24.9473 0
6.24044 14.4957 0
13.0247 24.4191 0
9.79084 20.6298 0
5.73386 45.3691 0
5.64261 40.4304 0
12.3218 34.5513 0
94.2589 46.9134 0
88.1125 36.8833 0
93.3758 42.1936 0
41.092 47.9074 0
40.4309 47.7809 0
42.1331 48.0992 0
43.4643 48.2981 0
42.7974 48.2076 0
44.7509 48.3812 0
46.0905 48.5079 0
45.4199 48.4536 0
47.4414 48.5754 0
48.7858 48.6297 0
48.1132 48.6116 0
50.1338 48.7257 0
51.4791 48.7075 0
50.8066 48.7257 0
52.7667 48.6912 0
54.1091 48.6006 0
53.4385 48.6549 0
55.3892 48.5085 0
56.725 48.3455 0
56.0582 48.436 0
58.007 48.1831 0
59.3325 47.9481 0
58.6713 48.0745 0
39.3645 51.3636 0
39.3119 51.9089 0
60.9571 51.8242 0
60.9045 51.2789 0
38.0079 50.2386 0
39.1311 49.4245 0
61.7974 49.8301 0
61.8199 49.2617 0
60.9804 49.4675 0
39.5145 47.9596 0
39.1702 48.078 0
60.9499 48.0356 0
60.4626 47.8914 0
39.4625 50.454 0
60.5059 50.4712 0
39.486 49.8142 0
39.4813 50.0758 0
60.4871 50.093 0
60.4825 49.8314 0
39.6386 49.2378 0
39.6282 48.7299 0
39.6366 48.9838 0
60.5048 49.2626 0
60.5069 49.0087 0
60.5153 48.7549 0
61.0029 48.8989 0
39.2836 48.8481 0
60.958 50.0361 0
38.9785 50.0008 0
60.8977 47.1723 0
39.0561 47.3079 0
62.6369 49.6245 0
37.0371 50.4764 0
61.7552 51.6514 0
38.7826 51.8198 0
58.638 47.2852 0
56.0747 47.6101 0
53.5148 47.7943 0
50.9398 47.8269 0
48.2439 47.6348 0
45.5425 47.4998 0
42.9696 47.3336 0
40.8883 46.9501 0
89.1723 44.5736 0
10.9168 40.7114 0
13.2802 16.108 0
85.8801 16.3122 0
63.1921 55.1162 0
68.9522 58.2711 0
78.9883 59.6475 0
89.3323 54.6866 0
11.7341 52.6394 0
19.189 59.4715 0
66.696 15.6152 0
30.7764 15.3445 0
26.3093 61.9247 0
32.1295 57.7888 0
35.0033 54.4572 0
37.3104 52.9359 0
62.5307 47.8194 0
37.7361 48.4745 0
75.9174 28.5358 0
20.5371 28.4493 0
47.9173 19.1268 0
60.161 44.6841 0
63.1332 45.5802 0
37.051 45.8298 0
39.6893 44.6219 0
65.1472 48.1241 0
65.0398 52.1048 0
34.7998 51.4112 0
35.0056 48.3858 0
57.4828 45.3176 0
54.9501 45.0859 0
52.586 45.6772 0
50.3004 44.8546 0
47.2302 44.4204 0
44.3914 44.6728 0
41.9469 45.1477 0
74.3404 42.5154 0
80.2809 48.6818 0
17.9927 43.1488 0
21.2926 50.592 0
34.4591 29.548 0
59.9738 30.0944 0
67.8056 53.4025 0
73.4208 52.8324 0
54.4585 38.5945 0
46.5123 32.7527 0
26.2086 55.1988 0
31.9651 52.4306 0
69.7513 39.8608 0
30.9899 40.2305 0
57.5899 41.9219 0
63.2375 41.0953 0
66.8986 44.5999 0
33.6466 44.8909 0
37.2418 41.4787 0
41.7233 42.2639 0
68.0578 50.9218 0
32.7466 49.9872 0
53.2243 42.8244 0
49.6363 40.7498 0
74.2932 46.4986 0
25.7294 42.9694 0
71.9715 47.967 0
26.5417 47.9872 0
69.0673 47.9475 0
32.1429 47.7981 0
71.0628 44.9934 0
29.6287 46.0016 0
29.8175 49.9115 0
88.1378 34.2362 0
96.8904 38.774 0
91.2919 35.568 0
92.2315 38.4211 0
96.0823 37.6144 0
88.5024 40.6057 0
3.10974 38.7744 0
11.8951 33.0172 0
10.0157 34.8598 0
3.91799 37.6148 0
8.3194 37.3445 0
11.6978 36.877 0
11.4072 22.5257 0
11.0006 26.3691 0
9.38343 24.4796 0
11.8868 28.8354 0
4.14944 19.8696 0
5.35472 22.3868 0
8.24379 22.7257 0
11.5344 18.3671 0
13.1504 20.2646 0
8.01425 17.5659 0
6.96882 20.2506 0
5.19303 17.1803 0
6.70181 24.8284 0
7.80469 26.6077 0
4.21017 14.5697 0
9.75871 15.304 0
87.9433 22.7937 0
90.4089 24.4827 0
88.5578 26.6307 0
91.5486 22.7292 0
95.8507 19.8693 0
94.6454 22.3864 0
87.6934 29.1453 0
85.9881 20.6309 0
87.8378 18.4733 0
91.6511 17.5732 0
94.6803 17.1829 0
92.8237 20.2546 0
95.6631 14.5726 0
93.2982 24.8278 0
92.1954 26.6071 0
89.6948 15.4094 0
65.8159 8.08767 0
62.3372 4.05081 0
68.2859 3.73774 0
54.9442 4.02107 0
79.5536 0 0
84.6652 0 0
75.6546 3.87239 0
69.2244 11.6996 0
63.2839 12.013 0
32.9191 7.94081 0
31.1822 3.70007 0
36.9282 3.94196 0
23.8138 3.84081 0
20.4464 0 0
27.7808 -0.218362 0
44.321 3.9089 0
34.7198 11.7674 0
28.9794 11.5295 0
81.6375 34.9391 0
85.4081 34.4346 0
85.0473 38.002 0
86.2658 31.5014 0
85.0319 42.0654 0
77.2736 33.8761 0
80.01 31.0627 0
16.085 32.7617 0
14.1213 35.1566 0
13.9422 32.7131 0
14.1653 38.3676 0
13.5587 30.9169 0
17.6418 29.9025 0
18.7706 32.8593 0
16.5443 27.2334 0
14.1276 28.1937 0
15.6955 23.3092 0
15.8231 19.1548 0
19.454 25.3235 0
81.5953 27.1639 0
82.9063 23.7126 0
84.8301 28.5756 0
82.7997 19.3941 0
77.8162 25.5049 0
79.7835 11.6631 0
74.188 11.6755 0
77.3406 7.80644 0
71.6578 15.5753 0
81.251 3.89122 0
84.412 12.0509 0
81.2525 15.9279 0
52.9196 14.0473 0
54.3854 9.86089 0
58.401 12.5931 0
49.4498 5.48269 0
61.8143 16.19 0
52.4252 17.9477 0
48.4095 15.2256 0
44.4381 13.684 0
39.3207 12.1209 0
43.7829 9.75122 0
35.3777 15.6922 0
43.9479 17.5854 0
19.0295 11.5921 0
21.7493 7.81442 0
24.4704 11.5251 0
18.3726 3.93252 0
26.2687 15.327 0
17.5173 15.7107 0
14.7916 11.9905 0
74.6288 33.9002 0
78.7487 37.3051 0
78.0938 40.8869 0
74.7476 40.135 0
21.4836 31.172 0
19.3839 36.5787 0
17.0719 39.3836 0
19.7459 40.1882 0
73.9493 31.2283 0
73.5686 35.8406 0
72.4531 38.8074 0
70.8674 36.8914 0
68.7212 34.452 0
66.7951 31.9053 0
70.0573 31.3796 0
62.7152 32.5385 0
64.0525 29.4618 0
72.0243 28.6843 0
67.6036 37.4222 0
32.7151 31.9754 0
35.2488 32.5711 0
33.5036 34.9982 0
33.5153 37.9145 0
36.6399 38.5367 0
30.9803 37.3158 0
59.8635 33.1283 0
62.6063 35.5715 0
64.3481 38.0372 0
61.4948 38.6297 0
57.8179 32.0947 0
57.7076 35.1299 0
57.1064 37.3783 0
55.0602 36.3454 0
46.6693 35.1261 0
48.6982 34.283 0
48.8556 36.6568 0
50.2606 38.2818 0
52.6712 37.2042 0
48.2309 39.1247 0
38.9114 36.3454 0
38.442 33.2094 0
41.315 33.9583 0
37.6521 30.1839 0
43.6784 31.7867 0
44.1494 34.9243 0
39.5145 39.288 0
44.3056 37.2977 0
46.0689 39.2941 0
43.5174 41.6763 0
47.4738 40.9191 0
43.5478 39.0917 0
41.7545 39.6796 0
90.8722 3.8457 0
87.4526 7.74683 0
86.3707 3.90718 0
88.9251 12.0089 0
89.7768 0 0
94.8884 0 0
95.9877 3.85073 0
96.4976 10.9574 0
92.7353 11.0957 0
95.7209 7.54849 0
91.0172 28.3336 0
90.3985 29.1751 0
4.09993 7.55949 0
6.95846 11.1037 0
3.37573 10.9541 0
10.476 11.9174 0
8.983 28.3345 0
9.60161 29.1763 0
3.83307 3.8614 0
13.2534 3.94753 0
11.9917 7.79903 0
8.94854 3.85653 0
35.1812 -0.303494 0
42.5904 -0.344023 0
58.9582 23.3562 0
55.8645 20.3078 0
60.0276 19.8271 0
51.3569 21.4821 0
64.9076 19.2445 0
61.5469 26.485 0
57.3842 26.9679 0
67.5144 22.6082 0
70.0202 25.5853 0
65.6263 25.8567 0
73.9137 25.4412 0
69.3023 18.9826 0
78.1758 19.0122 0
75.814 22.4115 0
74.2674 18.9368 0
23.3574 18.8141 0
21.6645 22.2632 0
20.0583 18.7584 0
22.748 25.3889 0
27.8688 18.8393 0
29.61 26.2365 0
25.8821 26.1227 0
28.6902 22.4325 0
23.6693 29.1869 0
31.5977 18.9424 0
33.4394 26.0441 0
30.6303 29.7362 0
40.596 27.4214 0
43.6939 25.2624 0
43.9433 28.6648 0
44.132 21.5729 0
47.4792 22.8175 0
46.7767 29.6304 0
37.4038 26.7856 0
36.1983 19.2975 0
40.1626 20.0359 0
36.383 23.2786 0
26.6752 33.3178 0
24.4852 35.3032 0
24.6136 31.9124 0
22.6022 38.8537 0
28.8853 32.1616 0
28.7585 35.5568 0
28.7678 38.4697 0
51.8501 32.8504 0
54.2382 31.992 0
53.2734 34.9551 0
56.3942 29.99 0
49.6641 31.3195 0
50.9184 25.1719 0
53.8055 26.8637 0
49.9277 28.1968 0
6.56287 36.9292 0
6.98044 38.8856 0
5.22323 38.4742 0
9.61667 39.0302 0
8.27835 40.5709 0
4.37579 39.6023 0
4.80703 36.5163 0
5.7729 35.4848 0
7.56303 35.9364 0
10.8556 35.8704 0
10.0076 37.1107 0
9.16673 36.1002 0
11.3063 38.7926 0
8.4125 34.6906 0
11.1677 34.7066 0
12.009 35.7129 0
11.7255 30.2103 0
10.2386 30.0015 0
11.0607 29.4145 0
12.4541 26.6277 0
10.4336 28.5842 0
10.8922 30.8047 0
89.7615 30.0001 0
88.0639 30.3631 0
88.7298 29.5678 0
89.3569 28.7381 0
86.8943 27.0468 0
89.1088 30.8034 0
85.8361 32.9674 0
87.197 32.8745 0
86.7722 34.3394 0
87.3496 31.5381 0
88.288 32.9004 0
88.1258 35.5587 0
86.7603 35.6611 0
84.3398 32.766 0
84.773 31.2976 0
86.7756 39.3044 0
86.7673 41.337 0
85.0404 40.0326 0
88.8379 42.5887 0
87.1028 43.3195 0
83.2994 40.5898 0
83.3069 38.558 0
86.5799 37.4451 0
88.3082 38.7433 0
79.4549 34.4085 0
78.6413 32.4687 0
80.8214 33.0016 0
76.5936 31.206 0
77.9635 29.8 0
81.6449 31.0779 0
82.4569 33.0152 0
81.6022 37.0253 0
80.1934 36.1216 0
14.1424 36.7611 0
12.9313 37.6239 0
12.9092 36.018 0
12.5402 39.5395 0
13.2217 34.8553 0
15.3601 35.4928 0
15.3823 37.0988 0
12.9199 32.8685 0
12.7337 31.9727 0
13.7524 31.8148 0
11.7307 32.2933 0
12.5634 31.2469 0
14.5563 30.5856 0
14.7512 31.4845 0
13.1335 33.6349 0
12.1081 33.7836 0
16.8653 31.3327 0
18.2076 31.3804 0
17.4277 32.8107 0
19.0893 29.1764 0
19.656 30.6546 0
17.6864 34.3447 0
16.3423 34.2944 0
15.8218 31.5072 0
16.598 30.0781 0
13.8437 29.5558 0
12.7255 29.8714 0
13.0074 28.5118 0
13.5755 26.3066 0
14.8427 29.222 0
16.0499 28.7436 0
17.0944 28.5672 0
18.5419 27.8403 0
17.4546 24.719 0
86.2612 28.8575 0
86.9749 30.3187 0
85.5467 30.0393 0
84.0526 29.8327 0
85.4609 26.7606 0
82.4361 29.1285 0
80.8003 29.1122 0
80.6586 24.8227 0
78.755 27.8489 0
80.1572 38.2095 0
79.8303 39.9995 0
78.4213 39.0957 0
76.6236 39.322 0
76.2171 41.701 0
76.9517 37.5303 0
15.6188 38.8766 0
15.8326 40.8129 0
14.3788 40.3036 0
17.5319 41.2655 0
16.2933 42.696 0
12.755 41.4781 0
16.8347 37.6049 0
19.5647 38.3831 0
18.409 39.7863 0
18.2285 37.9822 0
18.8693 41.6687 0
17.9913 36.2033 0
20.9053 35.2388 0
20.9928 37.7158 0
20.6963 41.6319 0
21.1745 39.5216 0
24.5751 37.7832 0
22.5142 36.3752 0
19.8202 43.1133 0
22.1248 40.9651 0
24.1656 40.9106 0
23.6886 43.0233 0
79.6554 42.3147 0
79.3529 44.4239 0
77.7913 42.9961 0
80.7496 46.2104 0
78.8847 46.8942 0
75.9141 43.8114 0
81.3929 41.4256 0
90.3682 39.5156 0
92.8044 40.3066 0
90.9402 41.3985 0
94.5613 38.595 0
95.1344 40.4843 0
91.2749 43.3849 0
90.1733 37.6509 0
93.2426 36.0385 0
93.7132 37.4684 0
91.7626 36.994 0
95.1932 36.5161 0
89.7039 36.2284 0
92.2413 35.0465 0
94.2276 35.4844 0
89.533 33.5485 0
91.1087 34.2098 0
89.7163 34.8999 0
93.1898 34.5257 0
92.085 33.6454 0
93.818 44.5529 0
96.3085 43.0425 0
96.7503 45.4053 0
90.9182 32.8501 0
89.7003 32.1515 0
97.1579 48.1921 0
91.7165 45.742 0
10.4847 32.9333 0
10.9534 33.9342 0
9.54529 33.8571 0
6.81025 34.5261 0
7.91509 33.6457 0
5.68712 42.9 0
3.24641 44.6327 0
3.20072 42.1612 0
2.83837 47.4194 0
9.0809 32.8501 0
10.301 32.151 0
8.32374 43.0363 0
66.0646 59.6268 0
65.2124 60.9235 0
64.4008 59.5899 0
65.9533 61.8688 0
60.1591 51.9973 0
60.099 51.4526 0
63.7786 58.5627 0
67.1025 58.282 0
67.9139 59.6152 0
68.5971 61.6822 0
68.9344 63.7861 0
67.2137 63.0644 0
70.3826 64.7459 0
60.0539 50.9065 0
60.0315 50.5285 0
69.6352 60.3375 0
77.082 64.1521 0
77.3275 66.7731 0
74.877 66.2955 0
79.8201 67.0782 0
60.0162 50.1501 0
60.0099 49.8886 0
72.5384 65.3807 0
76.809 61.6603 0
79.2609 62.1382 0
82.0856 63.7893 0
84.9595 65.8876 0
82.4076 66.7281 0
87.3689 64.8815 0
94.2318 63.6284 0
92.2691 65.3576 0
81.814 61.2977 0
91.378 58.7548 0
93.8003 60.3532 0
91.8104 62.0279 0
95.3849 58.2791 0
90.0978 66.8163 0
87.7548 67.9797 0
89.743 63.622 0
89.3602 57.5574 0
91.3507 55.8825 0
93.8221 54.5536 0
96.8324 53.3385 0
96.3784 55.8659 0
97.1662 50.7512 0
85.2804 68.828 0
82.7165 69.3468 0
91.8042 53.3573 0
6.10046 53.896 0
3.42644 55.7567 0
3.28536 52.7904 0
4.41992 58.1698 0
5.76818 63.6289 0
4.04773 61.6584 0
2.95175 50.2032 0
8.84665 51.7859 0
8.98681 54.7484 0
8.46345 58.3859 0
8.22614 61.7686 0
6.00456 60.244 0
10.2936 63.3627 0
2.59917 59.4805 0
1.44725 57.132 0
11.2094 56.2736 0
17.0288 63.5753 0
16.9471 66.6365 0
14.8004 65.7658 0
19.5345 66.9865 0
0.612129 54.6533 0
0.108208 52.0866 0
12.3911 64.7597 0
17.0347 61.0876 0
19.1824 61.9582 0
29.3149 63.4339 0
31.5737 63.7656 0
30.1904 64.8374 0
32.834 62.57 0
34.9692 62.7787 0
33.7609 64.0291 0
28.7424 65.7972 0
27.1206 63.215 0
28.504 62.1431 0
34.0783 59.3332 0
35.6432 59.6471 0
34.8866 60.5735 0
36.2655 58.6199 0
32.4487 65.1698 0
31.0424 66.1924 0
34.1456 61.5188 0
32.7257 59.0239 0
33.4824 58.0976 0
29.5528 67.0891 0
37.092 57.861 0
37.4478 57.111 0
37.7401 56.334 0
35.7459 55.6728 0
27.2723 68.1508 0
83.5225 34.688 0
85.2287 36.2173 0
83.3408 36.4733 0
91.8576 50.7176 0
91.8491 48.1625 0
94.2677 49.4701 0
89.3056 46.9911 0
89.3854 52.0477 0
15.1052 33.9613 0
14.0316 33.9346 0
15.0136 32.7378 0
8.32651 48.7335 0
5.84637 48.1504 0
8.21368 45.9546 0
10.805 43.6241 0
11.2142 49.5888 0
15.336 27.7133 0
14.7856 25.8236 0
83.2128 27.8699 0
83.8413 26.0521 0
67.7489 56.8459 0
65.8992 56.8567 0
64.2225 56.7048 0
64.8688 55.2682 0
74.042 61.4721 0
72.4744 63.0393 0
71.8852 60.8367 0
71.2025 58.7706 0
76.2206 59.4588 0
86.9784 58.8478 0
87.013 61.6891 0
84.6032 60.1075 0
81.7778 58.4574 0
86.9499 55.9773 0
15.2366 59.7681 0
12.7836 61.3077 0
13.1382 58.3714 0
13.6633 54.7364 0
17.3907 58.1523 0
31.4397 59.9351 0
32.01 61.3108 0
30.128 60.9865 0
27.9332 60.768 0
30.8434 58.7001 0
35.2668 56.7207 0
35.6616 57.6479 0
34.4402 57.4796 0
33.0874 57.1708 0
34.5243 55.505 0
78.0102 35.5911 0
76.2142 35.8151 0
84.8318 49.2223 0
87.1762 48.0301 0
87.0942 50.6033 0
87.0428 45.6135 0
87.0418 53.2403 0
82.5159 50.2386 0
82.5967 47.6671 0
19.0779 34.7188 0
20.5973 33.3779 0
69.0337 56.7645 0
67.8304 55.3394 0
67.1755 54.4114 0
68.4605 54.3304 0
73.8981 55.7537 0
74.6415 57.4221 0
72.7095 57.6014 0
77.4097 57.6109 0
70.4588 57.1014 0
72.6932 54.3822 0
74.6257 54.2037 0
82.4842 52.9288 0
84.6591 54.5306 0
82.3936 55.6644 0
79.6033 56.8538 0
80.2499 51.3709 0
18.5853 53.1617 0
17.7748 55.8147 0
16.4018 54.1796 0
19.5733 57.1332 0
14.4728 52.0837 0
19.2524 51.0602 0
20.6251 52.6936 0
24.5097 57.8888 0
24.4404 59.9168 0
22.8933 59.1167 0
26.1831 60.3064 0
24.5669 61.5347 0
21.0068 60.3081 0
21.0754 58.2803 0
24.5854 56.1441 0
26.1327 56.9435 0
32.0039 56.5102 0
32.9618 55.8921 0
33.4409 54.8445 0
31.9217 53.8311 0
84.9729 44.3573 0
83.0655 45.1963 0
83.1247 42.904 0
71.1113 54.5323 0
70.5406 55.5955 0
69.686 54.195 0
69.0311 53.2671 0
71.8387 52.9822 0
78.5786 52.8859 0
78.0243 54.8184 0
76.3845 53.6419 0
75.1795 52.2711 0
78.6095 50.1955 0
23.2494 55.1644 0
21.4603 55.9425 0
21.7473 54.0182 0
22.4148 51.9158 0
24.8728 54.2193 0
78.4643 48.5149 0
77.0683 46.7265 0
75.8907 45.8024 0
75.4705 47.4232 0
22.4114 45.021 0
21.3051 47.0253 0
20.5405 45.0799 0
22.2342 48.7793 0
20.3633 48.8372 0
18.7132 45.1154 0
24.453 44.9685 0
72.2989 51.6393 0
70.7169 51.7887 0
69.6174 50.6838 0
71.5743 49.2063 0
75.4438 49.0443 0
76.7933 50.0284 0
75.5891 50.7257 0
73.8302 51.2866 0
74.2664 48.1198 0
25.4369 50.9157 0
25.0626 52.4698 0
23.9109 51.6862 0
26.3986 53.4488 0
22.789 50.3624 0
25.4135 49.06 0
26.5652 49.843 0
27.6777 54.3618 0
27.8677 52.6117 0
29.4822 51.7179 0
30.556 52.9777 0
23.7305 48.5493 0
24.8589 47.477 0
72.7084 50.0936 0
73.1055 48.8543 0
27.5971 57.6813 0
29.3475 58.1424 0
27.8073 59.1498 0
30.6337 57.2311 0
27.6732 55.9361 0
30.5126 54.378 0
30.5079 55.953 0
29.1422 55.099 0
23.1873 63.0774 0
21.3631 64.7281 0
20.9997 62.7953 0
21.7211 67.2687 0
24.9295 63.4674 0
26.4039 66.7117 0
24.2136 66.964 0
25.7409 64.758 0
24.8768 68.9183 0
22.4041 69.3798 0
14.939 44.7143 0
12.9898 46.865 0
12.6432 44.3891 0
13.5088 49.9127 0
16.6385 45.1686 0
18.3228 49.3049 0
16.2487 49.358 0
17.3597 47.1368 0
58.4016 8.11118 0
60.0025 10.0323 0
79.5257 20.1739 0
77.0286 20.3599 0
69.2359 13.8599 0
67.5825 15.7178 0
37.1962 13.2248 0
34.8507 12.3784 0
72.229 44.3799 0
70.3921 42.6846 0
36.7196 21.9534 0
37.3175 24.3746 0
46.0455 8.09016 0
45.1598 10.4284 0
1.82944 10.3987 0
4.03611 9.21767 0
16.1367 3.98014 0
14.3573 2.24694 0
37.8135 13.2941 0
37.7771 10.7964 0
72.2912 1.08057 0
69.8256 1.461 0
65.3563 24.9486 0
65.8132 22.4988 0
17.0809 0.162366 0
19.0971 1.61723 0
30.7398 0.288934 0
29.0103 2.09904 0
20.1841 28.8586 0
18.0575 27.5567 0
87.2188 22.8158 0
89.6994 23.1928 0
80.4405 11.8215 0
79.0257 9.7669 0
53.4937 14.2354 0
52.9673 16.6789 0
79.8608 20.5811 0
77.3562 20.5223 0
95.4334 2.46321 0
96.8456 4.52208 0
40.4147 38.2902 0
38.2076 39.4604 0
34.3859 26.9645 0
35.046 29.3674 0
88.3485 30.3728 0
87.7362 27.9816 0
42.4518 31.8195 0
44.3301 30.1744 0
26.0841 12.7962 0
26.9173 10.4434 0
40.5619 37.366 0
42.7907 36.2397 0
65.9086 38.5383 0
67.4385 40.5132 0
21.6753 36.4193 0
24.1668 36.6187 0
87.2996 17.945 0
88.9302 16.0708 0
31.312 9.86836 0
28.8815 10.4595 0
60.2751 8.17397 0
61.5739 10.3116 0
62.4147 9.25309 0
60.9648 7.21462 0
18.7632 6.94653 0
18.1845 9.35676 0
63.0409 43.6905 0
62.3494 46.0895 0
84.2729 25.7464 0
83.5809 28.124 0
47.3538 44.137 0
49.2167 42.4718 0
30.733 4.70098 0
33.1072 5.46798 0
37.1847 2.18918 0
36.8838 -0.290806 0
39.5108 0.427049 0
37.8439 2.29175 0
66.8433 34.3988 0
64.5876 35.4621 0
25.254 21.2485 0
23.6824 23.1866 0
89.2028 30.1219 0
86.9422 29.0365 0
74.2762 9.99307 0
76.6564 9.25248 0
80.3446 12.7459 0
81.7483 14.8067 0
81.0889 16.8736 0
80.1734 19.1755 0
78.4052 10.6933 0
79.7507 12.793 0
67.655 27.3697 0
65.1614 27.2564 0
62.4193 24.7766 0
59.9928 24.1919 0
61.7108 24.6003 0
62.4805 26.9762 0
69.501 32.7545 0
67.0161 32.5041 0
82.5768 12.4503 0
85.0234 13.0163 0
51.4569 18.0376 0
53.5345 19.4216 0
66.9758 15.8917 0
65.1541 14.1765 0
20.0374 22.3192 0
20.4897 19.8794 0
53.0603 23.9324 0
52.9522 21.4353 0
62.069 33.8227 0
64.0335 35.3658 0
67.9312 28.1316 0
69.8954 26.6002 0
27.371 19.2827 0
25.4413 17.7118 0
43.3811 3.85374 0
43.9112 1.41139 0
90.2321 10.2622 0
88.433 8.52979 0
67.9531 36.6676 0
68.6329 34.2712 0
9.51789 8.18181 0
11.9765 7.69361 0
49.9622 6.44657 0
52.337 7.22796 0
81.1212 29.0926 0
83.0651 27.5349 0
43.1474 19.8941 0
45.5379 20.6032 0
73.002 25.446 0
75.2258 24.3184 0
59.3012 18.4498 0
57.0576 19.5374 0
94.8385 14.8719 0
92.4169 14.2262 0
8.74536 19.4314 0
11.2081 18.953 0
17.4664 22.6781 0
15.8017 20.8326 0
16.9542 36.3598 0
18.1673 34.1853 0
59.7782 41.8528 0
57.587 43.0497 0
84.6059 20.3488 0
84.6512 22.824 0
9.90282 20.0406 0
7.80165 21.4061 0
16.8596 29.9462 0
15.2344 31.8298 0
46.6508 3.32285 0
48.1053 5.35614 0
57.781 40.2669 0
55.7442 41.7103 0
67.509 36.9597 0
69.5827 38.3552 0
68.3578 7.46579 0
70.2471 5.84267 0
24.8071 8.50069 0
27.234 9.07171 0
16.1251 15.4722 0
15.222 17.7865 0
96.9896 4.6405 0
94.518 5.0256 0
25.2413 33.7636 0
26.0603 31.4104 0
16.8169 15.6688 0
17.9454 17.8746 0
86.8952 15.6523 0
88.6057 13.8482 0
26.989 36.3266 0
28.262 38.4652 0
45.0606 36.9876 0
42.7661 37.9721 0
25.996 33.6143 0
28.473 33.2833 0
70.5385 15.9034 0
72.5084 17.4479 0
49.8258 47.5907 0
50.9703 45.3688 0
82.7607 18.3143 0
81.0801 16.4677 0
12.4061 5.59143 0
9.97988 4.98906 0
18.2975 2.65393 0
20.5317 1.51946 0
98.909 4.26224 0
97.7155 6.44549 0
80.2891 37.3407 0
80.8769 34.9301 0
48.5357 3.51784 0
48.4423 1.02095 0
46.0832 5.18429 0
43.9279 6.45284 0
61.1029 37.9733 0
59.0174 39.3433 0
81.2021 11.0808 0
81.7882 8.68067 0
79.3094 30.3871 0
76.9835 31.2863 0
52.3966 8.03959 0
50.9321 6.01366 0
25.91 29.9063 0
23.7768 28.6181 0
94.5714 17.4344 0
96.8534 16.4215 0
29.5815 32.038 0
31.8877 32.9864 0
65.8316 4.33016 0
65.8057 6.82883 0
53.2593 1.82208 0
51.452 3.55105 0
14.5713 9.04815 0
15.1006 6.62732 0
7.21496 18.8216 0
5.0171 17.6416 0
61.2106 40.2565 0
59.8938 42.3772 0
74.2052 7.25841 0
73.7976 4.79623 0
23.5911 30.2284 0
23.8318 27.7537 0
78.8018 6.8838 0
76.643 5.60194 0
79.0377 11.2669 0
81.156 12.6079 0
7.63272 2.5301 0
5.13213 2.60175 0
76.4434 15.9245 0
74.46 14.3938 0
47.902 9.25576 0
49.6884 11.0028 0
80.0445 2.03213 0
82.5032 1.58298 0
29.1845 29.8706 0
27.2313 28.3254 0
70.9661 16.3097 0
71.5198 13.8872 0
4.51141 13.5531 0
6.46956 11.9963 0
40.5522 0.123346 0
39.5168 2.39811 0
60.407 12.2973 0
59.8349 14.7281 0
41.2044 3.46319 0
39.1686 4.91701 0
33.6611 29.3758 0
36.1496 29.5582 0
33.2023 20.8945 0
32.9829 18.4118 0
79.5961 15.515 0
80.1503 17.9348 0
72.6529 34.6312 0
70.5176 33.3321 0
56.729 8.18585 0
54.3221 7.51269 0
44.5372 8.81254 0
43.2089 10.931 0
82.5674 16.4846 0
83.6822 14.2723 0
11.5874 0.31188 0
10.6892 2.6325 0
78.0107 16.09 0
80.0438 17.5514 0
59.4323 2.92456 0
60.7539 5.04735 0
72.3023 1.20846 0
72.2012 3.70331 0
66.8196 2.61224 0
68.1149 0.466316 0
13.3269 3.7586 0
15.1488 2.05256 0
71.959 26.4703 0
74.4151 26.933 0
16.8459 17.4508 0
15.4351 19.5043 0
72.2069 38.2312 0
72.1295 35.7423 0
43.4851 20.68 0
41.2243 21.7392 0
57.2546 19.1511 0
57.5198 21.6359 0
64.6746 28.6996 0
67.1555 28.4339 0
24.6666 31.8091 0
27.0719 31.1305 0
50.1166 28.6817 0
49.1089 30.967 0
59.8044 37.0792 0
58.5393 34.9248 0
22.4595 28.9897 0
24.8739 28.3455 0
39.7032 35.7968 0
37.2543 36.2834 0
5.89277 10.0454 0
3.86291 11.5079 0
54.7987 20.6812 0
56.8292 22.1347 0
68.5032 19.5618 0
68.8124 17.0908 0
42.0167 42.5789 0
42.7802 44.9575 0
19.0958 24.4866 0
16.9462 25.7608 0
69.2682 4.08093 0
66.9237 3.20555 0
18.7338 12.786 0
19.4363 10.4062 0
97.8446 0.547644 0
97.0347 2.89574 0
21.3125 0.592686 0
21.783 3.00251 0
13.4364 5.96056 0
14.5757 8.16117 0
94.831 5.79457 0
95.357 3.36763 0
58.6694 11.5054 0
59.4681 13.8747 0
26.7386 39.8342 0
25.2384 41.8304 0
62.4205 18.645 0
64.5263 17.3134 0
9.51575 7.73003 0
11.9318 7.0649 0
44.2852 17.9762 0
41.9009 18.7142 0
89.0296 10.7913 0
91.4958 10.3563 0
65.49 41.4942 0
63.0656 40.8878 0
51.2698 34.2809 0
53.6784 33.632 0
12.7438 8.55568 0
14.7371 10.0494 0
75.0444 18.357 0
72.5491 18.1591 0
69.1564 26.3228 0
69.6106 28.7737 0
19.5793 11.76 0
21.8426 12.8113 0
36.8981 39.9193 0
34.4927 39.2507 0
29.3262 28.1793 0
30.9414 30.0735 0
12.3814 19.5309 0
13.5816 17.3495 0
42.0386 43.0234 0
39.6457 43.7425 0
34.2172 5.05049 0
33.7288 7.50298 0
94.9649 17.0306 0
93.8807 14.785 0
53.773 26.1549 0
54.3522 28.5852 0
68.285 36.1826 0
67.5126 38.5513 0
71.2381 36.9002 0
69.2985 38.4654 0
30.4772 15.4571 0
32.633 16.7023 0
62.75 7.95126 0
65.2324 8.23586 0
52.3924 17.2014 0
51.1243 19.3537 0
68.8553 3.54563 0
68.9113 6.04482 0
24.0148 7.6897 0
26.0534 9.10225 0
31.7823 14.5619 0
33.4988 16.364 0
72.4483 5.9388 0
74.7202 4.95093 0
47.2248 15.1174 0
45.6845 17.0852 0
36.6681 41.6995 0
38.7003 40.2454 0
22.8207 10.3842 0
24.4613 8.49251 0
22.9742 37.626 0
25.3567 36.8622 0
79.5454 20.4143 0
81.7994 21.5062 0
80.4378 16.0525 0
78.16 15.0031 0
68.1711 34.0888 0
68.4192 36.5695 0
32.7897 26.8431 0
35.0177 27.9602 0
49.0963 3.46948 0
47.4565 5.35715 0
34.188 40.4923 0
32.8245 42.5849 0
47.6809 12.4521 0
48.2017 14.8971 0
50.2583 18.669 0
51.6299 16.5811 0
33.8368 30.5115 0
34.5227 28.1125 0
2.34344 13.7942 0
4.83097 14.0656 0
40.0896 40.0988 0
40.8323 42.4829 0
10.1204 16.1155 0
9.50574 18.5232 0
32.9407 15.9928 0
31.8989 18.264 0
43.2504 0.827146 0
45.6699 0.177708 0
37.1307 36.7039 0
39.3716 35.6008 0
81.2534 10.0484 0
81.7507 7.62925 0
30.4411 3.55309 0
28.2953 4.84581 0
49.4058 1.22822 0
47.6078 2.96714 0
60.7646 31.1204 0
62.539 32.8784 0
26.182 37.1225 0
24.5092 35.2799 0
33.9195 3.10241 0
36.4088 3.32879 0
46.8699 28.9359 0
45.8477 31.2151 0
19.4887 36.0488 0
21.2098 37.8443 0
56.1148 28.133 0
58.6085 28.1693 0
92.8376 9.44391 0
95.2569 10.0936 0
22.0952 28.92 0
24.5658 29.2828 0
48.2801 17.5731 0
50.7276 18.0535 0
28.818 21.5703 0
27.7639 19.3194 0
88.6635 17.9772 0
91.021 18.8344 0
85.3191 15.4655 0
82.814 15.5951 0
59.5431 45.065 0
60.8276 47.2094 0
89.5328 2.51806 0
89.745 4.99129 0
95.4734 9.77788 0
93.3777 8.41121 0
64.4565 41.3126 0
62.9726 43.319 0
56.013 25.9246 0
58.3314 25.0078 0
71.0371 1.80407 0
71.0319 4.30276 0
51.4181 11.6754 0
50.5038 9.34857 0
58.3259 27.701 0
57.6518 25.2955 0
9.3181 7.83373 0
7.77194 5.88695 0
51.6889 13.2846 0
49.2108 12.989 0
49.714 24.2195 0
50.1424 26.6812 0
72.5895 28.271 0
70.1882 27.5799 0
81.2851 36.2108 0
78.9733 37.1505 0
80.7593 18.206 0
81.4116 20.6007 0
63.048 6.19008 0
60.7637 5.17307 0
49.6094 11.6518 0
47.119 11.4822 0
44.4797 28.3579 0
42.0281 28.8186 0
88.6443 7.79253 0
88.1127 10.212 0
72.3048 6.29438 0
71.0107 8.41456 0
87.6977 13.8733 0
88.6427 16.1728 0
36.5673 40.7352 0
38.2865 42.5447 0
62.5605 3.48645 0
63.7433 1.28504 0
39.9553 14.9685 0
40.0992 12.4735 0
19.3819 6.40657 0
21.5267 5.10426 0
36.3633 45.703 0
38.7264 46.5176 0
34.5854 31.1989 0
32.3536 32.3213 0
58.9063 19.4133 0
60.6957 21.1575 0
78.2462 16.1191 0
75.8178 15.491 0
15.8776 28.8251 0
17.2364 26.746 0
80.5547 1.65855 0
78.1477 2.3072 0
37.648 41.5379 0
35.1662 41.829 0
84.0672 21.3182 0
84.556 23.7478 0
86.5713 7.30357 0
86.2279 4.84958 0
44.7629 5.881 0
46.562 7.61571 0
84.1551 19.6734 0
84.0192 22.1451 0
71.9485 17.4592 0
74.4332 17.1846 0
77.1044 24.8932 0
76.4948 22.4834 0
97.1611 15.2558 0
94.6959 14.8151 0
38.3521 23.4745 0
40.4345 22.0951 0
40.9117 1.6074 0
39.851 3.87111 0
60.1658 22.3695 0
57.8349 21.4755 0
23.1221 0.9144 0
24.5947 2.89339 0
71.8969 32.0821 0
69.4332 32.4811 0
44.2087 38.0574 0
42.2634 39.6247 0
34.1369 4.25376 0
35.5939 6.28007 0
19.9591 15.5079 0
21.7128 17.2688 0
1.47411 8.34494 0
3.16462 10.1774 0
85.6001 24.9027 0
87.7263 23.6007 0
82.6824 14.8088 0
80.2499 14.1898 0
60.7701 3.11859 0
60.1671 5.5434 0
17.3028 24.1864 0
15.806 22.205 0
51.8045 38.7408 0
50.5933 36.556 0
59.7299 46.7023 0
62.0314 45.7283 0
81.687 19.126 0
81.9801 21.5867 0
60.0527 14.9679 0
57.6453 14.3051 0
21.6126 24.3727 0
21.5057 26.8528 0
50.5581 36.5225 0
51.5008 34.2093 0
68.8178 24.0058 0
66.7549 22.5943 0
85.3906 31.9163 0
83.0472 32.7622 0
10.0156 12.6851 0
7.95095 14.1005 0
90.6827 3.17851 0
88.5826 1.82189 0
85.5618 8.43155 0
87.723 7.18515 0
32.9686 40.3098 0
33.1308 42.798 0
16.572 0.841187 0
18.9328 1.64955 0
80.4036 27.4319 0
82.3483 25.8743 0
21.4195 10.9968 0
19.7343 9.17754 0
93.5351 17.0724 0
91.2359 16.0744 0
19.4166 35.5404 0
19.2778 33.062 0
17.9937 35.172 0
20.2469 34.0868 0
76.6184 12.025 0
75.0478 13.9432 0
20.898 4.70086 0
18.5484 3.86491 0
26.3395 33.6811 0
24.1858 32.4281 0
55.3269 6.91103 0
57.4764 5.63663 0
69.3505 3.73772 0
70.4251 5.99901 0
22.4232 16.971 0
21.727 14.5948 0
89.5026 6.1376 0
86.9979 6.11743 0
60.1604 4.10493 0
57.6715 3.85121 0
86.6835 11.308 0
84.2737 10.6084 0
80.9135 22.4588 0
82.093 20.2774 0
69.7656 32.344 0
68.9652 29.9819 0
42.4537 48.7874 0
40.5302 47.1911 0
30.6654 29.2627 0
31.5888 31.5745 0
19.9458 37.3702 0
20.2587 34.9049 0
64.2209 5.4983 0
62.4848 7.29152 0
91.4396 1.96959 0
90.9854 4.40934 0
85.7627 10.0981 0
87.2433 12.1036 0
16.1089 1.27167 0
14.0671 2.71055 0
71.9354 36.4789 0
74.3578 35.8753 0
14.8999 16.2017 0
17.3313 16.7994 0
85.836 30.7527 0
87.5258 32.5728 0
8.11885 22.0005 0
10.6209 21.854 0
49.9337 35.426 0
52.4214 35.2393 0
9.11126 20.4867 0
10.8326 18.6735 0
62.5203 31.7925 0
60.2554 32.8355 0
37.5415 6.65969 0
39.0255 4.64665 0
9.75555 9.17874 0
11.936 7.94859 0
60.136 25.8197 0
57.6433 25.9012 0
32.8581 17.054 0
33.8051 19.3569 0
92.6323 11.4493 0
92.9596 13.9125 0
50.0439 4.23786 0
52.1275 5.62105 0
21.7754 11.7682 0
23.2443 13.7635 0
16.4396 4.89377 0
18.7582 3.94723 0
38.9576 33.6054 0
41.0916 32.3086 0
2.03415 4.97779 0
2.94802 2.66034 0
17.4339 17.0375 0
16.4072 19.3013 0
81.4512 37.4105 0
82.4672 35.1476 0
72.8953 12.4455 0
74.7313 10.7755 0
66.3089 41.2741 0
63.9189 41.9994 0
63.7295 26.2856 0
65.7134 24.7786 0
49.8632 5.88822 0
48.325 7.8589 0
60.174 40.5457 0
62.3959 41.6889 0
23.3993 10.8016 0
24.5053 13.0163 0
60.0759 31.0589 0
61.022 33.3702 0
85.0441 22.3207 0
87.5513 22.2648 0
74.5607 19.6836 0
72.1336 19.0693 0
56.0446 12.2065 0
58.4844 12.7384 0
61.6858 4.07521 0
60.6446 1.80258 0
60.716 47.3092 0
58.2178 47.4079 0
50.6456 16.6247 0
50.9613 19.1047 0
26.1613 33.0453 0
27.1522 30.7578 0
43.7035 22.4126 0
41.6536 20.9934 0
70.2294 18.4077 0
72.7023 18.7859 0
72.5615 1.43267 0
72.7257 3.92608 0
33.4293 16.9024 0
35.0647 18.7799 0
55.2459 3.33067 0
57.6897 3.8685 0
62.7199 26.7951 0
60.2254 26.815 0
59.5561 35.3064 0
59.7002 32.8141 0
41.7472 31.1476 0
39.3681 31.9021 0
65.6943 33.6489 0
63.6726 32.1814 0
41.2851 35.9657 0
39.9819 38.0971 0
73.2137 29.5755 0
72.7831 32.0254 0
50.7628 39.9611 0
51.8556 42.2081 0
59.8147 9.87006 0
58.3199 7.86513 0
82.5503 19.8812 0
84.856 18.9169 0
66.2731 0.554895 0
68.7718 0.33292 0
72.7591 32.4689 0
74.6329 30.8294 0
66.5096 33.3425 0
65.2356 35.484 0
67.8019 46.041 0
68.5216 43.6544 0
63.7111 22.8297 0
64.8084 20.5927 0
80.426 11.2045 0
82.0355 13.1136 0
31.0127 20.2861 0
30.0625 17.9873 0
25.3252 20.5402 0
26.899 22.465 0
53.9817 28.4965 0
56.4622 28.2415 0
85.7055 28.1649 0
85.1834 25.7472 0
37.8945 1.63146 0
40.3783 1.95019 0
42.1104 29.3418 0
43.0944 27.0457 0
19.9734 35.191 0
22.4594 35.4429 0
84.467 11.471 0
86.9751 11.4245 0
30.5049 1.13228 0
32.9718 0.701453 0
61.987 42.2565 0
59.8225 41.008 0
40.0336 13.265 0
38.0427 14.777 0
71.894 28.979 0
70.0491 27.2953 0
60.3507 30.0872 0
59.5895 27.7086 0
6.58689 10.6357 0
5.71732 12.9688 0
33.6216 6.67395 0
32.0005 4.77959 0
57.2837 24.5573 0
59.7157 24.0078 0
61.7351 27.8514 0
59.2528 28.0918 0
12.9824 2.02787 0
15.1376 3.27696 0
72.4135 4.85734 0
69.9302 4.58802 0
30.516 6.09712 0
28.1239 6.8312 0
80.795 3.71601 0
78.29 3.79861 0
54.3802 35.7711 0
52.3719 37.2528 0
30.6048 14.1405 0
33.0257 14.738 0
80.5771 9.13555 0
82.8688 8.14313 0
12.0362 31.4094 0
13.0149 29.151 0
46.3773 5.16649 0
48.8277 5.66744 0
2.72329 5.30977 0
5.22544 5.21085 0
10.2068 9.52675 0
11.2113 11.794 0
4.33324 17.8229 0
6.58254 16.7206 0
29.3916 8.34637 0
26.8948 8.32646 0
43.6868 1.84615 0
45.9973 2.80801 0
77.3453 2.76118 0
75.5724 4.47374 0
55.2068 26.5813 0
57.4528 27.6694 0
24.8236 19.208 0
27.0108 17.9892 0
12.819 30.7436 0
14.0633 28.6043 0
13.7576 17.7816 0
15.6216 19.4299 0
31.5561 35.8713 0
33.6574 37.2138 0
85.1077 18.8615 0
85.4401 16.409 0
54.9583 42.1928 0
56.132 39.9882 0
56.8586 42.8475 0
54.3713 42.6201 0
69.3493 40.9187 0
68.4307 43.235 0
81.6164 5.19254 0
81.182 7.61909 0
67.2931 28.5865 0
69.3835 27.2309 0
23.396 28.1077 0
20.9029 28.279 0
76.5525 32.9328 0
74.6581 31.3056 0
40.393 1.65278 0
41.9407 -0.311294 0
21.4848 3.44478 0
19.275 2.31315 0
32.7326 27.8598 0
34.5363 29.5778 0
39.7524 2.10125 0
37.9682 3.85454 0
68.5836 6.12623 0
66.5182 7.52097 0
7.18123 2.10419 0
8.72573 0.142231 0
59.0704 33.2464 0
57.1152 31.6929 0
22.6686 35.2353 0
24.1974 37.1968 0
76.6872 24.7938 0
76.1364 22.3698 0
8.86953 16.6688 0
9.71632 18.9994 0
27.0388 16.547 0
28.4624 14.4923 0
31.9536 36.7985 0
32.7851 34.4457 0
22.219 34.7523 0
19.9822 33.6536 0
73.3142 36.9155 0
71.9863 34.8024 0
15.0302 2.07893 0
16.9726 0.512962 0
52.2273 11.9902 0
52.0955 9.49318 0
33.8299 8.60833 0
32.689 6.39143 0
24.9772 41.6037 0
27.3699 40.8698 0
57.5717 12.3653 0
59.7928 11.2285 0
84.1755 34.9886 0
82.3663 33.2689 0
40.3994 46.9633 0
38.8893 44.9728 0
18.0785 12.0976 0
20.5411 12.5558 0
92.7161 8.15009 0
94.3988 6.3161 0
81.3461 32.8394 0
80.6294 30.459 0
38.8394 14.6828 0
38.7049 17.1777 0
28.5944 11.4505 0
29.9815 13.511 0
51.9097 39.3516 0
54.3972 39.5607 0
86.5349 27.9414 0
85.8731 25.5567 0
22.1638 2.30445 0
23.5684 4.32175 0
49.3543 3.01977 0
47.2325 1.69295 0
18.8697 19.5926 0
21.3553 19.9008 0
2.08994 9.00821 0
4.27504 7.78855 0
20.2607 3.56683 0
18.8557 5.62262 0
62.9377 44.2385 0
65.1589 45.386 0
34.5044 21.0423 0
36.5892 19.6637 0
94.5967 1.03112 0
93.9618 3.43146 0
49.7447 42.2242 0
49.3591 39.7553 0
58.6724 10.6443 0
56.3231 9.79324 0
36.6172 10.5694 0
34.3348 11.5912 0
56.8228 43.6838 0
56.75 46.1819 0
2.42568 12.5871 0
1.76295 10.1869 0
82.4264 4.94085 0
83.3199 2.63568 0
37.6749 47.1253 0
35.4184 46.0506 0
65.9656 39.3567 0
68.295 40.2643 0
24.6697 33.9132 0
27.1446 34.2454 0
68.4543 39.2671 0
70.8545 38.5791 0
13.8383 30.4749 0
12.2138 28.6022 0
58.8597 44.2506 0
61.2939 44.8156 0
24.3315 5.55936 0
24.2026 8.04016 0
81.1125 20.7946 0
78.7279 21.5483 0
29.8823 39.5581 0
29.5166 42.0238 0
23.7242 16.9321 0
21.4628 15.8779 0
2.72624 8.2091 0
4.95333 7.06703 0
48.0289 30.6848 0
49.9852 29.135 0
87.0469 23.0435 0
84.6584 23.7872 0
34.6721 10.7818 0
32.3397 11.6855 0
47.5608 25.863 0
46.1058 23.8348 0
67.4126 24.1467 0
65.423 22.6341 0
58.2045 29.9855 0
56.8631 32.0888 0
32.3372 34.7299 0
34.6267 35.7193 0
57.4054 36.1862 0
56.0453 34.0907 0
26.6795 3.27999 0
28.7807 1.9166 0
11.1897 26.5348 0
12.7237 24.5662 0
63.4995 32.9348 0
61.9054 34.8517 0
28.501 11.2871 0
26.0539 11.8205 0
44.506 45.6217 0
42.0079 45.6882 0
30.8551 14.3394 0
31.985 16.5557 0
13.2036 1.82066 0
15.3317 0.509635 0
76.1163 14.906 0
73.8568 15.9572 0
12.6703 6.50533 0
13.3195 8.89491 0
35.4803 4.80474 0
36.3478 7.14608 0
53.992 17.5332 0
51.537 17.973 0
31.3211 8.37147 0
29.0173 7.42773 0
24.295 6.56289 0
21.7991 6.7985 0
48.6116 3.47356 0
51.0493 4.0395 0
32.1735 13.6591 0
32.1051 11.1657 0
1.57507 3.45172 0
4.05594 3.77431 0
62.8107 44.1292 0
60.4924 43.1954 0
42.6471 24.3072 0
40.1586 24.1469 0
48.3477 30.6194 0
50.5229 31.8407 0
58.8702 35.1628 0
56.3846 35.3786 0
50.0161 46.438 0
52.0703 45.0153 0
26.9537 5.60767 0
26.3295 8.02854 0
43.5202 35.9034 0
42.1036 33.8492 0
52.8734 27.8146 0
50.9799 29.4395 0
60.9456 39.8187 0
62.0828 42.0432 0
46.9376 23.5178 0
45.6732 21.365 0
19.2531 2.93508 0
18.54 0.575049 0
48.2303 41.7593 0
49.192 39.453 0
47.8204 39.3493 0
45.3707 38.8712 0
73.2058 11.4373 0
72.6791 8.99885 0
52.5225 17.6966 0
50.7818 15.9053 0
25.016 41.6547 0
27.5018 41.3656 0
51.9672 23.9554 0
50.5564 26.0156 0
25.8634 30.1942 0
28.2883 30.7816 0
5.3508 7.9893 0
2.86789 7.67811 0
20.8956 35.107 0
18.7734 36.4299 0
31.9093 19.0591 0
34.1824 20.0802 0
30.1198 19.1492 0
27.7705 18.3125 0
78.7167 17.4267 0
79.4527 19.7996 0
41.9242 32.004 0
42.4704 29.5669 0
44.7952 12.4084 0
45.253 9.95006 0
44.2045 19.9467 0
46.0501 18.2633 0
36.119 2.32622 0
35.7781 4.80123 0
94.4852 4.85032 0
95.2996 7.204 0
41.9207 21.6582 0
40.3726 23.6197 0
57.7698 26.0283 0
55.7323 24.5852 0
62.6828 26.8258 0
65.0889 27.4933 0
8.54807 15.5997 0
8.47104 18.0809 0
70.8061 30.8098 0
68.3639 30.2844 0
45.8861 35.5438 0
46.1324 33.058 0
87.0801 2.73633 0
88.7728 4.56967 0
22.5244 38.3522 0
22.8886 40.8106 0
66.2369 43.0076 0
64.2038 41.5536 0
77.3337 11.8922 0
77.8693 14.3172 0
50.845 46.8584 0
49.1604 48.7049 0
14.9012 13.3341 0
15.4063 10.9075 0
75.5986 18.851 0
75.3873 21.3243 0
59.047 45.4456 0
61.0998 46.8725 0
83.7418 9.40821 0
86.1936 8.89761 0
6.96214 1.79706 0
4.4625 1.89093 0
80.7296 18.8822 0
82.5373 17.1741 0
13.604 0.198553 0
11.1061 0.105148 0
14.9328 32.0208 0
17.3096 31.2583 0
14.2035 12.7976 0
15.5778 14.8617 0
66.7313 0.816051 0
64.2614 1.23774 0
72.2384 24.3283 0
71.2819 26.6242 0
52.0169 31.2735 0
50.0645 29.7194 0
29.3382 29.0293 0
28.0719 26.8877 0
76.0394 25.233 0
76.2759 22.7611 0
88.1048 17.1786 0
90.3477 18.299 0
56.5872 8.89693 0
54.2982 9.89561 0
30.6082 42.1492 0
32.091 44.1536 0
49.5614 38.0909 0
50.1525 35.6634 0
33.5922 30.4842 0
35.825 31.5926 0
51.2937 20.025 0
50.1619 22.2522 0
48.0095 20.0311 0
46.7653 17.8653 0
56.3044 36.5764 0
54.2148 37.9405 0
27.9431 27.8722 0
28.5228 30.2914 0
32.586 34.3183 0
33.2168 36.7291 0
91.748 14.6683 0
93.5814 16.3691 0
6.67906 6.1498 0
6.35268 8.61456 0
30.6062 35.6369 0
31.2768 33.2346 0
65.1906 34.74 0
64.258 37.0521 0
70.9033 2.11158 0
72.5055 0.206285 0
72.1853 24.9261 0
72.6647 22.4862 0
12.9591 14.5686 0
14.9637 16.0484 0
48.3602 3.28954 0
50.7929 3.87747 0
17.3661 5.83296 0
17.5676 8.29343 0
6.47904 18.5354 0
3.99014 18.2835 0
31.8524 33.7476 0
32.0326 36.2332 0
59.3145 32.7135 0
59.019 35.1923 0
80.566 24.3316 0
80.9474 26.7825 0
96.0431 18.3597 0
96.4612 15.9065 0
81.6361 13.09 0
84.1084 12.6811 0
31.428 34.2749 0
30.3513 32.0299 0
95.0693 8.62986 0
94.1976 10.9571 0
92.6798 17.8503 0
94.9012 16.7131 0
25.3335 37.7512 0
25.0468 35.2807 0
11.1298 27.0867 0
12.946 28.7741 0
25.2185 16.9921 0
22.7561 17.4595 0
33.0669 22.1112 0
35.5556 22.2916 0
75.0773 22.9349 0
72.5776 22.9718 0
50.0606 27.4325 0
49.6803 29.9017 0
21.0001 18.5821 0
20.4892 21.011 0
93.0825 7.20737 0
92.2591 9.5496 0
49.1253 47.9571 0
47.6827 45.9165 0
60.2926 38.9038 0
62.1689 37.2595 0
68.4913 12.4916 0
66.4353 11.0636 0
74.7443 11.4 0
72.5741 12.6156 0
59.6063 41.7393 0
61.2421 43.6287 0
83.0181 11.9748 0
83.7018 9.59957 0
12.3077 9.72838 0
11.2231 7.49862 0
46.2384 42.878 0
44.2366 41.3856 0
78.0932 4.15475 0
75.6281 4.55114 0
79.2281 34.4724 0
79.6861 32.0321 0
50.318 26.1516 0
47.8584 25.7432 0
15.9016 14.8693 0
18.38 14.4718 0
24.6479 1.76893 0
27.1274 1.94047 0
21.7874 5.87916 0
23.745 4.30916 0
38.4536 26.6148 0
36.0123 27.1353 0
39.6074 37.7979 0
37.1152 37.6533 0
20.4579 23.1473 0
19.0566 21.0969 0
55.8204 8.52188 0
53.5428 9.54733 0
30.8077 38.5764 0
33.2548 38.0676 0
56.7785 41.6251 0
59.2473 41.2524 0
59.0507 12.2498 0
61.4991 11.7684 0
84.7908 1.93968 0
82.4323 2.7572 0
54.6824 35.5561 0
52.9153 37.319 0
27.9149 39.2088 0
30.4097 39.0448 0
56.9053 32.4409 0
56.6173 29.9601 0
77.6016 21.1599 0
75.7179 22.7877 0
36.6909 36.3985 0
36.0532 38.8123 0
70.652 32.2437 0
68.1868 32.633 0
48.944 32.2681 0
50.282 30.1598 0
64.367 19.2402 0
65.3729 21.5273 0
36.9321 30.4141 0
39.4266 30.4575 0
52.1013 2.88445 0
54.2105 4.22998 0
16.1299 26.8258 0
13.918 25.668 0
28.8393 37.5123 0
26.37 37.9064 0
66.298 34.6583 0
64.7088 32.731 0
86.8458 13.717 0
85.7544 15.9409 0
79.8918 37.3065 0
77.592 38.2761 0
1.06736 9.63073 0
2.75483 11.4663 0
22.3175 6.96464 0
19.8257 6.72059 0
28.0313 24.0488 0
25.557 23.7044 0
48.7816 5.318 0
46.4102 4.52253 0
39.4159 8.23689 0
37.1216 7.25326 0
13.1964 16.1227 0
11.7593 14.0993 0
35.2074 37.7176 0
33.3919 39.4343 0
76.1262 7.93778 0
78.1971 6.5645 0
38.894 43.7053 0
38.0822 41.3443 0
46.1948 9.35375 0
48.2305 7.90364 0
39.9096 30.8233 0
37.4891 31.433 0
37.3352 29.0673 0
36.6684 31.4727 0
36.7261 26.8032 0
34.2537 27.1477 0
30.6672 4.38272 0
33.0166 5.2226 0
71.8223 31.7993 0
73.997 30.582 0
24.175 12.3034 0
26.566 11.5474 0
33.2222 43.5235 0
35.5104 42.5158 0
26.0993 22.3623 0
24.0786 23.8332 0
5.62954 2.55743 0
6.55601 0.243844 0
94.3966 5.87907 0
96.808 6.55594 0
53.4062 18.8075 0
51.7022 16.9811 0
53.8038 45.2955 0
52.3225 47.3079 0
94.7396 5.22486 0
93.3339 3.16267 0
30.2455 21.0392 0
27.799 20.5428 0
57.5053 2.02167 0
58.1149 4.44558 0
94.6216 11.456 0
92.9796 9.57431 0
43.7259 7.08889 0
46.1875 6.65347 0
49.3933 42.234 0
47.4355 43.7862 0
42.4294 27.1816 0
44.8384 26.533 0
24.2618 22.5177 0
21.7874 22.1534 0
69.9811 34.0315 0
70.1477 31.5468 0
18.3859 13.4449 0
20.6096 14.5767 0
9.41193 28.6663 0
11.6954 27.6249 0
62.0216 24.3879 0
60.7915 22.2129 0
81.7218 25.0543 0
79.2198 24.9815 0
22.847 29.1592 0
20.7277 30.4796 0
14.248 29.5139 0
14.3609 31.9845 0
12.6273 12.9688 0
13.6596 15.2209 0
67.357 22.6837 0
67.8039 20.2338 0
79.3171 21.7529 0
81.7299 22.4297 0
15.2712 21.6104 0
14.2026 23.8539 0
21.2604 13.506 0
18.9056 12.6674 0
44.9075 44.8851 0
42.4118 44.7705 0
62.229 37.943 0
60.8111 35.8862 0
59.6101 47.1403 0
61.9406 46.2369 0
39.9784 37.6703 0
42.4739 37.621 0
55.7237 30.1667 0
53.3864 29.294 0
67.6174 40.6421 0
65.1315 40.8924 0
71.0752 5.58933 0
73.5672 5.64865 0
80.9151 3.27202 0
80.8438 0.80662 0
59.6884 6.98943 0
57.9462 8.77887 0
32.3828 19.4386 0
31.5807 21.8023 0
43.9544 32.3606 0
44.0657 34.8555 0
97.8188 14.1113 0
97.9715 11.6251 0
74.1028 18.4806 0
72.1518 16.9129 0
77.0616 31.4458 0
76.3513 33.8272 0
55.9599 48.5388 0
56.3194 46.0655 0
40.1744 1.12464 0
37.7569 1.77845 0
72.0317 19.9757 0
74.5076 19.6352 0
41.8368 44.5917 0
44.3156 44.9025 0
87.0955 2.74357 0
86.524 5.15335 0
19.3804 21.8847 0
18.9357 19.4483 0
17.5324 36.1858 0
16.2997 34.0342 0
26.0801 37.9299 0
24.1954 39.5718 0
61.6704 6.23379 0
59.7005 4.69298 0
39.7366 30.001 0
40.0518 32.4765 0
63.2626 5.45853 0
60.7921 5.83428 0
60.5815 6.58369 0
61.4341 4.23524 0
79.3108 36.8311 0
76.8749 37.3858 0
46.8271 23.3138 0
47.7837 21.005 0
81.9571 12.303 0
79.4753 12.6468 0
17.6962 12.9324 0
18.5149 15.268 0
48.2098 40.5363 0
46.3969 42.2556 0
65.3656 19.7279 0
64.1384 17.55 0
42.9287 39.9479 0
41.7517 42.1525 0
54.5039 16.8879 0
53.4325 19.1442 0
22.928 29.3048 0
25.3181 28.5756 0
23.2462 14.8724 0
20.8033 14.3325 0
92.339 7.78347 0
90.8193 9.75093 0
32.1503 31.9981 0
33.6155 29.9761 0
68.713 28.4832 0
68.9483 30.9642 0
97.6787 2.41261 0
96.1936 4.40479 0
67.3537 14.9498 0
69.815 14.5418 0
78.3442 23.2798 0
78.8051 20.8434 0
37.5773 15.9637 0
35.1982 15.218 0
68.9048 9.26992 0
69.4613 6.83927 0
32.9517 20.1812 0
34.2964 18.0742 0
33.2843 31.5661 0
34.9337 29.6905 0
87.8855 25.9198 0
89.8588 27.4635 0
84.2612 23.6027 0
86.6866 24.2408 0
38.5221 11.1496 0
36.0956 11.7447 0
65.6801 40.2875 0
63.5104 39.0474 0
37.7022 1.52556 0
35.5275 2.76213 0
75.4715 39.8557 0
75.9015 42.3078 0
67.3519 2.15236 0
67.1287 4.64137 0
71.9783 15.1461 0
70.1347 13.4518 0
63.3627 31.8409 0
65.8539 31.9975 0
39.5834 3.12815 0
38.8499 5.51807 0
46.2274 18.6487 0
47.7943 16.7026 0
37.5211 38.675 0
36.3121 40.8608 0
90.1821 7.30304 0
90.9063 4.93056 0
92.5948 20.0206 0
90.1893 19.3117 0
55.8912 19.1717 0
56.1438 16.6855 0
22.8729 18.7501 0
21.4928 20.8261 0
32.7429 15.9926 0
34.5248 17.7308 0
72.9666 38.2796 0
73.3235 35.8171 0
61.7395 40.654 0
63.171 42.7017 0
27.4659 32.803 0
29.7603 31.8124 0
27.6506 16.5655 0
25.8072 14.8982 0
39.4922 2.33182 0
37.4644 3.79753 0
18.629 28.3944 0
17.7987 26.0568 0
73.4916 2.6296 0
75.2239 0.862336 0
75.7685 41.961 0
73.2702 42.0975 0
57.3524 43.8211 0
54.932 43.202 0
27.2552 8.99433 0
28.8857 10.8656 0
24.2087 7.77317 0
23.0459 9.98242 0
76.6111 41.4471 0
74.5015 42.7801 0
30.3844 38.4627 0
32.0684 40.3003 0
47.7313 27.3803 0
48.5132 29.7523 0
78.4314 6.9511 0
80.9143 6.62608 0
76.0061 10.3401 0
76.2716 12.8091 0
69.5231 33.9875 0
68.9102 31.5706 0
77.7206 17.0267 0
79.7055 18.5509 0
84.4738 32.4329 0
85.6429 34.6261 0
64.8984 34.3326 0
64.2152 31.9319 0
32.4138 10.0994 0
29.9176 10.0556 0
29.5297 44.3137 0
31.8235 45.3042 0
20.0726 28.9521 0
22.5339 28.5208 0
45.152 28.223 0
47.3609 27.0623 0
19.2967 33.7233 0
20.5711 31.5826 0
66.1265 9.27764 0
66.1523 6.77944 0
61.7063 1.57941 0
64.0625 0.730721 0
80.9521 1.38756 0
79.8131 3.5666 0
40.5929 47.3869 0
38.0956 47.261 0
58.7971 25.9445 0
59.615 28.3048 0
14.8153 23.3327 0
16.9162 24.6769 0
4.09768 14.4105 0
6.14601 12.9727 0
84.2684 21.5897 0
82.6404 19.6999 0
8.18184 0.605862 0
5.72102 0.180832 0
75.4313 19.9928 0
73.0808 20.8329 0
52.432 9.74942 0
50.7794 7.87425 0
43.3126 5.64356 0
45.711 4.934 0
39.269 2.67488 0
37.8582 4.73973 0
3.31975 8.63234 0
0.881324 8.07443 0
87.8952 12.0757 0
88.2195 14.5338 0
39.7017 11.208 0
37.4369 10.1628 0
57.9429 7.19576 0
56.0205 5.5963 0
16.2679 26.7269 0
13.7793 27.017 0
52.5474 5.21523 0
55.0208 5.58646 0
89.8385 6.94976 0
92.2221 7.72068 0
93.5061 4.63551 0
91.8564 2.76046 0
95.0974 0.408884 0
96.8635 2.18008 0
16.0604 29.2332 0
18.4277 28.4373 0
62.4849 9.43131 0
61.7767 11.8259 0
18.5817 7.13763 0
17.9414 4.75747 0
70.1846 44.9454 0
67.8045 44.174 0
79.6808 8.31397 0
80.5721 6.00992 0
91.9009 15.6219 0
89.742 14.3515 0
59.5363 8.61323 0
59.338 6.12077 0
21.4062 28.3832 0
23.7094 29.3416 0
24.8665 41.857 0
26.3694 39.8629 0
22.38 13.1836 0
24.58 14.3511 0
9.85551 12.0464 0
11.0358 9.85465 0
33.5176 45.2189 0
34.4777 42.9144 0
67.6149 35.6867 0
69.8786 36.7467 0
25.3436 10.6014 0
26.8568 8.60465 0
84.0153 24.3994 0
82.6757 22.3032 0
87.5768 2.03455 0
89.3597 3.78254 0
51.1089 40.7723 0
53.4438 41.6582 0
82.2005 9.37321 0
80.1117 7.98621 0
65.1085 14.4017 0
66.1125 16.6914 0
42.9474 6.57935 0
42.7627 4.08685 0
53.5122 5.2974 0
55.4266 3.68953 0
44.3464 38.6882 0
42.879 40.7108 0
90.5883 10.8059 0
92.5636 9.2863 0
23.2667 16.7748 0
24.8016 18.727 0
23.7745 9.9869 0
23.8145 7.50639 0
60.7105 35.5139 0
60.9494 37.9996 0
44.6461 1.00608 0
42.29 1.8539 0
78.2863 24.1298 0
79.0214 21.7607 0
68.8589 37.6892 0
68.7537 35.199 0
27.5549 6.35015 0
29.4601 4.72029 0
58.9273 13.052 0
59.0192 15.5494 0
57.7176 9.32581 0
59.6468 10.9161 0
51.7587 19.313 0
54.169 19.9563 0
50.6767 37.9654 0
48.1811 37.9641 0
47.4665 22.623 0
46.4169 24.8906 0
22.6354 20.974 0
22.843 23.4466 0
81.0264 2.101 0
78.5675 1.59112 0
95.2755 4.85769 0
95.4249 7.33988 0
48.3796 40.9201 0
46.7845 42.8435 0
26.3775 16.5213 0
25.2382 18.7402 0
89.3201 21.3997 0
88.3539 23.6788 0
43.8438 3.38273 0
46.115 4.43004 0
53.2814 27.6363 0
55.5156 28.7476 0
78.2808 8.27089 0
79.9477 6.43668 0
13.6829 13.9474 0
16.1824 14.1549 0
54.0794 47.2818 0
53.9834 44.7842 0
52.4097 5.79318 0
49.9861 5.17533 0
54.1068 40.3355 0
51.8108 41.3162 0
8.32802 21.8474 0
6.37494 23.4153 0
11.1309 27.5255 0
8.63776 27.3444 0
49.7343 46.9658 0
47.2354 46.9939 0
43.5653 18.1596 0
45.9095 19.0102 0
28.429 43.2286 0
27.7443 40.8349 0
87.1212 31.2978 0
86.4069 28.9349 0
85.791 22.3339 0
86.6568 20.0148 0
85.9775 0.787294 0
88.4129 1.36443 0
83.503 35.4602 0
84.5296 33.2063 0
24.1646 32.4546 0
25.7304 30.5115 0
45.6022 42.0416 0
47.1183 44.0266 0
21.4115 34.7293 0
23.6901 33.7 0
6.266 12.0534 0
4.35169 10.4568 0
34.5487 14.5049 0
36.1611 12.5921 0
31.2794 45.6964 0
33.0072 43.8909 0
18.2934 22.8305 0
20.7125 23.4675 0
10.2909 22.4324 0
11.9922 20.6016 0
50.2245 7.38906 0
47.8896 6.49572 0
47.4995 30.5635 0
45.1697 29.6742 0
38.8738 20.7821 0
41.2821 20.1253 0
43.5983 9.73455 0
41.3937 10.9117 0
77.4798 36.7131 0
79.2498 34.9652 0
39.9124 8.71092 0
39.0843 11.0704 0
74.8607 40.1378 0
73.6053 37.9813 0
60.7814 11.6289 0
58.911 13.2794 0
96.2628 12.4874 0
94.038 11.3384 0
43.7734 25.1245 0
41.2797 25.1402 0
54.277 42.6357 0
56.7498 42.2876 0
84.5676 23.3922 0
82.0653 23.533 0
2.50138 9.5786 0
4.56773 8.16854 0
82.1247 4.90699 0
84.6148 5.18687 0
36.5708 16.2297 0
38.6903 17.5411 0
44.0132 9.17063 0
42.0273 10.6887 0
21.2172 26.3037 0
22.2202 28.5765 0
43.0641 26.9944 0
45.3762 26.0562 0
15.0555 19.5085 0
14.8838 21.9791 0
20.1611 8.51311 0
21.0262 6.18112 0
12.2456 24.6891 0
10.9803 22.5602 0
49.8772 41.2852 0
48.6866 39.089 0
9.60285 24.3206 0
9.41264 26.7971 0
35.099 43.8029 0
32.8866 44.9684 0
13.4095 18.2082 0
11.2182 17.0137 0
12.2736 23.6692 0
12.7069 21.2279 0
84.213 17.316 0
84.055 14.8445 0
97.1181 15.4037 0
94.9127 14.219 0
76.1693 36.5097 0
77.5597 38.5817 0
4.71601 2.93306 0
2.25896 3.4172 0
13.9181 26.6466 0
11.4266 26.382 0
9.89973 5.16141 0
8.63015 7.30508 0
87.0141 9.92753 0
86.7061 7.46861 0
50.8084 18.7334 0
49.8851 16.4109 0
22.8297 2.90963 0
23.5016 0.499608 0
24.0657 40.1976 0
21.5847 39.878 0
4.29522 10.4862 0
1.88455 11.1642 0
73.9843 27.9213 0
72.4159 29.8532 0
51.6074 16.3817 0
49.4405 17.6199 0
94.6955 5.49947 0
96.5735 7.15044 0
92.408 0.89675 0
90.0097 1.58726 0
54.6771 27.8354 0
57.0013 28.7431 0
3.92606 2.10359 0
2.80029 4.32909 0
25.6237 41.844 0
28.1091 41.5529 0
24.3216 33.0119 0
25.7882 35.0206 0
64.8534 37.6546 0
63.0397 35.9363 0
45.7867 38.7839 0
46.3329 36.3457 0
59.136 39.2204 0
58.3338 41.5851 0
42.847 19.2536 0
41.6473 17.0652 0
48.5269 16.7291 0
47.4688 14.4654 0
92.8801 4.84516 0
91.3581 6.81056 0
17.6593 6.56946 0
16.0831 4.65502 0
31.5749 30.5364 0
33.0899 28.5516 0
49.5584 44.9733 0
50.5155 47.2821 0
51.692 13.6526 0
49.2486 14.1594 0
35.2072 5.41097 0
34.5579 7.82617 0
90.7 7.7256 0
90.2668 10.1665 0
55.2534 45.5973 0
54.0034 43.4327 0
16.7295 18.1076 0
18.9185 16.8879 0
14.6124 7.03188 0
14.2732 4.58066 0
24.3146 34.1955 0
21.8226 34.3894 0
62.6077 33.4395 0
60.6424 34.9742 0
11.5581 19.5996 0
13.6666 20.9294 0
76.8313 0.35955 0
74.3502 0.235486 0
59.9047 25.9101 0
57.6544 24.8291 0
70.4415 26.909 0
67.9568 27.1482 0
46.2344 22.6701 0
46.9793 20.2843 0
76.5744 3.8056 0
74.1788 4.45462 0
47.8521 14.9823 0
50.1329 15.9948 0
88.1807 13.525 0
89.9578 11.7838 0
71.0298 0.0188372 0
73.335 0.987392 0
56.2762 45.5307 0
57.2053 43.2116 0
68.1763 3.19084 0
65.955 2.03934 0
22.8667 17.5756 0
24.7858 15.9688 0
81.1733 38.5438 0
83.1499 37.027 0
49.4121 2.84013 0
51.1129 4.67319 0
66.0244 3.24955 0
63.6934 2.34418 0
53.2964 12.0303 0
53.0636 9.54069 0
12.6022 15.364 0
10.7826 17.0787 0
43.1744 4.54685 0
43.6217 7.00573 0
56.1519 20.4563 0
58.5979 20.9488 0
60.8231 22.2614 0
58.3474 21.9516 0
28.8476 27.0745 0
27.0314 25.3719 0
40.7081 6.82489 0
38.233 7.16511 0
17.3988 2.33973 0
19.8818 2.01052 0
42.852 25.7204 0
40.3796 26.0519 0
7.01686 17.6556 0
8.34854 19.7521 0
20.3078 11.9297 0
22.1528 10.2373 0
67.3822 39.9026 0
65.4753 41.5109 0
45.1308 41.3896 0
45.9853 43.7371 0
70.7825 17.1488 0
73.1651 16.4083 0
88.2915 4.85857 0
90.0336 6.6466 0
49.8863 20.0543 0
48.1659 21.8642 0
56.3472 37.5802 0
56.3491 40.0786 0
82.34 25.9248 0
80.8164 27.8897 0
39.5754 4.32654 0
41.5653 5.8369 0
55.1607 43.448 0
57.001 41.7602 0
55.3742 43.3329 0
57.0538 41.485 0
25.0718 15.3077 0
23.2509 13.6197 0
14.3872 27.7116 0
13.5578 30.0408 0
52.9965 16.9268 0
51.1948 18.6548 0
32.5411 42.7031 0
34.8917 43.5491 0
19.7194 10.8138 0
21.4797 12.5643 0
61.5079 41.0126 0
63.7419 39.8992 0
32.9864 27.3479 0
31.0404 28.9146 0
31.0353 21.1036 0
32.0072 23.3945 0
72.0314 27.3433 0
71.2008 29.6882 0
38.099 12.9968 0
40.5701 13.3402 0
47.3036 47.8453 0
45.4843 46.1323 0
70.5954 11.4495 0
70.4576 13.9361 0
98.6782 10.1782 0
96.6144 8.76437 0
96.4799 15.8931 0
93.9773 15.9516 0
58.9417 10.1203 0
59.6752 12.5106 0
54.9871 18.2705 0
56.4661 20.2848 0
53.9042 41.5298 0
56.3661 41.1146 0
5.03482 4.42164 0
7.517 4.09732 0
84.4954 18.7489 0
86.8228 19.6851 0
19.3184 30.1357 0
19.5445 32.6077 0
64.3923 35.7075 0
63.1447 33.5439 0
66.4555 23.4091 0
68.9509 23.3311 0
60.3695 25.3611 0
62.6619 24.3827 0
55.9059 21.0583 0
57.5961 19.2235 0
21.6002 36.249 0
19.1058 36.4447 0
55.9391 32.2206 0
58.3682 31.6561 0
67.9518 1.61663 0
70.1365 2.83869 0
16.2171 6.24371 0
17.6145 4.18804 0
91.8066 24.1792 0
91.1279 26.564 0
89.1996 19.1003 0
86.7263 18.6751 0
88.0934 12.5576 0
86.5304 14.4878 0
76.389 18.8026 0
77.5847 16.6297 0
70.9817 20.9143 0
70.0699 23.228 0
26.6542 25.417 0
25.4368 27.5927 0
55.7922 26.2442 0
55.5454 28.7294 0
59.1591 42.9821 0
57.5184 44.865 0
66.1983 18.6807 0
68.2416 17.2575 0
81.2347 33.4766 0
79.6974 31.5138 0
50.4279 8.91148 0
49.7704 11.3237 0
26.096 27.4189 0
24.0642 28.8715 0
49.6502 27.2049 0
49.8899 24.7175 0
89.2894 25.4235 0
91.7907 25.357 0
78.9449 32.014 0
76.6151 32.9026 0
76.1773 37.3251 0
76.6144 34.8782 0
22.6821 1.45018 0
23.5191 3.77388 0
17.2432 11.9165 0
15.7612 9.92895 0
76.5096 35.6793 0
78.3712 34.0282 0
25.5432 42.6848 0
23.7609 40.9431 0
24.9574 3.51471 0
23.1368 1.85415 0
86.8825 24.3897 0
85.027 22.7168 0
84.042 33.3933 0
83.1542 31.0728 0
67.9917 9.0825 0
65.8931 7.71716 0
6.41814 3.78211 0
4.64468 5.54343 0
88.4895 7.24885 0
89.3724 4.93218 0
68.0679 40.7385 0
69.9025 39.0503 0
33.6083 18.7805 0
33.5099 21.2726 0
18.4094 18.3087 0
20.0134 20.2055 0
51.0047 20.5663 0
51.9922 18.271 0
81.1751 27.1541 0
78.9777 25.9663 0
33.672 33.591 0
31.4924 34.8129 0
42.0888 36.5659 0
44.2759 35.3613 0
9.48039 8.0785 0
8.10736 6.00804 0
46.3968 8.95981 0
43.922 9.29989 0
38.9252 45.7078 0
36.7431 44.4908 0
56.6682 44.6867 0
57.0798 42.2223 0
50.8192 7.69611 0
52.1405 9.81805 0
69.2958 9.52183 0
68.1825 11.7472 0
52.7849 10.5785 0
53.9922 8.39011 0
87.9577 0.589368 0
87.4418 3.01363 0
87.5485 29.6046 0
88.4796 27.3226 0
27.8037 27.7412 0
29.3579 25.7876 0
41.1404 3.11861 0
43.5631 2.48999 0
47.3876 29.1857 0
44.8953 29.1081 0
44.9089 23.079 0
42.4378 22.7469 0
57.5439 36.1052 0
55.6833 34.4391 0
79.9236 4.7535 0
81.3137 6.82076 0
32.9816 1.42896 0
31.325 3.30355 0
37.9929 49.6203 0
37.9173 51.1877 0
37.9173 51.1877 0
37.7048 52.7428 0
37.7048 52.7428 0
37.3573 54.2735 0
37.3573 54.2735 0
36.8774 55.7681 0
36.8774 55.7681 0
36.2688 57.2152 0
36.2688 57.2152 0
35.5362 58.6038 0
35.5362 58.6038 0
34.6854 59.9233 0
34.6854 59.9233 0
33.7228 61.1637 0
33.7228 61.1637 0
32.6557 62.3155 0
32.6557 62.3155 0
31.4923 63.3702 0
31.4923 63.3702 0
30.2415 64.3196 0
30.2415 64.3196 0
28.9128 65.1566 0
28.9128 65.1566 0
27.5162 65.8748 0
27.5162 65.8748 0
26.0625 66.4689 0
26.0625 66.4689 0
24.5626 66.9342 0
24.5626 66.9342 0
23.0278 67.2675 0
23.0278 67.2675 0
21.4699 67.466 0
21.4699 67.466 0
19.9007 67.5283 0
19.9007 67.5283 0
18.3319 67.454 0
18.3319 67.454 0
16.7756 67.2436 0
16.7756 67.2436 0
15.2434 66.8987 0
15.2434 66.8987 0
13.7471 66.4218 0
13.7471 66.4218 0
12.298 65.8167 0
12.298 65.8167 0
10.907 65.0878 0
10.907 65.0878 0
9.58467 64.2407 0
9.58467 64.2407 0
8.34116 63.2818 0
8.34116 63.2818 0
7.18586 62.2183 0
7.18586 62.2183 0
6.1276 61.0584 0
6.1276 61.0584 0
5.17445 59.8107 0
5.17445 59.8107 0
4.33366 58.4847 0
4.33366 58.4847 0
3.6117 57.0907 0
3.6117 57.0907 0
3.01413 55.639 0
3.01413 55.639 0
2.54552 54.1409 0
2.54552 54.1409 0
2.2095 52.6077 0
2.2095 52.6077 0
2.00876 51.0511 0
2.00876 51.0511 0
1.94487 49.4831 0
1.94487 49.4831 0
2.01837 47.9156 0
2.01837 47.9156 0
2.22881 46.3609 0
2.22881 46.3609 0
2.57466 44.8307 0
2.57466 44.8307 0
3.05331 43.3369 0
3.05331 43.3369 0
3.66122 41.8914 0
3.66122 41.8914 0
4.39373 40.5052 0
4.39373 40.5052 0
5.2453 39.1894 0
5.2453 39.1894 0
6.20958 37.9546 0
6.20958 37.9546 0
7.27888 36.811 0
7.27888 36.811 0
8.44529 35.7682 0
8.44529 35.7682 0
9.69982 34.837 0
9.69982 34.837 0
11.0333 34.0256 0
11.0333 34.0256 0
12.4388 33.3356 0
12.4388 33.3356 0
13.8971 32.7517 0
13.8971 32.7517 0
15.3952 32.2855 0
15.3952 32.2855 0
16.9268 31.9479 0
16.9268 31.9479 0
18.4821 31.743 0
18.4821 31.743 0
20.0492 31.6731 0
20.0492 31.6731 0
21.6167 31.7391 0
21.6167 31.7391 0
23.172 31.9405 0
23.172 31.9405 0
24.703 32.2762 0
24.703 32.2762 0
26.1985 32.7436 0
26.1985 32.7436 0
27.647 33.3397 0
27.647 33.3397 0
29.0373 34.0601 0
29.0373 34.0601 0
30.3586 34.8995 0
30.3586 34.8995 0
31.6012 35.8514 0
31.6012 35.8514 0
32.7557 36.9087 0
32.7557 36.9087 0
33.8132 38.0634 0
33.8132 38.0634 0
34.7657 39.3065 0
34.7657 39.3065 0
35.606 40.6286 0
35.606 40.6286 0
36.3276 42.0196 0
36.3276 42.0196 0
36.9251 43.4689 0
36.9251 43.4689 0
37.3938 44.9652 0
37.3938 44.9652 0
37.7299 46.4972 0
37.7299 46.4972 0
37.9304 48.0529 0
37.9304 48.0529 0
37.9929 49.6203 0
98.0552 49.4826 0
97.9913 51.0507 0
97.9913 51.0507 0
97.7906 52.6073 0
97.7906 52.6073 0
97.4546 54.1404 0
97.4546 54.1404 0
96.986 55.6386 0
96.986 55.6386 0
96.3884 57.0902 0
96.3884 57.0902 0
95.6664 58.4843 0
95.6664 58.4843 0
94.8256 59.8102 0
94.8256 59.8102 0
93.8724 61.0578 0
93.8724 61.0578 0
92.8142 62.2178 0
92.8142 62.2178 0
91.6589 63.2813 0
91.6589 63.2813 0
90.4153 64.2402 0
90.4153 64.2402 0
89.093 65.0873 0
89.093 65.0873 0
87.702 65.8161 0
87.702 65.8161 0
86.2529 66.4212 0
86.2529 66.4212 0
84.7565 66.8981 0
84.7565 66.8981 0
83.2244 67.243 0
83.2244 67.243 0
81.6681 67.4534 0
81.6681 67.4534 0
80.0993 67.5277 0
80.0993 67.5277 0
78.5301 67.4653 0
78.5301 67.4653 0
76.9721 67.2668 0
76.9721 67.2668 0
75.4374 66.9335 0
75.4374 66.9335 0
73.9375 66.4681 0
73.9375 66.4681 0
72.4838 65.874 0
72.4838 65.874 0
71.0872 65.1558 0
71.0872 65.1558 0
69.7585 64.3188 0
69.7585 64.3188 0
68.5077 63.3694 0
68.5077 63.3694 0
67.3444 62.3147 0
67.3444 62.3147 0
66.2773 61.1628 0
66.2773 61.1628 0
65.3147 59.9224 0
65.3147 59.9224 0
64.4639 58.6029 0
64.4639 58.6029 0
63.7314 57.2143 0
63.7314 57.2143 0
63.1228 55.7672 0
63.1228 55.7672 0
62.6429 54.2726 0
62.6429 54.2726 0
62.2954 52.7419 0
62.2954 52.7419 0
62.083 51.1869 0
62.083 51.1869 0
62.0075 49.6194 0
62.0075 49.6194 0
62.07 48.052 0
62.07 48.052 0
62.2705 46.4963 0
62.2705 46.4963 0
62.6066 44.9643 0
62.6066 44.9643 0
63.0752 43.468 0
63.0752 43.468 0
63.6727 42.0187 0
63.6727 42.0187 0
64.3943 40.6277 0
64.3943 40.6277 0
65.2345 39.3056 0
65.2345 39.3056 0
66.187 38.0625 0
66.187 38.0625 0
67.2445 36.9079 0
67.2445 36.9079 0
68.3989 35.8507 0
68.3989 35.8507 0
69.6416 34.8988 0
69.6416 34.8988 0
70.9631 34.0596 0
70.9631 34.0596 0
72.3532 33.3393 0
72.3532 33.3393 0
73.8016 32.7428 0
73.8016 32.7428 0
75.2972 32.275 0
75.2972 32.275 0
76.8285 31.9391 0
76.8285 31.9391 0
78.3837 31.7377 0
78.3837 31.7377 0
79.9509 31.672 0
79.9509 31.672 0
81.5182 31.7421 0
81.5182 31.7421 0
83.0736 31.9472 0
83.0736 31.9472 0
84.6056 32.2847 0
84.6056 32.2847 0
86.1038 32.7511 0
86.1038 32.7511 0
87.5608 33.3355 0
87.5608 33.3355 0
88.9673 34.0253 0
88.9673 34.0253 0
90.301 34.8375 0
90.301 34.8375 0
91.555 35.7683 0
91.555 35.7683 0
92.7213 36.8104 0
92.7213 36.8104 0
93.7908 37.9542 0
93.7908 37.9542 0
94.7549 39.1889 0
94.7549 39.1889 0
95.6065 40.5049 0
95.6065 40.5049 0
96.339 41.891 0
96.339 41.891 0
96.9469 43.3365 0
96.9469 43.3365 0
97.4255 44.8302 0
97.4255 44.8302 0
97.7714 46.3605 0
97.7714 46.3605 0
97.9818 47.9152 0
97.9818 47.9152 0
98.0552 49.4826 0
      </DataArray>
    </Points>
    <Cells>
      <DataArray type="Int32" Name="connectivity" format="ascii">
247 120 114 753 754 755 
213 114 214 748 749 750 
487 220 257 647 745 730 
257 115 260 741 742 743 
246 300 116 738 739 740 
212 116 247 731 732 733 
246 257 117 724 725 726 
299 117 312 719 720 721 
303 310 118 716 717 718 
248 118 256 711 712 713 
513 495 483 150 224 119 
507 513 483 151 119 184 
248 120 302 704 705 706 
221 258 121 1196 1197 1198 
259 121 313 1191 1192 1193 
464 430 432 332 409 122 
436 464 432 326 122 408 
346 1189 123 1186 1187 1188 
298 123 351 1181 1182 1183 
71 311 124 699 700 701 
65 124 372 692 693 694 
79 369 125 687 688 689 
684 125 309 680 681 682 
211 243 126 1178 1179 1180 
244 126 297 1173 1174 1175 
462 474 436 240 281 127 
438 462 436 294 127 327 
512 515 514 131 129 134 
513 509 511 130 132 135 
514 515 510 129 139 128 
508 514 510 148 128 147 
496 500 514 146 133 149 
513 499 495 136 145 150 
507 509 513 143 130 151 
505 491 497 141 142 154 
504 515 512 137 131 155 
174 503 511 1151 156 144 
512 514 500 134 133 159 
499 513 511 136 135 162 
494 515 504 138 137 165 
171 510 515 1164 139 166 
140 167 168 678 674 675 
167 492 168 672 661 674 
491 505 506 141 153 169 
177 498 497 656 164 170 
173 490 174 1156 1149 1171 
217 489 503 1126 176 175 
495 499 498 145 163 178 
501 500 496 158 146 179 
172 486 181 1162 1145 1169 
496 514 508 149 148 183 
480 481 140 227 152 187 
479 506 505 188 153 190 
477 505 497 191 154 193 
504 512 475 155 160 194 
472 511 503 161 156 197 
501 502 471 157 199 200 
500 501 470 158 201 202 
475 512 500 160 159 203 
499 511 472 162 161 204 
498 499 469 163 205 206 
497 498 468 164 207 208 
494 504 474 165 195 210 
211 493 171 1165 1161 1166 
167 180 212 667 668 669 
168 492 213 661 662 663 
214 488 177 657 653 658 
172 171 215 1158 1159 1160 
173 185 216 1153 1154 1155 
174 490 217 1149 1127 1150 
473 503 489 196 176 218 
177 488 219 653 643 654 
220 487 180 647 648 649 
182 181 221 1142 1143 1144 
496 508 115 183 222 747 
225 484 185 886 1138 1139 
482 502 481 198 186 226 
506 480 140 189 187 677 
480 506 479 189 188 228 
479 505 478 190 192 229 
478 505 477 192 191 230 
477 497 476 193 209 231 
474 504 475 195 194 232 
472 503 473 197 196 233 
471 502 482 199 198 234 
470 501 471 201 200 235 
475 500 470 203 202 236 
469 499 472 205 204 237 
468 498 469 207 206 238 
476 497 468 209 208 239 
494 474 461 210 241 242 
215 245 249 1133 1134 1135 
216 250 251 1128 1129 1130 
217 252 253 1123 1124 1125 
307 451 473 1047 255 254 
223 219 256 640 641 642 
583 263 223 1074 637 628 
582 261 264 1120 1121 1122 
445 482 481 265 226 268 
444 481 480 267 227 270 
443 480 479 269 228 272 
442 479 478 271 229 274 
441 478 477 273 230 276 
440 477 476 275 231 278 
474 475 436 232 280 281 
472 473 435 233 283 284 
471 482 446 234 266 286 
470 471 434 235 287 288 
464 475 470 279 236 289 
469 472 463 237 285 290 
468 469 433 238 291 292 
439 476 468 277 239 293 
461 474 462 241 240 295 
296 460 243 1071 1116 1117 
245 244 298 1107 1108 1109 
258 249 304 1100 1101 1102 
250 262 305 1095 1096 1097 
252 251 306 1088 1089 1090 
253 452 307 1084 1044 1085 
437 473 451 282 255 308 
633 314 591 871 832 1082 
262 261 316 1075 1076 1077 
318 629 578 854 810 809 
446 482 445 266 265 319 
445 481 444 268 267 320 
444 480 443 270 269 321 
443 479 442 272 271 322 
442 478 441 274 273 323 
441 477 440 276 275 324 
440 476 439 278 277 325 
436 475 464 280 279 326 
435 473 437 283 282 328 
463 472 435 285 284 329 
434 471 446 287 286 330 
464 470 434 289 288 331 
433 469 463 291 290 334 
439 468 433 293 292 335 
462 438 43 294 338 339 
461 462 45 295 340 341 
296 342 343 1068 1069 1070 
297 344 345 1063 1064 1065 
299 311 347 621 622 623 
301 300 348 616 617 618 
302 301 349 609 610 611 
309 303 350 602 603 604 
304 352 353 1058 1059 1060 
305 358 359 1053 1054 1055 
306 361 362 1048 1049 1050 
307 452 364 1044 934 1045 
437 451 109 308 367 368 
599 317 597 848 850 1042 
592 315 593 841 840 1040 
313 355 375 1035 1036 1037 
585 586 587 1032 1033 1034 
356 316 378 1027 1028 1029 
578 579 580 1024 1025 1026 
3 446 445 381 319 383 
7 445 444 384 320 386 
11 444 443 387 321 389 
15 443 442 390 322 392 
19 442 441 393 323 395 
23 441 440 396 324 398 
27 440 439 399 325 401 
432 438 436 336 327 408 
435 437 431 328 337 410 
429 463 435 333 329 411 
434 446 0 330 382 413 
430 464 434 332 331 414 
433 463 429 334 333 415 
1 439 433 402 335 416 
39 438 432 404 336 417 
431 437 940 337 407 418 
43 438 41 338 405 42 
45 462 43 340 339 44 
47 49 342 48 1019 1020 
344 343 51 1009 1010 1011 
346 345 1013 1000 1001 1002 
348 347 702 569 570 571 
350 349 75 560 561 562 
352 351 55 991 992 993 
354 353 979 984 985 986 
355 354 995 975 976 977 
357 356 89 968 969 970 
358 357 956 959 960 961 
360 359 972 952 953 954 
361 360 95 943 944 945 
363 362 99 936 937 938 
364 363 103 927 928 929 
107 451 105 366 365 106 
109 451 107 367 366 108 
931 437 109 406 368 110 
370 369 548 553 554 555 
371 370 690 544 545 546 
372 374 532 537 538 539 
374 373 696 528 529 530 
376 375 61 920 921 922 
924 523 524 915 916 917 
378 380 85 908 909 910 
516 911 518 903 904 905 
0 446 3 382 381 2 
3 445 5 383 385 4 
5 445 7 385 384 6 
7 444 9 386 388 8 
9 444 11 388 387 10 
11 443 13 389 391 12 
13 443 15 391 390 14 
15 442 17 392 394 16 
17 442 19 394 393 18 
19 441 21 395 397 20 
21 441 23 397 396 22 
23 440 25 398 400 24 
25 440 27 400 399 26 
27 439 29 401 403 28 
29 439 1 403 402 30 
41 438 39 405 404 40 
940 437 931 407 406 932 
432 430 31 409 423 419 
429 435 431 411 410 412 
93 429 431 426 412 422 
430 434 0 414 413 424 
1 433 429 416 415 428 
39 432 37 417 420 38 
947 431 940 421 418 941 
37 432 31 420 419 36 
93 431 947 422 421 948 
31 430 33 423 425 32 
33 430 0 425 424 34 
112 429 93 427 426 111 
1 429 112 428 427 113 
220 115 257 746 741 745 
518 899 519 896 897 898 
521 519 380 889 890 891 
630 264 225 882 883 884 
491 177 497 659 170 142 
481 502 140 186 676 152 
744 182 635 879 874 875 
120 247 467 753 735 707 
247 114 492 755 752 736 
114 120 488 754 710 751 
114 213 492 748 662 752 
213 214 491 750 660 665 
214 114 488 749 751 657 
115 220 496 746 652 747 
257 260 466 743 632 727 
182 485 635 878 870 874 
300 246 458 738 728 619 
246 116 487 740 737 729 
116 300 467 739 620 734 
116 212 487 731 670 737 
212 247 492 733 736 671 
247 116 467 732 734 735 
257 246 487 724 729 730 
246 117 458 726 723 728 
117 257 466 725 727 722 
117 299 458 719 625 723 
299 312 449 721 595 626 
312 117 466 720 722 596 
310 303 450 716 608 600 
303 118 457 718 715 605 
118 310 465 717 601 714 
118 248 457 711 708 715 
248 256 488 713 644 709 
256 118 465 712 714 645 
120 248 488 704 709 710 
248 302 457 706 613 708 
302 120 467 705 707 614 
311 71 573 699 72 624 
71 124 63 701 698 70 
124 311 449 700 627 695 
124 65 63 692 64 698 
65 372 67 694 542 66 
372 124 449 693 695 543 
369 79 81 687 80 556 
79 125 73 689 686 78 
125 369 450 688 559 683 
125 684 73 680 685 686 
684 309 564 682 606 565 
309 125 450 681 683 607 
167 140 502 678 676 679 
501 167 502 673 679 157 
140 168 506 675 666 677 
180 167 501 667 673 651 
167 212 492 669 671 672 
212 180 487 668 648 670 
506 168 213 666 663 664 
491 506 213 169 664 665 
491 214 177 660 658 659 
498 177 219 656 654 655 
495 498 219 178 655 646 
496 220 180 652 649 650 
501 496 180 179 650 651 
219 223 495 640 639 646 
223 256 465 642 645 636 
256 219 488 641 643 644 
495 223 263 639 637 638 
483 495 263 224 638 631 
633 635 634 867 868 869 
588 634 259 860 861 862 
629 318 630 854 855 856 
311 299 449 621 626 627 
299 347 458 623 577 625 
347 311 573 622 624 572 
300 301 467 616 615 620 
301 348 69 618 575 612 
348 300 458 617 619 576 
301 302 467 609 614 615 
302 349 457 611 568 613 
349 301 69 610 612 563 
303 309 450 602 607 608 
309 350 564 604 566 606 
350 303 457 603 605 567 
597 317 584 850 807 851 
599 550 581 845 846 847 
371 310 450 598 600 551 
590 315 592 835 841 842 
312 373 449 594 536 595 
593 589 531 836 837 838 
585 590 591 827 828 829 
587 523 589 818 819 820 
586 588 527 811 812 813 
578 583 584 802 803 804 
580 521 582 793 794 795 
579 581 516 784 785 786 
347 348 458 569 576 577 
348 702 69 571 703 575 
702 347 573 570 572 574 
349 350 457 560 567 568 
350 75 564 562 76 566 
75 349 69 561 563 74 
369 370 450 553 552 559 
370 548 557 555 549 547 
548 369 81 554 556 82 
370 371 450 544 551 552 
778 77 550 783 779 780 
690 370 557 545 547 558 
374 372 449 537 543 535 
372 532 67 539 68 542 
532 374 540 538 534 533 
373 374 449 528 535 536 
374 696 540 530 541 534 
531 59 773 772 777 774 
524 527 526 765 766 767 
762 526 376 756 757 758 
744 635 633 875 867 873 
260 744 633 877 873 872 
211 171 515 1166 166 1167 
494 211 515 1168 1167 138 
509 174 511 1152 144 132 
174 217 503 1150 175 1151 
629 583 578 1073 802 810 
465 583 223 805 628 636 
489 307 473 1086 254 218 
258 221 486 1196 1146 1105 
221 121 485 1198 1195 1147 
121 258 455 1197 1104 1194 
121 259 485 1191 864 1195 
259 313 448 1193 1038 865 
313 121 455 1192 1194 1039 
1189 346 1018 1186 1006 1023 
346 123 459 1188 1185 1007 
123 1189 35 1187 1190 1184 
123 298 459 1181 1111 1185 
298 351 456 1183 999 1112 
351 123 35 1182 1184 994 
243 211 494 1178 1168 1119 
211 126 493 1180 1177 1165 
126 243 460 1179 1116 1176 
126 244 493 1173 1115 1177 
244 297 459 1175 1066 1110 
297 126 460 1174 1176 1067 
173 174 509 1171 1152 1172 
507 173 509 1157 1172 143 
510 172 181 1163 1169 1170 
508 510 181 147 1170 1148 
171 172 510 1158 1163 1164 
172 215 486 1160 1136 1162 
215 171 493 1159 1161 1137 
185 173 507 1153 1157 1141 
173 216 490 1155 1131 1156 
216 185 484 1154 1138 1132 
181 182 508 1142 881 1148 
182 221 485 1144 1147 878 
221 181 486 1143 1145 1146 
225 185 507 1139 1141 1140 
483 225 507 887 1140 184 
245 215 493 1133 1137 1114 
215 249 486 1135 1106 1136 
249 245 456 1134 1113 1103 
250 216 484 1128 1132 1099 
216 251 490 1130 1094 1131 
251 250 453 1129 1098 1091 
252 217 490 1123 1127 1093 
217 253 489 1125 1087 1126 
253 252 452 1124 1092 1084 
261 582 447 1120 797 1078 
582 264 318 1122 888 798 
264 261 484 1121 1081 885 
461 296 243 1072 1117 1118 
494 461 243 242 1118 1119 
244 245 493 1107 1114 1115 
245 298 456 1109 1112 1113 
298 244 459 1108 1110 1111 
249 258 486 1100 1105 1106 
258 304 455 1102 1061 1104 
304 249 456 1101 1103 1062 
262 250 484 1095 1099 1080 
250 305 453 1097 1056 1098 
305 262 454 1096 1079 1057 
251 252 490 1088 1093 1094 
252 306 452 1090 1051 1092 
306 251 453 1089 1091 1052 
489 253 307 1087 1085 1086 
260 633 591 872 1082 1083 
466 260 591 632 1083 831 
261 262 484 1075 1080 1081 
262 316 454 1077 1031 1079 
316 261 447 1076 1078 1030 
583 629 263 1073 859 1074 
342 296 461 1068 1072 1022 
296 343 460 1070 1017 1071 
343 342 49 1069 1019 1012 
344 297 460 1063 1067 1016 
297 345 459 1065 1008 1066 
345 344 1004 1064 1015 1003 
352 304 456 1058 1062 998 
304 353 455 1060 990 1061 
353 352 57 1059 997 987 
358 305 454 1053 1057 966 
305 359 453 1055 958 1056 
359 358 963 1054 965 955 
361 306 453 1048 1052 950 
306 362 452 1050 942 1051 
362 361 97 1049 949 939 
451 307 364 1047 1045 1046 
105 451 364 365 1046 933 
371 599 597 849 1042 1043 
310 371 597 598 1043 852 
592 593 373 1040 839 1041 
312 592 373 844 1041 594 
355 313 455 1035 1039 982 
313 375 448 1037 926 1038 
375 355 53 1036 981 923 
586 585 314 1032 833 816 
585 587 315 1034 824 834 
587 586 377 1033 815 825 
316 356 454 1027 974 1031 
356 378 83 1029 913 971 
378 316 447 1028 1030 914 
579 578 317 1024 808 791 
578 580 318 1026 799 809 
580 579 379 1025 790 800 
45 47 342 46 1020 1021 
461 45 342 341 1021 1022 
343 344 460 1009 1016 1017 
344 51 1004 1011 52 1015 
51 343 49 1010 1012 50 
345 346 459 1000 1007 1008 
346 1013 1018 1002 1014 1006 
1013 345 1004 1001 1003 1005 
351 352 456 991 998 999 
352 55 57 993 56 997 
55 351 35 992 994 54 
353 354 455 984 983 990 
354 979 988 986 980 978 
979 353 57 985 987 58 
354 355 455 975 982 983 
355 995 53 977 996 981 
995 354 988 976 978 989 
356 357 454 968 967 974 
357 89 91 970 90 962 
89 356 83 969 971 88 
357 358 454 959 966 967 
358 956 963 961 957 965 
956 357 91 960 962 92 
359 360 453 952 951 958 
360 972 87 954 973 946 
972 359 963 953 955 964 
360 361 453 943 950 951 
361 95 97 945 96 949 
95 360 87 944 946 94 
362 363 452 936 935 942 
363 99 101 938 100 930 
99 362 97 937 939 98 
363 364 452 927 934 935 
364 103 105 929 104 933 
103 363 101 928 930 102 
375 376 448 920 760 926 
376 61 522 922 62 761 
61 375 53 921 923 60 
523 924 59 915 925 821 
924 524 918 917 769 919 
524 523 377 916 826 770 
380 378 447 908 914 894 
378 85 83 910 84 913 
85 380 517 909 893 86 
911 516 77 903 788 912 
516 518 379 905 900 789 
518 911 906 904 907 901 
899 518 906 896 901 902 
518 519 379 898 895 900 
519 899 517 897 520 892 
519 521 379 889 801 895 
521 380 447 891 894 796 
380 519 517 890 892 893 
264 630 318 882 855 888 
630 225 483 884 887 858 
225 264 484 883 885 886 
508 182 744 881 879 880 
115 508 744 222 880 876 
115 744 260 876 877 742 
633 634 314 869 866 871 
634 635 485 868 870 863 
634 588 314 860 817 866 
588 259 448 862 865 814 
259 634 485 861 863 864 
263 629 630 859 856 857 
483 263 630 631 857 858 
597 584 465 851 806 853 
310 597 465 852 853 601 
550 599 371 845 849 782 
599 581 317 847 792 848 
581 550 77 846 779 787 
466 590 592 830 842 843 
312 466 592 596 843 844 
589 593 315 836 840 823 
593 531 373 838 775 839 
531 589 59 837 822 772 
590 585 315 827 834 835 
585 591 314 829 832 833 
591 590 466 828 830 831 
523 587 377 818 825 826 
587 589 315 820 823 824 
589 523 59 819 821 822 
588 586 314 811 816 817 
586 527 377 813 771 815 
527 588 448 812 814 768 
578 584 317 804 807 808 
584 583 465 803 805 806 
521 580 379 793 800 801 
580 582 318 795 798 799 
582 521 447 794 796 797 
581 579 317 784 791 792 
579 516 379 786 789 790 
516 581 77 785 787 788 
690 778 550 691 780 781 
371 690 550 546 781 782 
531 773 696 774 697 776 
373 531 696 775 776 529 
527 524 377 765 770 771 
524 526 918 767 764 769 
526 527 448 766 768 759 
526 762 918 756 763 764 
762 376 522 758 761 525 
376 526 448 757 759 760 
1199 1200
1201 1202
1203 1204
1205 1206
1207 1208
1209 1210
1211 1212
1213 1214
1215 1216
1217 1218
1219 1220
1221 1222
1223 1224
1225 1226
1227 1228
1229 1230
1231 1232
1233 1234
1235 1236
1237 1238
1239 1240
1241 1242
1243 1244
1245 1246
1247 1248
1249 1250
1251 1252
1253 1254
1255 1256
1257 1258
1259 1260
1261 1262
1263 1264
1265 1266
1267 1268
1269 1270
1271 1272
1273 1274
1275 1276
1277 1278
1279 1280
1281 1282
1283 1284
1285 1286
1287 1288
1289 1290
1291 1292
1293 1294
1295 1296
1297 1298
1299 1300
1301 1302
1303 1304
1305 1306
1307 1308
1309 1310
1311 1312
1313 1314
1315 1316
1317 1318
1319 1320
1321 1322
1323 1324
1325 1326
1327 1328
1329 1330
1331 1332
1333 1334
1335 1336
1337 1338
1339 1340
1341 1342
1343 1344
1345 1346
1347 1348
1349 1350
1351 1352
1353 1354
1355 1356
1357 1358
1359 1360
1361 1362
1363 1364
1365 1366
1367 1368
1369 1370
1371 1372
1373 1374
1375 1376
1377 1378
1379 1380
1381 1382
1383 1384
1385 1386
1387 1388
1389 1390
1391 1392
1393 1394
1395 1396
1397 1398
1399 1400
1401 1402
1403 1404
1405 1406
1407 1408
1409 1410
1411 1412
1413 1414
1415 1416
1417 1418
1419 1420
1421 1422
1423 1424
1425 1426
1427 1428
1429 1430
1431 1432
1433 1434
1435 1436
1437 1438
1439 1440
1441 1442
1443 1444
1445 1446
1447 1448
1449 1450
1451 1452
1453 1454
1455 1456
1457 1458
1459 1460
1461 1462
1463 1464
1465 1466
1467 1468
1469 1470
1471 1472
1473 1474
1475 1476
1477 1478
1479 1480
1481 1482
1483 1484
1485 1486
1487 1488
1489 1490
1491 1492
1493 1494
1495 1496
1497 1498
1499 1500
1501 1502
1503 1504
1505 1506
1507 1508
1509 1510
1511 1512
1513 1514
1515 1516
1517 1518
1519 1520
1521 1522
1523 1524
1525 1526
1527 1528
1529 1530
1531 1532
1533 1534
1535 1536
1537 1538
1539 1540
1541 1542
1543 1544
1545 1546
1547 1548
1549 1550
1551 1552
1553 1554
1555 1556
1557 1558
1559 1560
1561 1562
1563 1564
1565 1566
1567 1568
1569 1570
1571 1572
1573 1574
1575 1576
1577 1578
1579 1580
1581 1582
1583 1584
1585 1586
1587 1588
1589 1590
1591 1592
1593 1594
1595 1596
1597 1598
1599 1600
1601 1602
1603 1604
1605 1606
1607 1608
1609 1610
1611 1612
1613 1614
1615 1616
1617 1618
1619 1620
1621 1622
1623 1624
1625 1626
1627 1628
1629 1630
1631 1632
1633 1634
1635 1636
1637 1638
1639 1640
1641 1642
1643 1644
1645 1646
1647 1648
1649 1650
1651 1652
1653 1654
1655 1656
1657 1658
1659 1660
1661 1662
1663 1664
1665 1666
1667 1668
1669 1670
1671 1672
1673 1674
1675 1676
1677 1678
1679 1680
1681 1682
1683 1684
1685 1686
1687 1688
1689 1690
1691 1692
1693 1694
1695 1696
1697 1698
1699 1700
1701 1702
1703 1704
1705 1706
1707 1708
1709 1710
1711 1712
1713 1714
1715 1716
1717 1718
1719 1720
1721 1722
1723 1724
1725 1726
1727 1728
1729 1730
1731 1732
1733 1734
1735 1736
1737 1738
1739 1740
1741 1742
1743 1744
1745 1746
1747 1748
1749 1750
1751 1752
1753 1754
1755 1756
1757 1758
1759 1760
1761 1762
1763 1764
1765 1766
1767 1768
1769 1770
1771 1772
1773 1774
1775 1776
1777 1778
1779 1780
1781 1782
1783 1784
1785 1786
1787 1788
1789 1790
1791 1792
1793 1794
1795 1796
1797 1798
1799 1800
1801 1802
1803 1804
1805 1806
1807 1808
1809 1810
1811 1812
1813 1814
1815 1816
1817 1818
1819 1820
1821 1822
1823 1824
1825 1826
1827 1828
1829 1830
1831 1832
1833 1834
1835 1836
1837 1838
1839 1840
1841 1842
1843 1844
1845 1846
1847 1848
1849 1850
1851 1852
1853 1854
1855 1856
1857 1858
1859 1860
1861 1862
1863 1864
1865 1866
1867 1868
1869 1870
1871 1872
1873 1874
1875 1876
1877 1878
1879 1880
1881 1882
1883 1884
1885 1886
1887 1888
1889 1890
1891 1892
1893 1894
1895 1896
1897 1898
1899 1900
1901 1902
1903 1904
1905 1906
1907 1908
1909 1910
1911 1912
1913 1914
1915 1916
1917 1918
1919 1920
1921 1922
1923 1924
1925 1926
1927 1928
1929 1930
1931 1932
1933 1934
1935 1936
1937 1938
1939 1940
1941 1942
1943 1944
1945 1946
1947 1948
1949 1950
1951 1952
1953 1954
1955 1956
1957 1958
1959 1960
1961 1962
1963 1964
1965 1966
1967 1968
1969 1970
1971 1972
1973 1974
1975 1976
1977 1978
1979 1980
1981 1982
1983 1984
1985 1986
1987 1988
1989 1990
1991 1992
1993 1994
1995 1996
1997 1998
1999 2000
2001 2002
2003 2004
2005 2006
2007 2008
2009 2010
2011 2012
2013 2014
2015 2016
2017 2018
2019 2020
2021 2022
2023 2024
2025 2026
2027 2028
2029 2030
2031 2032
2033 2034
2035 2036
2037 2038
2039 2040
2041 2042
2043 2044
2045 2046
2047 2048
2049 2050
2051 2052
2053 2054
2055 2056
2057 2058
2059 2060
2061 2062
2063 2064
2065 2066
2067 2068
2069 2070
2071 2072
2073 2074
2075 2076
2077 2078
2079 2080
2081 2082
2083 2084
2085 2086
2087 2088
2089 2090
2091 2092
2093 2094
2095 2096
2097 2098
2099 2100
2101 2102
2103 2104
2105 2106
2107 2108
2109 2110
2111 2112
2113 2114
2115 2116
2117 2118
2119 2120
2121 2122
2123 2124
2125 2126
2127 2128
2129 2130
2131 2132
2133 2134
2135 2136
2137 2138
2139 2140
2141 2142
2143 2144
2145 2146
2147 2148
2149 2150
2151 2152
2153 2154
2155 2156
2157 2158
2159 2160
2161 2162
2163 2164
2165 2166
2167 2168
2169 2170
2171 2172
2173 2174
2175 2176
2177 2178
2179 2180
2181 2182
2183 2184
2185 2186
2187 2188
2189 2190
2191 2192
2193 2194
2195 2196
2197 2198
2199 2200
2201 2202
2203 2204
2205 2206
2207 2208
2209 2210
2211 2212
2213 2214
2215 2216
2217 2218
2219 2220
2221 2222
2223 2224
2225 2226
2227 2228
2229 2230
2231 2232
2233 2234
2235 2236
2237 2238
2239 2240
2241 2242
2243 2244
2245 2246
2247 2248
2249 2250
2251 2252
2253 2254
2255 2256
2257 2258
2259 2260
2261 2262
2263 2264
2265 2266
2267 2268
2269 2270
2271 2272
2273 2274
2275 2276
2277 2278
2279 2280
2281 2282
2283 2284
2285 2286
2287 2288
2289 2290
2291 2292
2293 2294
2295 2296
2297 2298
2299 2300
2301 2302
2303 2304
2305 2306
2307 2308
2309 2310
2311 2312
2313 2314
2315 2316
2317 2318
2319 2320
2321 2322
2323 2324
2325 2326
2327 2328
2329 2330
2331 2332
2333 2334
2335 2336
2337 2338
2339 2340
2341 2342
2343 2344
2345 2346
2347 2348
2349 2350
2351 2352
2353 2354
2355 2356
2357 2358
2359 2360
2361 2362
2363 2364
2365 2366
2367 2368
2369 2370
2371 2372
2373 2374
2375 2376
2377 2378
2379 2380
2381 2382
2383 2384
2385 2386
2387 2388
2389 2390
2391 2392
2393 2394
2395 2396
2397 2398
2399 2400
2401 2402
2403 2404
2405 2406
2407 2408
2409 2410
2411 2412
2413 2414
2415 2416
2417 2418
2419 2420
2421 2422
2423 2424
2425 2426
2427 2428
2429 2430
2431 2432
2433 2434
2435 2436
2437 2438
2439 2440
2441 2442
2443 2444
2445 2446
2447 2448
2449 2450
2451 2452
2453 2454
2455 2456
2457 2458
2459 2460
2461 2462
2463 2464
2465 2466
2467 2468
2469 2470
2471 2472
2473 2474
2475 2476
2477 2478
2479 2480
2481 2482
2483 2484
2485 2486
2487 2488
2489 2490
2491 2492
2493 2494
2495 2496
2497 2498
2499 2500
2501 2502
2503 2504
2505 2506
2507 2508
2509 2510
2511 2512
2513 2514
2515 2516
2517 2518
2519 2520
2521 2522
2523 2524
2525 2526
2527 2528
2529 2530
2531 2532
2533 2534
2535 2536
2537 2538
2539 2540
2541 2542
2543 2544
2545 2546
2547 2548
2549 2550
2551 2552
2553 2554
2555 2556
2557 2558
2559 2560
2561 2562
2563 2564
2565 2566
2567 2568
2569 2570
2571 2572
2573 2574
2575 2576
2577 2578
2579 2580
2581 2582
2583 2584
2585 2586
2587 2588
2589 2590
2591 2592
2593 2594
2595 2596
2597 2598
2599 2600
2601 2602
2603 2604
2605 2606
2607 2608
2609 2610
2611 2612
2613 2614
2615 2616
2617 2618
2619 2620
2621 2622
2623 2624
2625 2626
2627 2628
2629 2630
2631 2632
2633 2634
2635 2636
2637 2638
2639 2640
2641 2642
2643 2644
2645 2646
2647 2648
2649 2650
2651 2652
2653 2654
2655 2656
2657 2658
2659 2660
2661 2662
2663 2664
2665 2666
2667 2668
2669 2670
2671 2672
2673 2674
2675 2676
2677 2678
2679 2680
2681 2682
2683 2684
2685 2686
2687 2688
2689 2690
2691 2692
2693 2694
2695 2696
2697 2698
2699 2700
2701 2702
2703 2704
2705 2706
2707 2708
2709 2710
2711 2712
2713 2714
2715 2716
2717 2718
2719 2720
2721 2722
2723 2724
2725 2726
2727 2728
2729 2730
2731 2732
2733 2734
2735 2736
2737 2738
2739 2740
2741 2742
2743 2744
2745 2746
2747 2748
2749 2750
2751 2752
2753 2754
2755 2756
2757 2758
2759 2760
2761 2762
2763 2764
2765 2766
2767 2768
2769 2770
2771 2772
2773 2774
2775 2776
2777 2778
2779 2780
2781 2782
2783 2784
2785 2786
2787 2788
2789 2790
2791 2792
2793 2794
2795 2796
2797 2798
2799 2800
2801 2802
2803 2804
2805 2806
2807 2808
2809 2810
2811 2812
2813 2814
2815 2816
2817 2818
2819 2820
2821 2822
2823 2824
2825 2826
2827 2828
2829 2830
2831 2832
2833 2834
2835 2836
2837 2838
2839 2840
2841 2842
2843 2844
2845 2846
2847 2848
2849 2850
2851 2852
2853 2854
2855 2856
2857 2858
2859 2860
2861 2862
2863 2864
2865 2866
2867 2868
2869 2870
2871 2872
2873 2874
2875 2876
2877 2878
2879 2880
2881 2882
2883 2884
2885 2886
2887 2888
2889 2890
2891 2892
2893 2894
2895 2896
2897 2898
2899 2900
2901 2902
2903 2904
2905 2906
2907 2908
2909 2910
2911 2912
2913 2914
2915 2916
2917 2918
2919 2920
2921 2922
2923 2924
2925 2926
2927 2928
2929 2930
2931 2932
2933 2934
2935 2936
2937 2938
2939 2940
2941 2942
2943 2944
2945 2946
2947 2948
2949 2950
2951 2952
2953 2954
2955 2956
2957 2958
2959 2960
2961 2962
2963 2964
2965 2966
2967 2968
2969 2970
2971 2972
2973 2974
2975 2976
2977 2978
2979 2980
2981 2982
2983 2984
2985 2986
2987 2988
2989 2990
2991 2992
2993 2994
2995 2996
2997 2998
2999 3000
3001 3002
3003 3004
3005 3006
3007 3008
3009 3010
3011 3012
3013 3014
3015 3016
3017 3018
3019 3020
3021 3022
3023 3024
3025 3026
3027 3028
3029 3030
3031 3032
3033 3034
3035 3036
3037 3038
3039 3040
3041 3042
3043 3044
3045 3046
3047 3048
3049 3050
3051 3052
3053 3054
3055 3056
3057 3058
3059 3060
3061 3062
3063 3064
3065 3066
3067 3068
3069 3070
3071 3072
3073 3074
3075 3076
3077 3078
3079 3080
3081 3082
3083 3084
3085 3086
3087 3088
3089 3090
3091 3092
3093 3094
3095 3096
3097 3098
3099 3100
3101 3102
3103 3104
3105 3106
3107 3108
3109 3110
3111 3112
3113 3114
3115 3116
3117 3118
3119 3120
3121 3122
3123 3124
3125 3126
3127 3128
3129 3130
3131 3132
3133 3134
3135 3136
3137 3138
3139 3140
3141 3142
3143 3144
3145 3146
3147 3148
3149 3150
3151 3152
3153 3154
3155 3156
3157 3158
3159 3160
3161 3162
3163 3164
3165 3166
3167 3168
3169 3170
3171 3172
3173 3174
3175 3176
3177 3178
3179 3180
3181 3182
3183 3184
3185 3186
3187 3188
3189 3190
3191 3192
3193 3194
3195 3196
3197 3198
3199 3200
3201 3202
3203 3204
3205 3206
3207 3208
3209 3210
3211 3212
3213 3214
3215 3216
3217 3218
3219 3220
3221 3222
3223 3224
3225 3226
3227 3228
3229 3230
3231 3232
3233 3234
3235 3236
3237 3238
3239 3240
3241 3242
3243 3244
3245 3246
3247 3248
3249 3250
3251 3252
3253 3254
3255 3256
3257 3258
3259 3260
3261 3262
3263 3264
3265 3266
3267 3268
3269 3270
3271 3272
3273 3274
3275 3276
3277 3278
3279 3280
3281 3282
3283 3284
3285 3286
3287 3288
3289 3290
3291 3292
3293 3294
3295 3296
3297 3298
3299 3300
3301 3302
3303 3304
3305 3306
3307 3308
3309 3310
3311 3312
3313 3314
3315 3316
3317 3318
3319 3320
3321 3322
3323 3324
3325 3326
3327 3328
3329 3330
3331 3332
3333 3334
3335 3336
3337 3338
3339 3340
3341 3342
3343 3344
3345 3346
3347 3348
3349 3350
3351 3352
3353 3354
3355 3356
3357 3358
3359 3360
3361 3362
3363 3364
3365 3366
3367 3368
3369 3370
3371 3372
3373 3374
3375 3376
3377 3378
3379 3380
3381 3382
3383 3384
3385 3386
3387 3388
3389 3390
3391 3392
3393 3394
3395 3396
3397 3398
3399 3400
3401 3402
3403 3404
3405 3406
3407 3408
3409 3410
3411 3412
3413 3414
3415 3416
3417 3418
3419 3420
3421 3422
3423 3424
3425 3426
3427 3428
3429 3430
3431 3432
3433 3434
3435 3436
3437 3438
3439 3440
3441 3442
3443 3444
3445 3446
3447 3448
3449 3450
3451 3452
3453 3454
3455 3456
3457 3458
3459 3460
3461 3462
3463 3464
3465 3466
3467 3468
3469 3470
3471 3472
3473 3474
3475 3476
3477 3478
3479 3480
3481 3482
3483 3484
3485 3486
      </DataArray>
      <DataArray type="Int32" Name="offsets" format="ascii">
6
12
18
24
30
36
42
48
54
60
66
72
78
84
90
96
102
108
114
120
126
132
138
144
150
156
162
168
174
180
186
192
198
204
210
216
222
228
234
240
246
252
258
264
270
276
282
288
294
300
306
312
318
324
330
336
342
348
354
360
366
372
378
384
390
396
402
408
414
420
426
432
438
444
450
456
462
468
474
480
486
492
498
504
510
516
522
528
534
540
546
552
558
564
570
576
582
588
594
600
606
612
618
624
630
636
642
648
654
660
666
672
678
684
690
696
702
708
714
720
726
732
738
744
750
756
762
768
774
780
786
792
798
804
810
816
822
828
834
840
846
852
858
864
870
876
882
888
894
900
906
912
918
924
930
936
942
948
954
960
966
972
978
984
990
996
1002
1008
1014
1020
1026
1032
1038
1044
1050
1056
1062
1068
1074
1080
1086
1092
1098
1104
1110
1116
1122
1128
1134
1140
1146
1152
1158
1164
1170
1176
1182
1188
1194
1200
1206
1212
1218
1224
1230
1236
1242
1248
1254
1260
1266
1272
1278
1284
1290
1296
1302
1308
1314
1320
1326
1332
1338
1344
1350
1356
1362
1368
1374
1380
1386
1392
1398
1404
1410
1416
1422
1428
1434
1440
1446
1452
1458
1464
1470
1476
1482
1488
1494
1500
1506
1512
1518
1524
1530
1536
1542
1548
1554
1560
1566
1572
1578
1584
1590
1596
1602
1608
1614
1620
1626
1632
1638
1644
1650
1656
1662
1668
1674
1680
1686
1692
1698
1704
1710
1716
1722
1728
1734
1740
1746
1752
1758
1764
1770
1776
1782
1788
1794
1800
1806
1812
1818
1824
1830
1836
1842
1848
1854
1860
1866
1872
1878
1884
1890
1896
1902
1908
1914
1920
1926
1932
1938
1944
1950
1956
1962
1968
1974
1980
1986
1992
1998
2004
2010
2016
2022
2028
2034
2040
2046
2052
2058
2064
2070
2076
2082
2088
2094
2100
2106
2112
2118
2124
2130
2136
2142
2148
2154
2160
2166
2172
2178
2184
2190
2196
2202
2208
2214
2220
2226
2232
2238
2244
2250
2256
2262
2268
2274
2280
2286
2292
2298
2304
2310
2316
2322
2328
2334
2340
2346
2352
2358
2364
2370
2376
2382
2388
2394
2400
2406
2412
2418
2424
2430
2436
2442
2448
2454
2460
2466
2472
2478
2484
2490
2496
2502
2508
2514
2520
2526
2532
2538
2544
2550
2556
2562
2568
2574
2580
2586
2592
2598
2604
2610
2616
2622
2628
2634
2640
2646
2652
2658
2664
2670
2676
2682
2688
2694
2700
2706
2712
2718
2724
2730
2736
2742
2748
2754
2760
2766
2772
2778
2784
2790
2796
2802
2808
2814
2820
2826
2832
2838
2844
2850
2856
2862
2868
2874
2880
2886
2892
2898
2904
2910
2916
2922
2928
2934
2940
2946
2952
2958
2964
2970
2976
2982
2988
2994
3000
3006
3012
3018
3024
3030
3036
3042
3048
3054
3060
3066
3072
3078
3084
3090
3096
3102
3108
3114
3120
3126
3132
3138
3144
3150
3156
3162
3168
3174
3180
3186
3192
3198
3204
3210
3216
3222
3228
3234
3240
3246
3252
3258
3264
3270
3276
3282
3288
3294
3300
3306
3312
3318
3324
3326
3328
3330
3332
3334
3336
3338
3340
3342
3344
3346
3348
3350
3352
3354
3356
3358
3360
3362
3364
3366
3368
3370
3372
3374
3376
3378
3380
3382
3384
3386
3388
3390
3392
3394
3396
3398
3400
3402
3404
3406
3408
3410
3412
3414
3416
3418
3420
3422
3424
3426
3428
3430
3432
3434
3436
3438
3440
3442
3444
3446
3448
3450
3452
3454
3456
3458
3460
3462
3464
3466
3468
3470
3472
3474
3476
3478
3480
3482
3484
3486
3488
3490
3492
3494
3496
3498
3500
3502
3504
3506
3508
3510
3512
3514
3516
3518
3520
3522
3524
3526
3528
3530
3532
3534
3536
3538
3540
3542
3544
3546
3548
3550
3552
3554
3556
3558
3560
3562
3564
3566
3568
3570
3572
3574
3576
3578
3580
3582
3584
3586
3588
3590
3592
3594
3596
3598
3600
3602
3604
3606
3608
3610
3612
3614
3616
3618
3620
3622
3624
3626
3628
3630
3632
3634
3636
3638
3640
3642
3644
3646
3648
3650
3652
3654
3656
3658
3660
3662
3664
3666
3668
3670
3672
3674
3676
3678
3680
3682
3684
3686
3688
3690
3692
3694
3696
3698
3700
3702
3704
3706
3708
3710
3712
3714
3716
3718
3720
3722
3724
3726
3728
3730
3732
3734
3736
3738
3740
3742
3744
3746
3748
3750
3752
3754
3756
3758
3760
3762
3764
3766
3768
3770
3772
3774
3776
3778
3780
3782
3784
3786
3788
3790
3792
3794
3796
3798
3800
3802
3804
3806
3808
3810
3812
3814
3816
3818
3820
3822
3824
3826
3828
3830
3832
3834
3836
3838
3840
3842
3844
3846
3848
3850
3852
3854
3856
3858
3860
3862
3864
3866
3868
3870
3872
3874
3876
3878
3880
3882
3884
3886
3888
3890
3892
3894
3896
3898
3900
3902
3904
3906
3908
3910
3912
3914
3916
3918
3920
3922
3924
3926
3928
3930
3932
3934
3936
3938
3940
3942
3944
3946
3948
3950
3952
3954
3956
3958
3960
3962
3964
3966
3968
3970
3972
3974
3976
3978
3980
3982
3984
3986
3988
3990
3992
3994
3996
3998
4000
4002
4004
4006
4008
4010
4012
4014
4016
4018
4020
4022
4024
4026
4028
4030
4032
4034
4036
4038
4040
4042
4044
4046
4048
4050
4052
4054
4056
4058
4060
4062
4064
4066
4068
4070
4072
4074
4076
4078
4080
4082
4084
4086
4088
4090
4092
4094
4096
4098
4100
4102
4104
4106
4108
4110
4112
4114
4116
4118
4120
4122
4124
4126
4128
4130
4132
4134
4136
4138
4140
4142
4144
4146
4148
4150
4152
4154
4156
4158
4160
4162
4164
4166
4168
4170
4172
4174
4176
4178
4180
4182
4184
4186
4188
4190
4192
4194
4196
4198
4200
4202
4204
4206
4208
4210
4212
4214
4216
4218
4220
4222
4224
4226
4228
4230
4232
4234
4236
4238
4240
4242
4244
4246
4248
4250
4252
4254
4256
4258
4260
4262
4264
4266
4268
4270
4272
4274
4276
4278
4280
4282
4284
4286
4288
4290
4292
4294
4296
4298
4300
4302
4304
4306
4308
4310
4312
4314
4316
4318
4320
4322
4324
4326
4328
4330
4332
4334
4336
4338
4340
4342
4344
4346
4348
4350
4352
4354
4356
4358
4360
4362
4364
4366
4368
4370
4372
4374
4376
4378
4380
4382
4384
4386
4388
4390
4392
4394
4396
4398
4400
4402
4404
4406
4408
4410
4412
4414
4416
4418
4420
4422
4424
4426
4428
4430
4432
4434
4436
4438
4440
4442
4444
4446
4448
4450
4452
4454
4456
4458
4460
4462
4464
4466
4468
4470
4472
4474
4476
4478
4480
4482
4484
4486
4488
4490
4492
4494
4496
4498
4500
4502
4504
4506
4508
4510
4512
4514
4516
4518
4520
4522
4524
4526
4528
4530
4532
4534
4536
4538
4540
4542
4544
4546
4548
4550
4552
4554
4556
4558
4560
4562
4564
4566
4568
4570
4572
4574
4576
4578
4580
4582
4584
4586
4588
4590
4592
4594
4596
4598
4600
4602
4604
4606
4608
4610
4612
4614
4616
4618
4620
4622
4624
4626
4628
4630
4632
4634
4636
4638
4640
4642
4644
4646
4648
4650
4652
4654
4656
4658
4660
4662
4664
4666
4668
4670
4672
4674
4676
4678
4680
4682
4684
4686
4688
4690
4692
4694
4696
4698
4700
4702
4704
4706
4708
4710
4712
4714
4716
4718
4720
4722
4724
4726
4728
4730
4732
4734
4736
4738
4740
4742
4744
4746
4748
4750
4752
4754
4756
4758
4760
4762
4764
4766
4768
4770
4772
4774
4776
4778
4780
4782
4784
4786
4788
4790
4792
4794
4796
4798
4800
4802
4804
4806
4808
4810
4812
4814
4816
4818
4820
4822
4824
4826
4828
4830
4832
4834
4836
4838
4840
4842
4844
4846
4848
4850
4852
4854
4856
4858
4860
4862
4864
4866
4868
4870
4872
4874
4876
4878
4880
4882
4884
4886
4888
4890
4892
4894
4896
4898
4900
4902
4904
4906
4908
4910
4912
4914
4916
4918
4920
4922
4924
4926
4928
4930
4932
4934
4936
4938
4940
4942
4944
4946
4948
4950
4952
4954
4956
4958
4960
4962
4964
4966
4968
4970
4972
4974
4976
4978
4980
4982
4984
4986
4988
4990
4992
4994
4996
4998
5000
5002
5004
5006
5008
5010
5012
5014
5016
5018
5020
5022
5024
5026
5028
5030
5032
5034
5036
5038
5040
5042
5044
5046
5048
5050
5052
5054
5056
5058
5060
5062
5064
5066
5068
5070
5072
5074
5076
5078
5080
5082
5084
5086
5088
5090
5092
5094
5096
5098
5100
5102
5104
5106
5108
5110
5112
5114
5116
5118
5120
5122
5124
5126
5128
5130
5132
5134
5136
5138
5140
5142
5144
5146
5148
5150
5152
5154
5156
5158
5160
5162
5164
5166
5168
5170
5172
5174
5176
5178
5180
5182
5184
5186
5188
5190
5192
5194
5196
5198
5200
5202
5204
5206
5208
5210
5212
5214
5216
5218
5220
5222
5224
5226
5228
5230
5232
5234
5236
5238
5240
5242
5244
5246
5248
5250
5252
5254
5256
5258
5260
5262
5264
5266
5268
5270
5272
5274
5276
5278
5280
5282
5284
5286
5288
5290
5292
5294
5296
5298
5300
5302
5304
5306
5308
5310
5312
5314
5316
5318
5320
5322
5324
5326
5328
5330
5332
5334
5336
5338
5340
5342
5344
5346
5348
5350
5352
5354
5356
5358
5360
5362
5364
5366
5368
5370
5372
5374
5376
5378
5380
5382
5384
5386
5388
5390
5392
5394
5396
5398
5400
5402
5404
5406
5408
5410
5412
5414
5416
5418
5420
5422
5424
5426
5428
5430
5432
5434
5436
5438
5440
5442
5444
5446
5448
5450
5452
5454
5456
5458
5460
5462
5464
5466
5468
5470
5472
5474
5476
5478
5480
5482
5484
5486
5488
5490
5492
5494
5496
5498
5500
5502
5504
5506
5508
5510
5512
5514
5516
5518
5520
5522
5524
5526
5528
5530
5532
5534
5536
5538
5540
5542
5544
5546
5548
5550
5552
5554
5556
5558
5560
5562
5564
5566
5568
5570
5572
5574
5576
5578
5580
5582
5584
5586
5588
5590
5592
5594
5596
5598
5600
5602
5604
5606
5608
5610
5612
      </DataArray>
      <DataArray type="UInt8" Name="types" format="ascii">
69
69
69
69
69
69
69
69
69
69
69
69
69
69
69
69
69
69
69
69
69
69
69
69
69
69
69
69
69
69
69
69
69
69
69
69
69
69
69
69
69
69
69
69
69
69
69
69
69
69
69
69
69
69
69
69
69
69
69
69
69
69
69
69
69
69
69
69
69
69
69
69
69
69
69
69
69
69
69
69
69
69
69
69
69
69
69
69
69
69
69
69
69
69
69
69
69
69
69
69
69
69
69
69
69
69
69
69
69
69
69
69
69
69
69
69
69
69
69
69
69
69
69
69
69
69
69
69
69
69
69
69
69
69
69
69
69
69
69
69
69
69
69
69
69
69
69
69
69
69
69
69
69
69
69
69
69
69
69
69
69
69
69
69
69
69
69
69
69
69
69
69
69
69
69
69
69
69
69
69
69
69
69
69
69
69
69
69
69
69
69
69
69
69
69
69
69
69
69
69
69
69
69
69
69
69
69
69
69
69
69
69
69
69
69
69
69
69
69
69
69
69
69
69
69
69
69
69
69
69
69
69
69
69
69
69
69
69
69
69
69
69
69
69
69
69
69
69
69
69
69
69
69
69
69
69
69
69
69
69
69
69
69
69
69
69
69
69
69
69
69
69
69
69
69
69
69
69
69
69
69
69
69
69
69
69
69
69
69
69
69
69
69
69
69
69
69
69
69
69
69
69
69
69
69
69
69
69
69
69
69
69
69
69
69
69
69
69
69
69
69
69
69
69
69
69
69
69
69
69
69
69
69
69
69
69
69
69
69
69
69
69
69
69
69
69
69
69
69
69
69
69
69
69
69
69
69
69
69
69
69
69
69
69
69
69
69
69
69
69
69
69
69
69
69
69
69
69
69
69
69
69
69
69
69
69
69
69
69
69
69
69
69
69
69
69
69
69
69
69
69
69
69
69
69
69
69
69
69
69
69
69
69
69
69
69
69
69
69
69
69
69
69
69
69
69
69
69
69
69
69
69
69
69
69
69
69
69
69
69
69
69
69
69
69
69
69
69
69
69
69
69
69
69
69
69
69
69
69
69
69
69
69
69
69
69
69
69
69
69
69
69
69
69
69
69
69
69
69
69
69
69
69
69
69
69
69
69
69
69
69
69
69
69
69
69
69
69
69
69
69
69
69
69
69
69
69
69
69
69
69
69
69
69
69
69
69
69
69
69
69
69
69
69
69
69
69
69
69
69
69
69
69
69
69
69
69
69
69
69
69
69
69
69
69
69
69
69
69
69
69
69
69
69
3
3
3
3
3
3
3
3
3
3
3
3
3
3
3
3
3
3
3
3
3
3
3
3
3
3
3
3
3
3
3
3
3
3
3
3
3
3
3
3
3
3
3
3
3
3
3
3
3
3
3
3
3
3
3
3
3
3
3
3
3
3
3
3
3
3
3
3
3
3
3
3
3
3
3
3
3
3
3
3
3
3
3
3
3
3
3
3
3
3
3
3
3
3
3
3
3
3
3
3
3
3
3
3
3
3
3
3
3
3
3
3
3
3
3
3
3
3
3
3
3
3
3
3
3
3
3
3
3
3
3
3
3
3
3
3
3
3
3
3
3
3
3
3
3
3
3
3
3
3
3
3
3
3
3
3
3
3
3
3
3
3
3
3
3
3
3
3
3
3
3
3
3
3
3
3
3
3
3
3
3
3
3
3
3
3
3
3
3
3
3
3
3
3
3
3
3
3
3
3
3
3
3
3
3
3
3
3
3
3
3
3
3
3
3
3
3
3
3
3
3
3
3
3
3
3
3
3
3
3
3
3
3
3
3
3
3
3
3
3
3
3
3
3
3
3
3
3
3
3
3
3
3
3
3
3
3
3
3
3
3
3
3
3
3
3
3
3
3
3
3
3
3
3
3
3
3
3
3
3
3
3
3
3
3
3
3
3
3
3
3
3
3
3
3
3
3
3
3
3
3
3
3
3
3
3
3
3
3
3
3
3
3
3
3
3
3
3
3
3
3
3
3
3
3
3
3
3
3
3
3
3
3
3
3
3
3
3
3
3
3
3
3
3
3
3
3
3
3
3
3
3
3
3
3
3
3
3
3
3
3
3
3
3
3
3
3
3
3
3
3
3
3
3
3
3
3
3
3
3
3
3
3
3
3
3
3
3
3
3
3
3
3
3
3
3
3
3
3
3
3
3
3
3
3
3
3
3
3
3
3
3
3
3
3
3
3
3
3
3
3
3
3
3
3
3
3
3
3
3
3
3
3
3
3
3
3
3
3
3
3
3
3
3
3
3
3
3
3
3
3
3
3
3
3
3
3
3
3
3
3
3
3
3
3
3
3
3
3
3
3
3
3
3
3
3
3
3
3
3
3
3
3
3
3
3
3
3
3
3
3
3
3
3
3
3
3
3
3
3
3
3
3
3
3
3
3
3
3
3
3
3
3
3
3
3
3
3
3
3
3
3
3
3
3
3
3
3
3
3
3
3
3
3
3
3
3
3
3
3
3
3
3
3
3
3
3
3
3
3
3
3
3
3
3
3
3
3
3
3
3
3
3
3
3
3
3
3
3
3
3
3
3
3
3
3
3
3
3
3
3
3
3
3
3
3
3
3
3
3
3
3
3
3
3
3
3
3
3
3
3
3
3
3
3
3
3
3
3
3
3
3
3
3
3
3
3
3
3
3
3
3
3
3
3
3
3
3
3
3
3
3
3
3
3
3
3
3
3
3
3
3
3
3
3
3
3
3
3
3
3
3
3
3
3
3
3
3
3
3
3
3
3
3
3
3
3
3
3
3
3
3
3
3
3
3
3
3
3
3
3
3
3
3
3
3
3
3
3
3
3
3
3
3
3
3
3
3
3
3
3
3
3
3
3
3
3
3
3
3
3
3
3
3
3
3
3
3
3
3
3
3
3
3
3
3
3
3
3
3
3
3
3
3
3
3
3
3
3
3
3
3
3
3
3
3
3
3
3
3
3
3
3
3
3
3
3
3
3
3
3
3
3
3
3
3
3
3
3
3
3
3
3
3
3
3
3
3
3
3
3
3
3
3
3
3
3
3
3
3
3
3
3
3
3
3
3
3
3
3
3
3
3
3
3
3
3
3
3
3
3
3
3
3
3
3
3
3
3
3
3
3
3
3
3
3
3
3
3
3
3
3
3
3
3
3
3
3
3
3
3
3
3
3
3
3
3
3
3
3
3
3
3
3
3
3
3
3
3
3
3
3
3
3
3
3
3
3
3
3
3
3
3
3
3
3
3
3
3
3
3
3
3
3
3
3
3
3
3
3
3
3
3
3
3
3
3
3
3
3
3
3
3
3
3
3
3
3
3
3
3
3
3
3
3
3
3
3
3
3
3
3
3
3
3
3
3
3
3
3
3
3
3
3
3
3
3
3
3
3
3
3
3
3
3
3
3
3
3
3
3
3
3
3
3
3
3
3
3
3
3
3
3
3
3
3
3
3
3
3
3
3
3
3
3
3
3
3
3
3
3
3
3
3
3
3
3
3
3
3
3
3
3
3
3
3
3
3
3
3
3
3
3
3
3
3
3
3
3
3
3
3
3
3
3
3
3
3
3
3
3
3
3
3
3
3
3
3
3
3
3
3
3
3
3
3
3
3
3
3
3
3
3
3
3
3
3
3
3
3
3
3
3
3
3
3
3
3
3
3
3
3
3
3
3
3
3
3
3
3
3
3
3
3
3
3
3
3
3
3
3
3
3
3
3
3
3
3
3
3
3
3
3
3
3
3
3
3
3
3
3
3
3
3
3
3
3
3
3
3
3
3
3
3
3
3
3
3
3
3
3
3
3
3
3
3
3
3
3
3
3
3
3
3
3
3
3
3
3
3
3
3
3
3
      </DataArray>
    </Cells>
    <PointData>
      <DataArray type="Float64" NumberOfComponents="2" Name="Displacement" format="ascii">
-0.0012322 -0.372893
0.00180373 -0.373815
-0.000333241 -0.372471
0.000295405 -0.372002
0.000627864 -0.37168
0.000858617 -0.371406
0.00100021 -0.371205
0.00109098 -0.371066
0.00112698 -0.370947
0.00112886 -0.370863
0.00109714 -0.370814
0.0010415 -0.370792
0.000961487 -0.370773
0.00086526 -0.370772
0.000754368 -0.370787
0.000635017 -0.370816
0.000508154 -0.370843
0.000379726 -0.37088
0.000252829 -0.370928
0.000131733 -0.37099
2.1049e-05 -0.371051
-7.65816e-05 -0.37113
-0.000156129 -0.371227
-0.000213828 -0.371348
-0.000239585 -0.371479
-0.000234332 -0.371648
-0.000187308 -0.37186
-9.38578e-05 -0.372124
0.000104526 -0.372407
0.000388341 -0.37279
0.000921181 -0.373319
-0.00660556 -0.372143
-0.00536101 -0.372195
-0.00412378 -0.372293
-0.00283982 -0.372512
-0.106975 -0.471977
-0.00781051 -0.372145
-0.00901832 -0.372173
-0.01078 -0.372249
-0.0125581 -0.372368
-0.0151381 -0.372614
-0.0177508 -0.372943
-0.021585 -0.373567
-0.0254686 -0.374365
-0.0311469 -0.375831
-0.0368639 -0.37766
-0.040987 -0.379202
-0.0450911 -0.380931
-0.0491539 -0.382858
-0.0531588 -0.384961
-0.0588134 -0.388308
-0.0642806 -0.391992
-0.0695043 -0.395998
-0.0553992 -0.523771
-0.106063 -0.481485
-0.104075 -0.489976
-0.10127 -0.497362
-0.097814 -0.503655
-0.0939404 -0.508936
0.0705834 -0.327077
-0.0460581 -0.522495
-0.0350017 -0.519106
-0.0221112 -0.513266
0 0
-0.0260498 -0.0235964
-0.0367671 -0.0390901
-0.03814 -0.0515797
-0.031582 -0.0668995
-0.0226479 -0.081805
-0.000312442 -0.355434
0 0
0 0
0 0
0 0
0.020691 -0.344371
0.0416644 -0.303964
0.0547682 -0.219133
-0.0698389 -0.327881
0.0261537 -0.0235614
0.0369294 -0.0392285
0.0383296 -0.0517951
0.0317925 -0.067182
0.0228587 -0.082096
0.0555601 -0.52418
0.0462175 -0.522895
0.0352241 -0.519495
0.0222957 -0.513728
0.106919 -0.472625
0.0630005 -0.524349
0.0694471 -0.523515
0.0752049 -0.522091
0.0803733 -0.519938
0.0852026 -0.517247
0.00699121 -0.37309
0.106582 -0.462648
0.104841 -0.452029
0.101541 -0.440992
0.096619 -0.429843
0.0922281 -0.422242
0.0870647 -0.414842
0.0811355 -0.407777
0.0745233 -0.401132
0.0695711 -0.396855
0.0643626 -0.392865
0.0589112 -0.389191
0.0532729 -0.385854
0.0452399 -0.381854
0.0370418 -0.378564
0.0313471 -0.376756
0.0257058 -0.375307
0.021838 -0.374511
0.00578381 -0.373158
0.0045813 -0.373267
0.00330634 -0.373487
-0.00721742 -0.361799
0.0319223 -0.360273
0.0249886 -0.347551
0.0423288 -0.281918
-0.042698 -0.298627
-0.00656733 -0.390081
-0.0129204 -0.35636
-0.0300208 -0.441945
-0.00526015 -0.378205
-0.0881538 -0.45573
-0.0276261 -0.0502517
0.0271519 -0.0512164
-0.0464336 -0.42197
-0.0169121 -0.384298
-0.00515029 -0.399649
-0.00715977 -0.398915
0.00290384 -0.39783
-0.00946483 -0.398298
0.00770969 -0.400314
0.00401903 -0.387563
-0.00186698 -0.393166
0.00139177 -0.39475
-0.00558025 -0.387665
-0.0136898 -0.400264
-0.0193641 -0.404353
-0.0130781 -0.405866
0.00631097 -0.368467
-0.00495519 -0.368866
-0.00833909 -0.368807
0.0079197 -0.404094
0.0123315 -0.402929
-0.0142052 -0.379332
0.0135665 -0.378693
-0.00140691 -0.398204
0.00435894 -0.391451
0.0112686 -0.38276
-0.0130071 -0.382187
0.00128993 -0.397625
0.00540045 -0.369267
-0.00140481 -0.369165
-0.00559944 -0.369728
-0.00820703 -0.394555
0.0116631 -0.399382
0.0120217 -0.370451
0.0117061 -0.376258
0.00170621 -0.387403
-0.00413207 -0.389838
0.00477842 -0.392256
-0.0010372 -0.389894
-0.0123348 -0.377161
-0.0121687 -0.370979
-0.0180588 -0.399929
-0.0209629 -0.41144
0.0151734 -0.365469
0.00602348 -0.366655
-0.00284464 -0.368318
-0.013503 -0.368245
-0.0270498 -0.419013
-0.023875 -0.420973
0.0200702 -0.415943
0.0188607 -0.409384
0.0234491 -0.407284
0.0228389 -0.403606
-0.0185937 -0.365214
-0.0187779 -0.373231
0.0178383 -0.372836
0.0262151 -0.361645
-0.0122951 -0.411575
0.00214902 -0.396444
0.0156352 -0.379685
-0.00176438 -0.395903
0.0180905 -0.417673
0.00644514 -0.369756
0.00408945 -0.369215
0.000335778 -0.369441
0.00194301 -0.369258
-0.00117066 -0.369914
-0.00304574 -0.370131
-0.00193015 -0.370126
-0.00531358 -0.370338
-0.00815029 -0.391323
-0.0145636 -0.394532
0.0187021 -0.397859
0.01023 -0.394174
0.00714336 -0.370267
0.0084363 -0.370788
0.0107551 -0.37241
0.0101602 -0.374703
0.00593855 -0.380377
0.00156063 -0.384981
-0.00193607 -0.38602
-0.00627375 -0.381435
-0.0106241 -0.375621
-0.0108005 -0.373326
-0.00787176 -0.371307
-0.00626376 -0.370769
-0.0203294 -0.397989
-0.031854 -0.415514
0.022123 -0.357188
-0.00155886 -0.366221
-0.0122775 -0.364553
-0.0382898 -0.433836
0.0327923 -0.431215
0.0296047 -0.413386
0.0242575 -0.399538
-0.0291403 -0.360306
0.0346156 -0.35472
-0.0202097 -0.42389
0.0210262 -0.374147
-0.038048 -0.350074
-0.0166148 -0.379289
0.00559189 -0.405529
0.00464698 -0.37025
0.00330615 -0.369848
0.00120982 -0.369978
-0.000541425 -0.370323
-0.00187365 -0.370536
-0.00339984 -0.370883
-0.0102453 -0.389678
0.011478 -0.390869
0.00602906 -0.371415
0.00638011 -0.374675
0.000927721 -0.381935
-0.00126455 -0.382788
-0.00615842 -0.375532
-0.0051389 -0.372027
-0.0196464 -0.388964
-0.0239224 -0.394166
-0.0273232 -0.400125
-0.0371418 -0.408955
-0.0587039 -0.437624
-0.0552845 -0.44627
0.0396383 -0.318871
0.00785534 -0.358542
-0.0323014 -0.337502
-0.0503303 -0.45157
0.047859 -0.450724
0.0474196 -0.438846
0.0442733 -0.425517
0.0383023 -0.413582
0.0285663 -0.398701
0.0268711 -0.39195
-0.0398666 -0.338394
0.0452834 -0.329865
-0.042628 -0.45156
-0.0103482 -0.41813
0.0419706 -0.343049
0.0284594 -0.440947
0.047381 -0.461478
-0.0280933 -0.365681
0.00696051 -0.409175
0.00330678 -0.370847
0.00387522 -0.371324
0.00266167 -0.370338
0.00319949 -0.370461
0.00148582 -0.370319
0.00214262 -0.370269
8.47851e-05 -0.370545
0.000716518 -0.370444
-0.000840275 -0.370806
-0.000335673 -0.370707
-0.00196548 -0.371036
-0.00143635 -0.370864
-0.00278645 -0.371872
-0.00224244 -0.371377
-0.00337874 -0.383117
-0.0075116 -0.385595
-0.0140616 -0.388
0.0182595 -0.387477
0.0138675 -0.387939
0.00560719 -0.385378
0.00225717 -0.383852
0.00470602 -0.372249
0.00462139 -0.373564
0.00326192 -0.376524
0.00143788 -0.378708
-0.00223283 -0.379558
-0.00328748 -0.37738
-0.00419089 -0.374299
-0.00372407 -0.372845
-0.0198362 -0.381209
-0.0269355 -0.390064
-0.0422094 -0.40175
-0.0600905 -0.424623
-0.0723427 -0.454463
0.0249065 -0.206921
0.0210762 -0.339406
0.00136117 -0.358821
-0.0155042 -0.349865
-0.0292031 -0.223331
-0.0641429 -0.473865
0.0659199 -0.476072
0.0609745 -0.437385
0.0370976 -0.403802
0.0251378 -0.384891
0.00316952 -0.0911164
-0.037229 -0.259345
-0.00534568 -0.0871495
0.0322161 -0.2452
-0.0371975 -0.464609
0.0323494 -0.357962
0.0558859 -0.30974
0.0474226 -0.475852
-0.054043 -0.319302
-0.0157124 -0.380197
0.00220065 -0.371278
0.00187819 -0.37074
0.0013325 -0.370629
0.000546459 -0.37074
-0.000223818 -0.370923
-0.000846279 -0.371205
-0.00123598 -0.371811
-0.00680611 -0.38149
-0.0140207 -0.381065
0.0120351 -0.381989
0.00420371 -0.38143
0.00216511 -0.373008
-0.00028204 -0.376935
-0.00282355 -0.377286
0.00237825 -0.378706
-0.000382036 -0.377754
-0.00144921 -0.373536
-0.0126579 -0.377093
0.0127184 -0.378936
-0.0211714 -0.3762
-0.0240248 -0.3798
-0.0296308 -0.381591
-0.03375 -0.387372
-0.0430099 -0.390726
-0.0513715 -0.399588
-0.0614538 -0.408052
-0.0730123 -0.421982
-0.084336 -0.436211
0.0185382 -0.219401
0.0069533 -0.329704
-0.00654124 -0.337596
-0.0176861 -0.236216
-0.0879179 -0.472571
-0.084299 -0.48631
-0.0786154 -0.497316
-0.0732201 -0.50849
-0.0573512 -0.501702
0.0608082 -0.504911
0.0736452 -0.507937
0.0801718 -0.498692
0.0848397 -0.485505
0.0879908 -0.468467
0.0815577 -0.447706
0.0736597 -0.427549
0.0652197 -0.410237
0.0509461 -0.400789
0.043461 -0.387838
0.0354357 -0.384091
0.0297393 -0.382272
0.0210502 -0.378359
0.0257126 -0.0910252
-0.00121697 -0.165103
-0.0296882 -0.242959
-0.0260611 -0.0891665
0.0245878 -0.228421
0.000230344 -0.160326
-0.0392465 -0.4928
-0.0171181 -0.484541
0.0320003 -0.369584
0.0450176 -0.496223
-0.0117232 -0.399895
0.0256686 -0.48013
0.00100057 -0.371896
0.000882199 -0.372364
0.00120758 -0.371426
0.00134874 -0.371055
0.00129924 -0.371219
0.0013677 -0.370856
0.00123266 -0.370769
0.00131196 -0.370805
0.00101642 -0.370757
0.000737498 -0.37079
0.000882346 -0.370772
0.000433816 -0.370858
0.000126163 -0.370944
0.000279407 -0.370901
-0.000139929 -0.371056
-0.000376051 -0.371215
-0.000265211 -0.371131
-0.000512382 -0.371434
-0.000555256 -0.371775
-0.00054965 -0.371592
-0.000409799 -0.372255
-0.000110504 -0.373013
-0.000286142 -0.372598
-0.0147435 -0.375099
-0.0173554 -0.375439
0.0172684 -0.377564
0.0146762 -0.377191
-0.00980094 -0.3801
-0.00570304 -0.375723
0.00828026 -0.380019
0.00585621 -0.379672
0.00635701 -0.377013
0.000179856 -0.373993
-0.00037715 -0.374974
0.000815876 -0.376172
0.000139902 -0.374814
-0.0104474 -0.374531
0.0108792 -0.375323
-0.00746947 -0.374385
-0.00869236 -0.374416
0.00914217 -0.375207
0.00793493 -0.375174
-0.00470523 -0.373796
-0.00217699 -0.373929
-0.00348973 -0.373845
0.00529184 -0.375266
0.00410645 -0.375267
0.00290201 -0.375285
0.00389739 -0.376849
-0.00303188 -0.375026
0.00892822 -0.377107
-0.00840129 -0.376432
-0.00147856 -0.375583
0.00163347 -0.374854
0.00782556 -0.382591
-0.0113213 -0.383678
0.0165927 -0.38091
-0.0169915 -0.377792
-0.0013689 -0.372428
-0.0010601 -0.371449
-0.00055688 -0.371046
0.000149611 -0.37083
0.000956522 -0.370669
0.00165373 -0.370644
0.00200469 -0.370967
0.00249047 -0.371906
0.0296676 -0.456237
-0.0124835 -0.43588
-0.00202978 -0.150282
-0.00149912 -0.15898
0.033999 -0.389126
0.05269 -0.417397
0.0680673 -0.45971
0.0636449 -0.489242
-0.0558923 -0.479139
-0.0692613 -0.465682
-0.0321139 -0.305515
0.0341968 -0.285752
-0.0731125 -0.441242
-0.0494837 -0.411387
-0.0312475 -0.395544
-0.022761 -0.384656
0.00100449 -0.380218
-0.00265316 -0.37936
-0.0480428 -0.316876
0.0499076 -0.306071
0.00506183 -0.357219
-0.00647179 -0.373167
-0.00520388 -0.378699
0.00498172 -0.377776
0.00711064 -0.372395
0.00364855 -0.38751
0.0202534 -0.393693
-0.0169261 -0.392412
-0.00416277 -0.386735
-0.00394581 -0.371343
-0.00277083 -0.370591
-0.00106857 -0.370509
0.000133516 -0.370132
0.00237391 -0.369832
0.00414239 -0.369957
0.00501894 -0.370773
-0.00990064 -0.387326
0.0264651 -0.43093
-0.00585086 -0.407766
-0.0311186 -0.432484
0.0356293 -0.34553
-0.024206 -0.356537
0.0284113 -0.405518
0.0322057 -0.423095
-0.00722831 -0.36784
0.00828783 -0.362843
-0.0429576 -0.429789
-0.0239121 -0.403667
-0.0213493 -0.373091
0.020432 -0.373122
-0.00852449 -0.369987
-0.0154579 -0.372307
-0.00722341 -0.38365
0.00682486 -0.382535
0.0146349 -0.371565
0.00924057 -0.369558
0.0174626 -0.401409
-0.0124212 -0.396176
-0.0029722 -0.369674
0.000774765 -0.368619
0.00646947 -0.404009
0.00839238 -0.388396
0.00945418 -0.403854
-0.0112493 -0.406839
0.00617807 -0.3968
-0.00419144 -0.392672
-0.00329949 -0.391877
0.000383671 -0.393078
-0.0151342 -0.404272
-0.0331533 -0.372692
0.00742164 -0.503834
-0.016879 -0.438156
0.00476914 -0.459272
-0.000807333 -0.497219
0.0107912 -0.43065
-0.00724339 -0.503471
0.0479341 -0.352578
0.0239665 -0.412134
0.00108147 -0.496777
0.00283239 -0.448993
0.0114702 -0.401578
0.0118413 -0.193067
0.027967 -0.224419
0.0155137 -0.185214
0.0450959 -0.267149
-0.01162 -0.100156
0.00140309 -0.12256
0.00540853 -0.158489
-0.00198123 -0.157155
0.0092416 -0.18831
-0.0143116 -0.12156
-0.0070136 -0.12932
-0.0207557 -0.097046
0.015651 -0.14985
0.0266251 -0.174888
-0.0294815 -0.0777415
-0.0156548 -0.117589
-0.0148509 -0.203006
-0.0158225 -0.188605
-0.0303616 -0.234217
-0.00565553 -0.161504
0.0117886 -0.100458
-0.00132168 -0.122955
-0.0486619 -0.278869
-0.0133736 -0.199826
-0.000320294 -0.163877
0.0136903 -0.124744
0.0207761 -0.0983541
0.00682147 -0.131856
0.0294931 -0.0787619
-0.0156018 -0.15037
-0.0265243 -0.175556
0.0139688 -0.12259
-0.010888 -0.30145
0.00906891 -0.323916
0.0104254 -0.276651
0.004462 -0.353649
0 0
0 0
-0.00925558 -0.142006
-0.0267718 -0.27516
-0.0198463 -0.322107
0.0118024 -0.28958
-0.0100963 -0.269797
-0.0100715 -0.318562
0.00989273 -0.129053
0 0
-0.0540674 -0.218362
-0.00561613 -0.351625
0.0220709 -0.308238
0.0276362 -0.255488
-0.0387354 -0.349447
-0.0395484 -0.3511
-0.0140165 -0.384554
-0.0604409 -0.320703
0.00861991 -0.415468
-0.0417759 -0.344531
-0.0499829 -0.32387
0.0507693 -0.331868
0.0325462 -0.360687
0.0537817 -0.333326
0.00945551 -0.391961
0.061229 -0.313595
0.0530113 -0.310502
0.0477395 -0.333561
0.0461291 -0.283767
0.0471004 -0.281972
0.028385 -0.238805
0.0149241 -0.198547
0.0433561 -0.278395
-0.0471818 -0.29084
-0.0336498 -0.252635
-0.0503837 -0.292383
-0.0202009 -0.211539
-0.0456724 -0.29156
-0.014451 -0.160968
-0.027917 -0.220896
-0.0156309 -0.150027
-0.0351074 -0.267059
0.00510818 -0.0508534
0.00207039 -0.126706
-0.0170442 -0.18974
-0.00561791 -0.356968
-0.00451503 -0.355223
-0.0136677 -0.344546
-0.000393779 -0.358693
-0.0247343 -0.333292
-0.00588259 -0.357186
0.00319311 -0.357743
0.0100592 -0.352282
0.016318 -0.334588
0.00606314 -0.350692
0.0288231 -0.31786
0.0140068 -0.351586
0.0100983 -0.148723
0.0130635 -0.137258
0.0257864 -0.203756
-0.00607003 -0.0492971
0.0336757 -0.247145
0.0122625 -0.17748
-0.00498546 -0.120462
-0.0400434 -0.34727
-0.0284697 -0.364227
-0.0124648 -0.384635
-0.0191162 -0.376925
0.0487697 -0.325734
0.0309169 -0.359708
0.0113888 -0.385608
0.0126415 -0.383626
-0.0445588 -0.335172
-0.0341995 -0.357103
-0.0247588 -0.370034
-0.0301719 -0.362708
-0.0340296 -0.355837
-0.0352909 -0.350766
-0.0402964 -0.342965
-0.027824 -0.357657
-0.0328629 -0.349044
-0.0448348 -0.327473
-0.0267877 -0.365475
0.0360931 -0.349399
0.0314559 -0.354424
0.0306023 -0.358692
0.0249566 -0.366096
0.0206597 -0.367198
0.0282315 -0.36407
-0.0218068 -0.36122
-0.0240647 -0.363267
-0.0224597 -0.367308
-0.0180247 -0.368109
-0.0182399 -0.361431
-0.0157964 -0.364776
-0.012722 -0.366917
-0.00972712 -0.366421
0.00722016 -0.36495
0.00310523 -0.364895
0.00247688 -0.366483
-0.000179008 -0.367537
-0.00473651 -0.367092
0.00309735 -0.367745
0.0207941 -0.363976
0.0251318 -0.358854
0.0188654 -0.361823
0.0292485 -0.352346
0.0151835 -0.360577
0.0124489 -0.364042
0.0159806 -0.367751
0.0106018 -0.366078
0.00641609 -0.367597
0.00798071 -0.368836
0.0036165 -0.368517
0.0104459 -0.367284
0.012462 -0.36775
0.0172801 -0.0260905
0.0168831 -0.0670309
0.0132241 -0.0348929
0.0177091 -0.0984511
0 0
0 0
0.0211429 -0.0210547
0.0356805 -0.0579017
0.0286425 -0.0725295
0.0324228 -0.0421567
-0.0376143 -0.205908
-0.0453272 -0.2239
-0.0325599 -0.0417665
-0.0291333 -0.071076
-0.0356776 -0.0572519
-0.0194585 -0.0941583
0.0377747 -0.205011
0.0453612 -0.222698
-0.021273 -0.0209595
-0.013721 -0.034286
-0.0181046 -0.0651448
-0.017407 -0.0258314
-0.0420741 -0.303494
-0.0212278 -0.344023
-0.0232185 -0.349401
-0.0149352 -0.353273
-0.024362 -0.343267
-0.00369391 -0.358036
-0.0334049 -0.323307
-0.0290693 -0.347958
-0.0192929 -0.355717
-0.0393476 -0.320004
-0.0430531 -0.320764
-0.037077 -0.336161
-0.0458017 -0.305809
-0.0385801 -0.298457
-0.0321209 -0.239911
-0.0420265 -0.279316
-0.0382009 -0.265947
0.034997 -0.248109
0.0389203 -0.264274
0.0273151 -0.224868
0.0458553 -0.291986
0.0392162 -0.279036
0.0436419 -0.321403
0.0462369 -0.307937
0.0426545 -0.301154
0.04836 -0.318255
0.0376577 -0.30312
0.0387225 -0.333077
0.0412368 -0.337944
0.0241578 -0.352135
0.0167561 -0.354595
0.0156919 -0.357577
0.0152006 -0.353179
0.00664827 -0.357401
0.00827754 -0.36031
0.0313377 -0.345225
0.0314702 -0.327884
0.0240532 -0.343117
0.0333328 -0.335827
0.0407211 -0.345296
0.0369325 -0.352415
0.0450091 -0.335052
0.0227371 -0.371425
0.0406085 -0.343911
0.0340565 -0.356855
0.0260198 -0.367782
-0.00414542 -0.364277
-0.0100556 -0.363224
-0.00676331 -0.365684
-0.0159819 -0.360055
0.00090988 -0.362815
-0.00260723 -0.35915
-0.0102225 -0.358997
8.15533e-05 -0.360631
0.00596168 -0.469881
-0.00771189 -0.468632
-0.00525754 -0.485638
-0.00623581 -0.44022
-0.0161364 -0.460259
-0.0125649 -0.494111
0.00977668 -0.488452
0.0192932 -0.47807
0.0141423 -0.455903
0.0166007 -0.404847
0.00612312 -0.4253
0.0125889 -0.432514
-0.00150409 -0.420343
0.026043 -0.440972
0.0269437 -0.389831
0.0209972 -0.386842
0.0564646 -0.289877
0.053236 -0.24406
0.0471351 -0.259605
0.0332466 -0.247262
0.0401446 -0.236805
0.0599858 -0.273937
-0.0531372 -0.245439
-0.0588888 -0.297917
-0.048561 -0.267039
-0.0415282 -0.24376
-0.0374561 -0.260353
-0.0590196 -0.275237
-0.0508846 -0.336456
-0.0516313 -0.341002
-0.0370969 -0.357848
-0.0653498 -0.321879
-0.0492686 -0.352932
-0.0217559 -0.387343
-0.0256114 -0.373357
-0.0507525 -0.332816
-0.0568921 -0.319439
-0.000887489 -0.40709
0.00985065 -0.421559
-0.00191066 -0.401073
0.0207439 -0.444378
0.0198583 -0.43588
-0.00362312 -0.396705
-0.0151108 -0.381365
-0.0128448 -0.38984
0.000336649 -0.416511
-0.0408953 -0.34611
-0.0463621 -0.334843
-0.046698 -0.335975
-0.0467989 -0.330619
-0.0491991 -0.319615
-0.0518229 -0.321381
-0.047962 -0.335047
-0.0272418 -0.365113
-0.0332926 -0.357283
0.0200949 -0.377336
0.0102613 -0.395175
0.0216663 -0.379909
-0.00234331 -0.413967
0.0324264 -0.363784
0.032628 -0.358538
0.0212266 -0.373638
0.0521245 -0.33953
0.0614079 -0.32743
0.0594634 -0.323682
0.0589164 -0.340479
0.0665138 -0.317294
0.0583459 -0.311255
0.0577481 -0.320309
0.0443277 -0.348708
0.0396137 -0.361727
0.0538265 -0.320586
0.0518085 -0.322501
0.049154 -0.33251
0.0513231 -0.307817
0.0509403 -0.319476
0.0418486 -0.344394
0.041999 -0.345047
0.0553788 -0.321136
0.0543276 -0.309924
0.0546852 -0.297345
0.0558811 -0.295146
0.0462991 -0.277364
0.0352406 -0.254963
0.0532139 -0.297464
0.051499 -0.296536
0.0509065 -0.297926
0.0491575 -0.295955
0.038377 -0.263812
-0.0500731 -0.288622
-0.0592545 -0.30446
-0.0566006 -0.305786
-0.0543921 -0.307237
-0.0400954 -0.26854
-0.0519043 -0.304781
-0.0509273 -0.308457
-0.0417605 -0.274686
-0.0488923 -0.30483
-0.0227532 -0.37131
-0.0141291 -0.382396
-0.020442 -0.374731
-0.0210918 -0.374309
-0.0112532 -0.386132
-0.0284392 -0.364825
0.0105649 -0.387783
0.00026444 -0.40157
-0.00114381 -0.405982
0.00230637 -0.397378
-0.00798213 -0.41211
-0.011683 -0.425384
0.0213354 -0.372399
0.0216388 -0.37201
0.0121388 -0.384261
0.0217361 -0.371682
0.00336443 -0.395508
0.0316928 -0.358582
0.0376783 -0.350368
0.0266299 -0.36595
0.00721877 -0.390439
0.0181195 -0.376896
0.0282153 -0.364948
0.0332787 -0.357389
-0.00157851 -0.401447
0.0126475 -0.383873
0.0153294 -0.380841
0.00564109 -0.392002
-0.00307279 -0.396136
0.00610096 -0.407086
-0.00325134 -0.395588
0.0170283 -0.420937
0.0160762 -0.418043
-0.00255189 -0.395847
-0.00382317 -0.395521
0.00904957 -0.442733
0.0159456 -0.470386
0.0193126 -0.456532
0.00636544 -0.48414
0.0178041 -0.491454
0.028502 -0.466854
-0.00215477 -0.43094
-0.0132137 -0.467042
-0.00159615 -0.474159
-0.00519846 -0.449323
-0.00966901 -0.48874
-0.0126262 -0.416287
-0.022499 -0.452213
-0.0189581 -0.478615
-0.0379187 -0.394707
-0.0310828 -0.432071
-0.0235686 -0.407663
-0.0289789 -0.465491
-0.0401888 -0.449215
0.0359717 -0.488714
0.0309511 -0.502884
0.040906 -0.507987
-0.0526277 -0.427403
-0.0612646 -0.392486
0.0509145 -0.512704
0.0382058 -0.477687
0.0464941 -0.390316
0.0340055 -0.386618
0.0348297 -0.417587
0.0290448 -0.465116
0.0401943 -0.448908
-0.0293009 -0.488476
-0.0376725 -0.506765
-0.0266677 -0.504806
-0.0481853 -0.511568
0.0516807 -0.427403
0.0625633 -0.393
-0.027431 -0.468364
0.0580955 -0.405519
0.0646728 -0.401806
0.057506 -0.397177
0.0697533 -0.405939
0.018027 -0.373888
0.0154334 -0.373564
0.0519768 -0.393624
0.0516587 -0.409334
0.0587634 -0.414227
0.0694338 -0.418992
0.0800992 -0.421696
0.0761486 -0.412785
0.0851234 -0.429133
0.0128814 -0.373326
0.0111244 -0.373203
0.063229 -0.422674
0.0848509 -0.458344
0.09582 -0.461059
0.0932582 -0.450458
0.0975513 -0.471124
0.00938291 -0.373124
0.00818648 -0.373094
0.0885911 -0.439559
0.0742614 -0.454436
0.0781247 -0.464705
0.0862142 -0.477266
0.0945599 -0.488874
0.0967982 -0.48051
0.0920816 -0.496015
0.089697 -0.513745
0.0939361 -0.509454
0.0770517 -0.473184
0.0768285 -0.503315
0.0819265 -0.511802
0.0855327 -0.507342
0.0773952 -0.514902
0.0977996 -0.504202
0.101244 -0.497925
0.0891499 -0.50241
0.0720134 -0.494714
0.0690665 -0.499359
0.0673483 -0.506592
0.0656799 -0.515871
0.0718859 -0.516221
0.0587226 -0.514994
0.104038 -0.490575
0.106014 -0.482093
0.0624363 -0.496797
-0.0655488 -0.505535
-0.0715901 -0.516245
-0.0640852 -0.514603
-0.0771225 -0.514881
-0.0896856 -0.513244
-0.0851733 -0.516771
-0.0569608 -0.513619
-0.0570668 -0.490187
-0.0654955 -0.495622
-0.0758858 -0.502886
-0.0848257 -0.506568
-0.0816683 -0.511765
-0.0884141 -0.501617
-0.0803188 -0.519486
-0.0751311 -0.521641
-0.0676366 -0.48975
-0.0859417 -0.479643
-0.0966273 -0.482133
-0.0942337 -0.489007
-0.0973425 -0.472878
-0.0693408 -0.523072
-0.0628913 -0.523922
-0.0917819 -0.496123
-0.0772504 -0.476515
-0.07861 -0.469748
-0.0787573 -0.42917
-0.0798711 -0.418353
-0.0854576 -0.425576
-0.0735261 -0.411568
-0.0744685 -0.400291
-0.0810977 -0.406942
-0.0903477 -0.432921
-0.0785882 -0.438992
-0.0728707 -0.431918
-0.0564209 -0.403816
-0.0576942 -0.396107
-0.062722 -0.400335
-0.0521475 -0.392548
-0.0870497 -0.41403
-0.0922278 -0.421438
-0.0678274 -0.404481
-0.0553685 -0.409967
-0.0503109 -0.405702
-0.0966404 -0.429067
-0.0480057 -0.388035
-0.043993 -0.385983
-0.0398749 -0.384261
-0.0369879 -0.393459
-0.101567 -0.440248
-0.0394549 -0.349147
-0.0257704 -0.368771
-0.0279613 -0.364253
0.0547758 -0.491594
0.0467293 -0.485323
0.0532902 -0.500844
0.0389193 -0.4668
0.0557217 -0.483187
0.0437212 -0.344113
0.0430282 -0.347223
0.0522663 -0.332194
-0.0482367 -0.485338
-0.0488904 -0.497432
-0.0389103 -0.478323
-0.0256876 -0.451528
-0.0468189 -0.472467
0.0466882 -0.283134
0.036484 -0.258757
-0.0486123 -0.291427
-0.0406594 -0.270369
0.0448917 -0.410551
0.0438758 -0.402633
0.0424207 -0.394888
0.0354075 -0.396663
0.0713713 -0.442916
0.0776287 -0.437807
0.0669808 -0.433044
0.056748 -0.427476
0.0644273 -0.448664
0.0736427 -0.488174
0.0823398 -0.492249
0.0754288 -0.481605
0.0666863 -0.468
0.0646976 -0.482486
-0.0744046 -0.481032
-0.0812794 -0.491922
-0.0719914 -0.486357
-0.0598231 -0.476438
-0.066492 -0.469875
-0.0605786 -0.416657
-0.0672722 -0.415047
-0.0664493 -0.423568
-0.0666971 -0.432984
-0.054804 -0.418
-0.0425176 -0.396421
-0.0471776 -0.395146
-0.0467343 -0.400803
-0.0458346 -0.406559
-0.0367035 -0.398635
-0.0360649 -0.353838
-0.0350609 -0.355703
0.0381921 -0.4521
0.0386035 -0.458834
0.0474577 -0.468019
0.0292335 -0.447415
0.0560921 -0.475967
0.0373058 -0.446162
0.0272878 -0.435292
0.0400342 -0.346828
0.0447226 -0.338518
0.0454277 -0.415688
0.0376158 -0.408798
0.0326532 -0.404877
0.0333356 -0.409524
0.0456999 -0.432229
0.0539381 -0.438649
0.052676 -0.431578
0.0580333 -0.449555
0.0482268 -0.421892
0.0381082 -0.42467
0.0398606 -0.430957
0.0474329 -0.455876
0.0567555 -0.469606
0.0573334 -0.463724
0.0578425 -0.456083
0.0373434 -0.441712
-0.0463016 -0.451771
-0.0575279 -0.46283
-0.0537544 -0.463671
-0.0599319 -0.459231
-0.0496356 -0.465224
-0.0368849 -0.441719
-0.0408834 -0.442462
-0.0568182 -0.442127
-0.0656772 -0.446127
-0.0638307 -0.450781
-0.0658743 -0.439696
-0.0725995 -0.448006
-0.070617 -0.460226
-0.062494 -0.456093
-0.0491802 -0.437988
-0.0508143 -0.433986
-0.0432565 -0.410323
-0.039558 -0.405588
-0.0341007 -0.402289
-0.0304383 -0.406447
0.0190384 -0.429158
0.0179609 -0.424713
0.00764123 -0.41149
0.0369271 -0.419449
0.0412299 -0.41954
0.0338676 -0.413684
0.0289326 -0.409521
0.0307932 -0.41828
0.040444 -0.440912
0.0474192 -0.444809
0.0400278 -0.435499
0.0323397 -0.427214
0.029452 -0.431325
-0.0468308 -0.440403
-0.0526158 -0.449092
-0.0443667 -0.442599
-0.0345823 -0.433408
-0.0404688 -0.432016
0.0221311 -0.423958
0.0119141 -0.411947
0.00593887 -0.404833
0.0121705 -0.410629
-0.00519617 -0.404585
-0.0160578 -0.417307
-0.00907651 -0.410094
-0.0217476 -0.422093
-0.0256358 -0.428591
-0.0132251 -0.416408
-0.00160976 -0.399564
0.0254715 -0.416136
0.0241385 -0.411629
0.0180548 -0.405488
0.0140978 -0.40681
0.0190082 -0.4169
0.0254628 -0.424696
0.0263916 -0.423432
0.0260783 -0.419814
0.0132412 -0.410188
-0.0253789 -0.420128
-0.0326374 -0.426285
-0.0310993 -0.427573
-0.0349727 -0.424642
-0.0274168 -0.426552
-0.0174818 -0.413745
-0.0190836 -0.413206
-0.0373824 -0.422562
-0.0293166 -0.417509
-0.0233584 -0.41004
-0.0278111 -0.40952
-0.0180819 -0.416614
-0.0116399 -0.409201
0.0193562 -0.412718
0.0146536 -0.409747
-0.0526119 -0.429777
-0.0532026 -0.423524
-0.0592225 -0.431339
-0.0477946 -0.416931
-0.0445281 -0.4261
-0.0343232 -0.412543
-0.0417615 -0.415421
-0.0390807 -0.418954
-0.0801673 -0.455486
-0.0879403 -0.464388
-0.0804721 -0.46386
-0.0980359 -0.46444
-0.0808341 -0.448674
-0.0949268 -0.444135
-0.0963569 -0.453949
-0.0862161 -0.446211
-0.104879 -0.451319
-0.106618 -0.461961
-0.0206326 -0.430981
-0.0338362 -0.452415
-0.0248369 -0.442662
-0.0438345 -0.462062
-0.0183989 -0.425176
-0.0317514 -0.43823
-0.0363077 -0.447145
-0.0250483 -0.432241
-0.00444112 -0.343806
-0.0108638 -0.337464
-0.0315337 -0.2405
-0.0369133 -0.258035
-0.031722 -0.280618
-0.0334304 -0.299341
0.0219368 -0.324888
0.0233899 -0.309926
-0.00457224 -0.391707
-0.0121316 -0.383038
0.0321916 -0.334501
0.0317179 -0.340679
0.00140002 -0.356063
0.00553165 -0.354097
-0.0377434 -0.0508395
-0.034211 -0.0502925
-0.00944149 -0.0431898
-0.00847088 -0.021283
0.0210989 -0.328148
0.0156402 -0.326064
0.0374777 -0.218015
0.0358989 -0.26012
-0.0367232 -0.334658
-0.0369619 -0.32666
-0.000587155 -0.00186229
-0.00362495 -0.0210707
-0.0495593 -0.267732
-0.027528 -0.241495
0.0504867 -0.308044
0.0482322 -0.292011
-0.0172144 -0.210295
-0.0112897 -0.187946
-0.0124702 -0.156979
-0.0148062 -0.148746
-0.0067802 -0.356292
-0.00664572 -0.356694
-0.0317138 -0.241846
-0.0367259 -0.257242
0.0143025 -0.0136807
0.025664 -0.0254717
0.0160789 -0.366531
0.0173064 -0.368312
0.0369888 -0.338415
0.0347082 -0.346182
-0.0573405 -0.28985
-0.040394 -0.261542
0.0179339 -0.359834
0.0142511 -0.359299
0.0297373 -0.229665
0.0254671 -0.226908
0.0169441 -0.36557
0.0141353 -0.364895
-0.0229506 -0.368428
-0.0190319 -0.373871
0.0329163 -0.35767
0.0325403 -0.359009
-0.000621716 -0.1635
0.00998532 -0.133615
0.0200766 -0.276723
0.0248133 -0.250975
-0.00629161 -0.335985
-0.0135662 -0.330067
-0.0112435 -0.325749
-0.0041358 -0.332675
0.001878 -0.0964649
0.00422017 -0.117763
-0.00977006 -0.375923
-0.00397016 -0.377771
-0.0385073 -0.264683
-0.0493564 -0.292518
0.00240452 -0.369746
0.00113798 -0.369268
-0.00302207 -0.265248
1.25985e-05 -0.29041
-0.0199504 -0.319256
-0.0371121 -0.315407
-0.0255649 -0.331341
-0.0183456 -0.323381
-0.0319277 -0.357596
-0.0271609 -0.361966
0.0411466 -0.276688
0.0429231 -0.281258
-0.0529659 -0.261166
-0.0499417 -0.285412
-0.0241915 -0.208512
-0.0197489 -0.171055
-0.0142554 -0.167025
-0.0132305 -0.175551
-0.0195107 -0.199771
-0.0273808 -0.227286
-0.0180134 -0.163969
-0.0162689 -0.172446
-0.0399213 -0.334814
-0.0358922 -0.341023
-0.0310679 -0.342891
-0.0257105 -0.348111
-0.0295506 -0.344508
-0.0309035 -0.34674
-0.0377337 -0.349012
-0.0349101 -0.352094
-0.00587288 -0.145689
0.0025648 -0.132292
-0.00360315 -0.357804
-0.00896309 -0.356317
-0.0328281 -0.304194
-0.0270773 -0.313386
0.0362747 -0.255783
0.0311319 -0.237738
-0.00827869 -0.357862
-0.00786133 -0.357268
-0.0252851 -0.360591
-0.0265189 -0.362095
-0.0399814 -0.336561
-0.0429406 -0.325172
0.039699 -0.278045
0.0363507 -0.255476
-0.00631128 -0.349018
-0.0118091 -0.34941
0.0229213 -0.0773848
0.0191167 -0.0699661
-0.0287732 -0.363214
-0.0342608 -0.355341
-0.0239793 -0.0591919
-0.018206 -0.0641177
-7.68367e-05 -0.359126
-0.000251762 -0.358343
-0.0510656 -0.30753
-0.0474106 -0.288749
0.0171217 -0.350651
0.0114646 -0.354855
-0.0453032 -0.309137
-0.0450817 -0.294228
-0.0219006 -0.344325
-0.0174745 -0.350588
0.0274667 -0.0851277
0.0238122 -0.0958426
-0.00663246 -0.141106
-0.00123329 -0.159425
0.0312733 -0.244467
0.0199667 -0.214773
0.0293713 -0.361772
0.0426237 -0.343001
-0.0109858 -0.370939
-0.0070599 -0.37054
-0.0171661 -0.207741
-0.0254577 -0.231868
-0.00153136 -0.156635
-0.00102558 -0.145046
0.0538464 -0.309283
0.0558552 -0.323668
-0.00425545 -0.355941
-0.00120834 -0.358168
-0.0107885 -0.369082
-0.0065979 -0.369485
-0.027748 -0.364209
-0.0256543 -0.368118
-0.0113189 -0.277061
-0.00463116 -0.255245
0.0195103 -0.18518
0.0221713 -0.225151
0.0069462 -0.164825
0.00918134 -0.180859
0.0263884 -0.0262053
0.0243486 -0.0296163
0.0407015 -0.345435
0.0444793 -0.335261
0.00978392 -0.171821
0.018573 -0.20119
0.00409965 -0.144785
0.0139408 -0.116463
0.0329472 -0.358834
0.0260988 -0.367801
0.00945339 -0.365983
0.0126841 -0.366371
0.0405631 -0.345696
0.0392715 -0.347719
-0.0356509 -0.277592
-0.0374517 -0.270062
0.000474224 -0.370731
-0.00023484 -0.370323
-0.017566 -0.201363
-0.0186842 -0.19608
-0.0170251 -0.0466491
-0.0196828 -0.0355133
-0.00559712 -0.0330396
9.14613e-05 -0.0345278
0.0274763 -0.0252614
0.0332322 -0.0355967
-0.0270261 -0.36567
-0.0388152 -0.349303
-0.00190806 -0.357746
-0.00342208 -0.356331
-0.00241819 -0.35572
-0.000745952 -0.351172
-0.0184731 -0.367215
-0.013636 -0.368521
-0.00863207 -0.142873
-0.00305886 -0.111343
-0.0499858 -0.320655
-0.0469746 -0.330389
-0.000911004 -0.358338
0.000263204 -0.358984
0.0462186 -0.327571
0.0481314 -0.315228
0.0198044 -0.100505
0.025727 -0.0792997
0.0400269 -0.344604
0.0358468 -0.35131
0.00725259 -0.299956
-0.00584518 -0.301252
0.00541967 -0.355548
0.00156948 -0.357922
-0.00982526 -0.0894561
-0.0110164 -0.0672168
-0.0119686 -0.123027
-0.0194553 -0.097947
-0.0150657 -0.370025
-0.0102551 -0.371431
-0.0171764 -0.193246
-0.00629349 -0.190702
0.0481107 -0.324018
0.0477432 -0.310313
-0.00946673 -0.124018
-0.0108254 -0.142877
-0.0167398 -0.163428
-0.0112719 -0.158928
-0.0130964 -0.0160042
-0.0146772 -0.0148481
-0.030258 -0.227972
-0.0317666 -0.23483
0.00139809 -0.358463
0.000273414 -0.359188
0.00212893 -0.0345783
0.00438263 -0.0190796
0.0428935 -0.335213
0.045631 -0.323369
-0.0362392 -0.27609
-0.0327292 -0.259838
-0.0311675 -0.0744353
-0.0293669 -0.0746858
-0.0245629 -0.336157
-0.0153547 -0.332709
-0.0163228 -0.336654
-0.0193076 -0.340302
-0.00904278 -0.341056
-0.00463136 -0.332007
0.0370677 -0.343369
0.0325546 -0.348628
0.0373975 -0.317853
0.0353956 -0.309978
-0.0212951 -0.199023
-0.0245787 -0.216355
-0.036944 -0.352415
-0.0378675 -0.349645
-0.0034714 -0.349558
-0.0010303 -0.355532
0.00350552 -0.352836
0.00875248 -0.348994
-0.013935 -0.185042
-0.00528416 -0.155352
-0.00175258 -0.00229099
-0.0123315 -0.0187953
-0.0266804 -0.216639
-0.0240417 -0.213705
0.0115579 -0.338601
0.0038624 -0.333103
0.0358715 -0.217851
0.00926778 -0.221886
0.0187806 -0.290233
0.0459001 -0.28166
-0.0132564 -0.032835
-0.0072922 -0.0206527
-0.0448693 -0.317664
-0.0467221 -0.312078
0.0139179 -0.18916
0.0146517 -0.199133
-0.0266448 -0.367675
-0.0338249 -0.357536
0.0165985 -0.35168
0.0223843 -0.347479
-0.0177418 -0.349964
-0.0193946 -0.350878
-0.0344085 -0.345877
-0.0386484 -0.339482
0.0451518 -0.33461
0.043833 -0.336064
-0.000369656 -0.360966
0.00229062 -0.362382
-0.0176303 -0.366236
-0.0176107 -0.364251
0.0491664 -0.314157
0.0473387 -0.316706
0.0201134 -0.363466
0.0234222 -0.363381
-0.0314141 -0.0601493
-0.0346647 -0.0614635
-0.0124235 -0.355089
-0.0178584 -0.352524
-0.0383888 -0.305004
-0.0362454 -0.294931
0.00851721 -0.369629
0.00481618 -0.370383
0.0407059 -0.269716
0.0411363 -0.27126
0.00875838 -0.266478
0.0144689 -0.28968
0.0109539 -0.158539
0.0102935 -0.139225
0.00375737 -0.00265939
0.0173849 -0.0150208
-0.00201003 -0.0352907
0.00464933 -0.0820549
-0.0152101 -0.0535812
-0.0106119 -0.0806158
0.027422 -0.0340572
0.0185732 -0.0188935
-0.0121724 -0.343317
-0.0174731 -0.341221
0.0212852 -0.373811
0.0125697 -0.383958
-0.0283087 -0.33366
-0.0308 -0.32171
-0.0239605 -0.0555542
-0.0185126 -0.0582437
0.0134779 -0.352365
0.0193584 -0.347092
0.0192523 -0.0872524
0.026176 -0.0726675
-0.0158536 -0.37482
-0.0157295 -0.371886
-0.00258313 -0.36528
-0.00811536 -0.364656
-0.0157294 -0.0753641
-0.00813181 -0.10047
-0.0364822 -0.256754
-0.0383654 -0.273568
-0.0421572 -0.326627
-0.0419621 -0.334199
0.0124723 -0.154641
0.0217496 -0.18469
0.0179097 -0.36941
0.021281 -0.369089
0.0435559 -0.328472
0.0405502 -0.33987
0.00429149 -0.174712
0.00216611 -0.164251
0.00790469 -0.369857
0.00870965 -0.371881
-0.00295229 -0.300024
0.00918976 -0.296908
0.0216576 -0.0954247
0.0258934 -0.0904925
-0.0101891 -0.358544
-0.0113744 -0.359987
-0.0301169 -0.361609
-0.024066 -0.368603
-0.030318 -0.362604
-0.0252273 -0.368471
0.0345394 -0.283674
0.0338897 -0.30322
-0.00748125 -0.323643
-0.0107575 -0.306373
-0.0055439 -0.357207
-0.00301463 -0.357937
0.0131378 -0.271127
-0.00462834 -0.270838
0.0166921 -0.167143
0.0220222 -0.209189
0.031645 -0.291853
0.0323574 -0.307946
-0.00933104 -0.220641
-0.0115947 -0.170176
0.00557165 -0.356771
0.00974039 -0.35476
0.0145866 -0.372391
0.0154658 -0.369145
0.0202718 -0.173527
0.0191077 -0.179916
0.0283649 -0.364402
0.0316421 -0.360521
-0.0320892 -0.242463
-0.0291544 -0.238126
-0.0198066 -0.197204
-0.0244677 -0.206101
-0.0340587 -0.355271
-0.02938 -0.362719
0.0395279 -0.333502
0.0355292 -0.342574
-0.00125154 -0.3579
-0.00154947 -0.357616
0.0186661 -0.371982
0.013527 -0.378171
0.0037039 -0.357574
0.00353731 -0.357651
-0.000802619 -0.3581
-0.00365759 -0.357733
0.0359281 -0.347015
0.0363366 -0.34181
-0.0334912 -0.0649559
-0.0296466 -0.0787133
0.0140973 -0.368454
0.00980949 -0.370136
-0.0126275 -0.126649
-0.0076092 -0.140962
0.0326077 -0.303402
0.0365891 -0.302927
-0.0150288 -0.347087
-0.0111802 -0.352687
0.0229871 -0.364076
0.0208975 -0.363073
-0.00687916 -0.13142
-0.00164859 -0.0994456
-0.01253 -0.261719
-0.000856072 -0.232093
-0.00140895 -0.356681
-0.00343746 -0.356866
-0.0252542 -0.357245
-0.0271473 -0.358478
0.0306533 -0.361969
0.0369936 -0.352314
-0.0150954 -0.296312
-0.0137674 -0.314973
0.00813015 -0.359871
0.0102667 -0.361159
0.0337253 -0.355987
0.0262024 -0.366579
-0.0158763 -0.358228
-0.0219033 -0.355576
0.0293003 -0.060805
0.0335159 -0.0570161
0.0493691 -0.312856
0.0476374 -0.321008
0.00392344 -0.357478
-0.00186266 -0.358046
0.0418568 -0.297687
0.0397672 -0.280731
0.00392607 -0.152329
0.00824766 -0.13934
-0.00165522 -0.154806
-0.0111897 -0.174742
-0.0054201 -0.372677
-0.00140199 -0.375443
0.0119788 -0.0177571
0.0194242 -0.0361286
0.0338153 -0.0546789
0.0298298 -0.052171
-0.0157945 -0.37361
-0.0105872 -0.375307
-0.0160335 -0.356343
-0.0218492 -0.352364
0.0313209 -0.241453
0.00634526 -0.242686
-0.00229525 -0.35863
-0.00045674 -0.359405
-0.0213847 -0.355368
-0.0201945 -0.353743
-0.0244001 -0.0557585
-0.0242665 -0.0381168
-0.00318057 -0.35808
0.00122273 -0.358496
0.000691213 -0.358776
-0.000550416 -0.359849
-0.0454649 -0.324083
-0.0431046 -0.328031
-0.0320336 -0.358724
-0.0290416 -0.363388
-0.0234501 -0.214422
-0.0275828 -0.231978
-0.00136127 -0.321133
0.00335762 -0.333088
0.000346581 -0.358936
0.00403126 -0.35721
0.0144183 -0.357759
0.0203406 -0.355837
0.019917 -0.0625707
0.017103 -0.0865522
-0.0111803 -0.223932
-0.0188659 -0.247338
0.0108984 -0.122448
0.00880062 -0.136632
0.0166173 -0.370927
0.0118231 -0.372042
0.0122416 -0.322284
0.0274503 -0.313125
0.0199076 -0.338729
0.0158237 -0.338154
0.0026494 -0.0967031
0.0064587 -0.108128
0.00520486 -0.378978
0.00344997 -0.375091
0.034005 -0.350115
0.0361592 -0.349906
-0.021659 -0.346044
-0.0264692 -0.342674
-0.0261172 -0.21501
-0.0307384 -0.230363
0.0517962 -0.296829
0.0450635 -0.281812
0.0032273 -0.0226148
-0.00359103 -0.0732276
0.0141962 -0.371332
0.0150741 -0.374008
-0.0219907 -0.221142
-0.0292483 -0.241858
0.0149048 -0.0666164
0.0141269 -0.0441882
-0.00178125 -0.353217
0.000617095 -0.35688
-0.0166229 -0.204555
-0.0249236 -0.229614
-0.0376581 -0.274251
-0.0355358 -0.2537
-0.0451995 -0.290123
-0.0416031 -0.276299
0.0295257 -0.0730024
0.0273548 -0.0856823
0.0294074 -0.342044
0.0243745 -0.34579
-0.0167057 -0.338828
-0.00853552 -0.335092
-0.0257498 -0.345474
-0.0200936 -0.350112
-0.0147846 -0.098318
-0.00384543 -0.147513
-0.0414278 -0.342524
-0.0380624 -0.348144
0.010224 -0.366627
0.0118101 -0.367667
-0.00759309 -0.298897
0.00244385 -0.31129
0.0198048 -0.194427
0.0285358 -0.223833
-0.0370524 -0.0427001
-0.0359793 -0.0530397
-0.0310526 -0.246307
-0.0186356 -0.213458
-0.0100215 -0.168301
-0.0169805 -0.181683
0.0122629 -0.332236
0.00196792 -0.336142
0.0361306 -0.257929
0.0246465 -0.228459
-0.00271428 -0.367862
-0.00089634 -0.366631
-0.00247848 -0.373369
-0.00485108 -0.376778
-0.0229325 -0.216456
-0.0289122 -0.237766
-0.0200116 -0.33962
-0.0147665 -0.347395
0.0435144 -0.280172
0.0477043 -0.297629
-0.000830245 -0.366608
-0.00310608 -0.365237
-0.0414715 -0.319406
-0.038366 -0.323121
-0.0560688 -0.325188
-0.0495598 -0.332707
-0.0198603 -0.0980538
-0.0230157 -0.0968782
0.0148136 -0.0216337
0.00911622 -0.0132553
0.0110171 -0.0827263
0.0178462 -0.0606757
0.0196653 -0.372259
0.0129258 -0.378341
-0.00296376 -0.0093398
-0.00377776 -0.0212881
-0.0481696 -0.296797
-0.0425469 -0.276441
0.0176996 -0.163536
0.00970588 -0.128941
0.0192445 -0.106585
0.0166746 -0.116861
0.0362179 -0.352511
0.0466656 -0.335385
0.0375926 -0.350603
0.0423895 -0.342852
-0.0246747 -0.194392
-0.0305455 -0.225923
0.00405482 -0.0939719
-0.00544842 -0.0502454
0.0401928 -0.346476
0.0443758 -0.337078
-0.000315865 -0.353368
0.00211231 -0.347135
0.0118752 -0.265549
-0.00576776 -0.253034
0.0298083 -0.226681
0.0238848 -0.200096
0.0209712 -0.0457571
0.0162425 -0.0534989
0.00744871 -0.335744
0.00666653 -0.346035
0.0114043 -0.10452
0.00403422 -0.112615
-0.0343814 -0.252546
-0.0247436 -0.224585
-0.0386455 -0.347096
-0.0403411 -0.340226
0.000909898 -0.371437
0.00207145 -0.372269
0.0414694 -0.336219
0.0381493 -0.346333
0.0273404 -0.364659
0.0391178 -0.348186
0.00132612 -0.313028
-0.00521399 -0.324963
0.0101995 -0.0129247
0.0191541 -0.0298878
0.00990436 -0.0981418
0.0121713 -0.108749
-0.00447317 -0.0136895
-0.00998984 -0.0251147
-0.0317647 -0.36066
-0.0343553 -0.356877
0.0041833 -0.162846
0.0140085 -0.186457
-0.0586539 -0.312947
-0.0542397 -0.339417
0.0019838 -0.152385
0.00694235 -0.179073
0.000406651 -0.365904
-0.00487714 -0.365929
-0.00195208 -0.152314
-0.00327201 -0.153704
-0.0282125 -0.356441
-0.022841 -0.360477
0.00282429 -0.323603
-0.00574896 -0.331167
-0.0232723 -0.0681225
-0.0182009 -0.0662572
-0.0260143 -0.349978
-0.0201206 -0.35434
0.0340331 -0.305615
0.03522 -0.316915
0.0281371 -0.0754419
0.0256341 -0.0904528
-6.14286e-05 -0.358408
0.000903314 -0.358239
0.019952 -0.174386
0.0270615 -0.207167
-0.00917492 -0.0543228
-0.00448558 -0.054231
0.0237597 -0.359865
0.0205819 -0.359526
-0.0289985 -0.0282997
-0.0160904 -0.0137464
0.0148987 -0.189487
0.0172889 -0.204003
-0.0253079 -0.36771
-0.037137 -0.351652
-0.0299829 -0.239192
-0.0255221 -0.20759
-0.0166932 -0.374998
-0.013967 -0.374353
-0.0335329 -0.342334
-0.0373421 -0.333078
-0.000131589 -0.358961
0.000319968 -0.358759
-0.0134409 -0.369916
-0.0136188 -0.37251
0.0223066 -0.184177
0.0282847 -0.214421
-0.023829 -0.357943
-0.0238408 -0.360665
-0.0224054 -0.223948
-0.0140262 -0.20175
-0.0388765 -0.268828
-0.0395839 -0.281135
-0.00953913 -0.351527
-0.0140444 -0.344301
0.00852811 -0.327727
0.0184453 -0.332086
-0.00118949 -0.37524
-0.00123569 -0.372213
-0.0014889 -0.358086
-0.00258276 -0.357978
0.0416346 -0.343251
0.0441578 -0.334541
0.016419 -0.352904
0.0211036 -0.347938
-0.0386001 -0.290456
-0.0390818 -0.275869
0.0324007 -0.212669
0.00559506 -0.211946
0.0331089 -0.308809
0.032804 -0.321908
0.0058121 -0.352795
0.00663021 -0.345977
-0.0314341 -0.345843
-0.026062 -0.351212
-0.0191632 -0.364259
-0.0217387 -0.360906
0.019897 -0.358415
0.0245252 -0.357465
-0.0314845 -0.356913
-0.029948 -0.355879
0.0171548 -0.364177
0.0169601 -0.366345
-0.0455229 -0.328698
-0.0424088 -0.340857
-0.000853098 -0.368374
-0.00177595 -0.369355
-0.0102283 -0.338245
-0.00369822 -0.344146
-0.0222911 -0.217828
-0.0120638 -0.192
0.0383509 -0.295902
0.0489366 -0.274652
-0.0416685 -0.34287
-0.0456166 -0.331976
-0.0330916 -0.355135
-0.0280088 -0.361621
-0.00197934 -0.388926
-0.00965193 -0.383648
-0.0334577 -0.335357
-0.0342585 -0.326443
-0.0115836 -0.150782
-0.00905689 -0.156809
0.0393996 -0.304228
0.0377194 -0.289872
0.0402523 -0.272661
0.0430209 -0.292561
-0.0104539 -0.360127
-0.0167026 -0.358019
-0.0469574 -0.283708
-0.0361574 -0.258813
-0.0220998 -0.323256
-0.0161114 -0.336638
0.0199377 -0.356548
0.0181915 -0.355253
0.0378912 -0.350061
0.0367693 -0.352022
0.00332233 -0.120292
0.0122164 -0.10392
-0.0389219 -0.263754
-0.0389447 -0.289581
-0.0122151 -0.372883
-0.0123402 -0.370216
0.0172986 -0.338219
0.0231727 -0.330561
-0.0445758 -0.329119
-0.0430096 -0.327356
-0.0250463 -0.356058
-0.0243684 -0.353578
-0.030063 -0.066438
-0.0297846 -0.0770877
0.00572278 -0.295648
-0.00332841 -0.279153
-0.0193021 -0.353633
-0.0250608 -0.348501
-0.029092 -0.349938
-0.0234557 -0.354608
-0.00888066 -0.017105
-0.00997678 -0.0330427
-0.00131161 -0.219435
0.00474284 -0.258556
0.00562648 -0.26332
0.0124264 -0.232803
0.00354018 -0.0542175
-0.00446519 -0.0944017
-0.00870296 -0.366124
-0.00415756 -0.36711
0.0319788 -0.280557
0.0305376 -0.301297
-0.00856412 -0.127171
0.00235225 -0.0958699
0.0687216 -0.32145
0.0512288 -0.286942
-0.00229526 -0.356189
-0.000671743 -0.358627
-0.0292363 -0.0298811
-0.0251455 -0.0303246
-0.0220229 -0.0727812
-0.017381 -0.0969411
-0.0196104 -0.0933766
-0.0198353 -0.104986
0.0175768 -0.251365
0.0202351 -0.217659
-0.0109727 -0.349026
-0.00568847 -0.354712
-0.00562363 -0.095451
-0.0101527 -0.150076
-0.0138829 -0.357668
-0.01928 -0.356376
0.037844 -0.260905
0.0379624 -0.268622
0.0620825 -0.30842
0.0495232 -0.286629
0.00395238 -0.169736
0.0150515 -0.199767
0.0310612 -0.35983
0.0263035 -0.364372
-0.0110155 -0.189509
-0.00344059 -0.16318
-0.00526347 -0.369586
-0.00875508 -0.368686
-0.00660505 -0.370216
-0.00429095 -0.369689
-0.0181309 -0.376285
-0.0110369 -0.382328
0.00439292 -0.0678637
-0.00392098 -0.104742
-0.0387754 -0.339633
-0.0422628 -0.329233
0.0481495 -0.311176
0.0495537 -0.30577
-0.043664 -0.340183
-0.0450792 -0.33437
-0.0174433 -0.336522
-0.0229187 -0.341659
0.00418347 -0.0843015
-0.00419855 -0.0311147
0.0392889 -0.336526
0.035473 -0.345757
-0.0164195 -0.333721
-0.00985288 -0.324938
-0.00478128 -0.274417
-0.00947163 -0.295171
-0.0113512 -0.0130431
-0.000809947 -0.000926588
-0.0201075 -0.361952
-0.0168801 -0.361498
0.0374949 -0.350932
0.0304024 -0.361991
-0.0452616 -0.29116
-0.041701 -0.277374
-0.0146763 -0.12166
-0.00552287 -0.146562
0.0360489 -0.260774
0.0336231 -0.262091
0.0287143 -0.362793
0.032418 -0.356601
0.0392774 -0.34788
0.0441171 -0.33987
-0.0309165 -0.362008
-0.0360656 -0.353746
-0.00745596 -0.020734
-0.00180043 -0.00584616
-0.00362835 -0.357978
-0.00182405 -0.358572
0.0131214 -0.298484
0.00518215 -0.286817
0.0132413 -0.383232
0.0178046 -0.377702
-0.0120491 -0.347243
-0.0132624 -0.3388
-0.036667 -0.353306
-0.0469428 -0.337011
0.00250096 -0.37239
0.00677948 -0.373667
0.00752236 -0.14646
0.0170399 -0.170525
0.028634 -0.0522796
0.0282565 -0.0377014
-0.0475997 -0.334442
-0.0511053 -0.31862
0.0216275 -0.334036
0.0248578 -0.335282
0.027623 -0.250844
0.0312857 -0.272625
-0.00272169 -0.368162
-0.00649345 -0.368337
-0.0438277 -0.274945
-0.0332214 -0.2518
0.00530148 -0.076818
0.00992454 -0.130745
-0.00104412 -0.357713
-0.00515399 -0.355829
0.0259291 -0.224018
0.0331431 -0.243567
-0.0369342 -0.0459425
-0.0326085 -0.0432285
0.000523758 -0.0678886
-0.00105711 -0.0810136
-0.00847347 -0.376524
-0.00537644 -0.382273
0.0355963 -0.324172
0.0310547 -0.3301
0.00627052 -0.00588864
0.0179244 -0.0204922
0.000580335 -0.369213
0.00124309 -0.368166
-0.0105281 -0.343093
-0.00642603 -0.350627
0.0166146 -0.319146
0.0219401 -0.305453
-0.00558462 -0.370556
-0.00254329 -0.371299
-0.0355153 -0.060934
-0.0378205 -0.0499076
0.00672837 -0.0598572
0.0070332 -0.0300264
0.00163841 -0.377986
0.0039447 -0.38149
-0.0211757 -0.370343
-0.0199375 -0.373655
0.0406797 -0.345503
0.0384011 -0.350025
-0.0227061 -0.370806
-0.0254015 -0.368926
0.0589927 -0.308626
0.0445556 -0.268894
-0.00636387 -0.371745
-0.00673234 -0.374713
0.0127771 -0.156879
0.0177503 -0.172491
-0.0289452 -0.235672
-0.0366846 -0.257158
0.0225634 -0.371427
0.0146558 -0.380061
0.0325404 -0.236796
0.0250978 -0.209618
-0.0352153 -0.0432559
-0.0306803 -0.0406708
0.00499434 -0.361766
1.70609e-05 -0.361235
-0.018663 -0.214196
-0.0291061 -0.241531
0.0192643 -0.306952
0.0242048 -0.290055
0.00646483 -0.358589
0.0103641 -0.356621
-0.0398279 -0.325314
-0.0364104 -0.328555
-0.0202338 -0.358418
-0.0160983 -0.362106
0.0324842 -0.357009
0.0279679 -0.361168
-0.0143087 -0.365842
-0.0131207 -0.364416
-0.0102419 -0.198827
-0.0293264 -0.237637
0.0292116 -0.228741
0.0241053 -0.227224
-0.0288 -0.357646
-0.0238211 -0.362441
0.0272839 -0.24918
0.027944 -0.223731
0.00322483 -0.370243
0.00420298 -0.370893
0.032134 -0.283422
0.0344874 -0.298431
-0.00797929 -0.0156497
-0.0021049 -0.00517818
-0.0298068 -0.222767
-0.0342427 -0.250788
-0.0168838 -0.0558708
-0.0138274 -0.0813467
-0.00486151 -0.309689
0.00546745 -0.316792
-0.00937246 -0.355468
-0.00377796 -0.357764
0.0152042 -0.273937
0.0144187 -0.245062
0.0145094 -0.164435
0.0105481 -0.129846
-0.00184007 -0.357759
0.000954205 -0.358285
0.0293092 -0.292855
0.0230145 -0.286968
-0.0225911 -0.0199715
-0.0207299 -0.0206841
-0.00869791 -0.37618
-0.00936453 -0.372524
0.0193414 -0.352318
0.0254499 -0.347274
0.00420476 -0.361843
-0.00114544 -0.36341
-0.0180227 -0.36438
-0.0129735 -0.365396
0.000371277 -0.370528
-0.0010119 -0.370294
0.00763509 -0.209478
0.0193244 -0.206396
0.0130264 -0.364762
0.017358 -0.362116
-0.00769714 -0.360138
-0.00254165 -0.361574
-0.0154711 -0.369415
-0.0126947 -0.372709
0.00813544 -0.357213
0.0112412 -0.355246
-0.00377271 -0.042713
-0.00166253 -0.0072353
0.00238819 -0.368925
0.00152864 -0.368011
0.00367975 -0.36781
0.00777067 -0.367297
-0.0278948 -0.23088
-0.0218915 -0.22679
-0.00602009 -0.3571
-0.00171127 -0.358103
0.0130691 -0.383423
0.0160652 -0.379581
-0.00534936 -0.358429
-0.00165835 -0.359549
0.0460733 -0.328884
0.0429655 -0.337085
-0.0313111 -0.046288
-0.0343398 -0.0409856
0.038223 -0.349542
0.0311822 -0.359269
0.0374075 -0.305415
0.03533 -0.320515
0.0389308 -0.294715
0.038581 -0.27571
-0.0273915 -0.222513
-0.0307952 -0.237732
0.0189894 -0.35971
0.018979 -0.357177
0.0083642 -0.353075
0.00471237 -0.354383
0.0146024 -0.352704
0.00944458 -0.355373
-0.0205081 -0.312346
-0.00498583 -0.311786
0.023728 -0.02859
0.0313882 -0.041147
0.0206879 -0.349045
0.0248775 -0.347182
-0.0204132 -0.354288
-0.0153965 -0.355723
-0.0313518 -0.345988
-0.035679 -0.341814
-0.0182415 -0.111481
-0.0116729 -0.128928
-0.0419083 -0.339295
-0.0392075 -0.342653
0.00863624 -0.365061
0.00906886 -0.362983
0.0113508 -0.0228708
0.0173952 -0.0347828
0.0249693 -0.368648
0.0143348 -0.381921
-0.0120382 -0.378936
-0.015116 -0.373838
-0.022722 -0.185751
-0.024194 -0.202417
4.94671e-05 -0.370666
0.000651418 -0.37081
-0.00198313 -0.134982
-0.00447694 -0.113653
-0.0364212 -0.256364
-0.0405458 -0.274503
-0.00451492 -0.372362
-0.00216226 -0.375857
0.00390255 -0.103447
0.012537 -0.0839735
-0.00993993 -0.0110225
-0.0113246 -0.0104308
-0.0251266 -0.220788
-0.0155789 -0.191929
-0.00097498 -0.001758
-0.000618889 -0.000733953
0.0557812 -0.325459
0.0532648 -0.320473
-0.00570391 -0.124573
0.00367937 -0.154966
0.0370528 -0.292573
0.0283787 -0.309553
-0.0442951 -0.306638
-0.0443009 -0.320607
-0.00486736 -0.363034
-0.000145255 -0.361653
0.0431909 -0.332044
0.0451434 -0.319206
-0.0459868 -0.296599
-0.0423053 -0.279323
0.00435106 -0.149755
0.00807495 -0.140914
-0.00494782 -0.349899
-0.00446615 -0.355389
0.0145481 -0.379381
0.00856763 -0.383276
0.00103237 -0.367371
-4.81077e-05 -0.366071
0.0363477 -0.34649
0.0315046 -0.352892
-0.00349951 -0.357914
-0.000509798 -0.358272
0.00496436 -0.357295
0.00757639 -0.356222
-0.0119393 -0.366388
-0.00720657 -0.367494
0.0450975 -0.323247
0.0432344 -0.335495
0.0328746 -0.356055
0.0277162 -0.363029
0.0212984 -0.103154
0.0213567 -0.102036
-0.0261679 -0.0382042
-0.0302796 -0.0525894
0.0324103 -0.358462
0.036252 -0.351314
-0.0291168 -0.359974
-0.024105 -0.365389
0.0280066 -0.24371
0.0481691 -0.213245
-0.0445672 -0.309683
-0.0430293 -0.295628
-0.00686191 -0.133149
0.00406577 -0.161789
-0.00224702 -0.357556
0.000737519 -0.358268
-0.00658874 -0.06894
0.0005417 -0.100904
-0.0142598 -0.114852
-0.0182445 -0.0925586
0.0347072 -0.353609
0.0298633 -0.361174
-0.0210272 -0.36107
-0.0182761 -0.364352
-0.0405821 -0.270953
-0.0464898 -0.289842
0.0181802 -0.0929017
0.026937 -0.0798604
-0.0104298 -0.159809
-0.000399918 -0.1358
0.0343275 -0.354784
0.0391457 -0.345852
0.0325863 -0.0492913
0.0315043 -0.0655955
0.0151817 -0.118221
0.0225628 -0.0943098
0.0284765 -0.364754
0.0367842 -0.352717
0.0321437 -0.233321
0.0482086 -0.280651
0.0349994 -0.249076
0.0314656 -0.23321
0.038464 -0.320567
0.0344872 -0.330988
-0.0433029 -0.286379
-0.0434844 -0.298548
-0.000313988 -0.360224
0.000849767 -0.361705
0.0294198 -0.229983
0.0338629 -0.247401
0.0281676 -0.0453866
0.0282307 -0.0636724
0.000676239 -0.370747
0.00154535 -0.370289
-0.0160038 -0.368234
-0.0210191 -0.366164
-0.0278236 -0.284104
-0.0210605 -0.299692
-0.0267828 -0.211781
-0.0303805 -0.243409
-0.0109898 -0.370753
-0.00908559 -0.373589
-0.00333326 -0.137148
0.00349128 -0.105737
-0.0161436 -0.0840759
-0.020102 -0.0594688
0.00404694 -0.369262
0.00741279 -0.36862
-0.0054119 -0.102674
-0.0102134 -0.149859
-0.0405784 -0.346616
-0.048219 -0.330698
-0.00102017 -0.35961
0.0056597 -0.358717
0.00486818 -0.157429
0.0127238 -0.172339
-0.0158341 -0.145881
-0.0254788 -0.206263
0.00852644 -0.120722
0.0102256 -0.133648
0.0291553 -0.347081
0.0339987 -0.342905
0.0178952 -0.365998
0.0215493 -0.365691
0.0392995 -0.265043
0.0307454 -0.239325
-0.00354076 -0.352106
-0.00321547 -0.356776
0.0251031 -0.368034
0.0248338 -0.366483
-0.0079213 -0.369638
-0.011335 -0.370186
-0.014128 -0.342116
-0.0168463 -0.331312
0.00688393 -0.0197891
0.00622678 -0.0333928
-0.00942426 -0.365926
-0.00514881 -0.367161
0.0237007 -0.370774
0.0239503 -0.369588
-0.0160015 -0.362453
-0.0165237 -0.359843
-0.0376456 -0.260627
-0.0427422 -0.282287
0.0240652 -0.363419
0.0207902 -0.367794
-0.0397709 -0.345197
-0.0363207 -0.350651
0.00264009 -0.36343
-0.000672215 -0.36201
-0.0324352 -0.325945
-0.0357697 -0.326013
0.0304865 -0.351801
0.0254303 -0.355141
0.00273605 -0.357212
0.00357105 -0.355139
0.0437512 -0.277593
0.0332538 -0.250396
0.0287893 -0.364239
0.0279661 -0.365526
-0.0307957 -0.358804
-0.0311061 -0.355862
0.00810757 -0.126562
-0.00108114 -0.156284
-0.0275799 -0.36504
-0.0248749 -0.369294
-0.0384056 -0.0466251
-0.0362651 -0.0576109
0.0120849 -0.138194
0.00490591 -0.105105
0.0442856 -0.305836
0.0443602 -0.293055
-0.00084099 -0.358513
-0.00306057 -0.356047
0.00641598 -0.33363
0.0052784 -0.321552
-0.00230804 -0.149784
-0.012125 -0.120703
0.023722 -0.365704
0.0216006 -0.369882
-0.0177977 -0.167474
-0.0100998 -0.128944
0.00925606 -0.372594
0.0141845 -0.370791
0.00291087 -0.356277
0.000372068 -0.358701
0.0241702 -0.356273
0.0286183 -0.354666
0.0305401 -0.349565
0.0301119 -0.353734
0.0327071 -0.34381
0.0371619 -0.338547
-0.00509203 -0.264331
-0.00130742 -0.289437
-0.0417759 -0.341456
-0.0453363 -0.331918
0.0266825 -0.205773
0.0277127 -0.228092
0.0108275 -0.379992
0.0133227 -0.374947
0.0427896 -0.287983
0.0440706 -0.287266
-0.0142143 -0.014907
-0.00148395 -0.00145792
0.027022 -0.0350896
0.0322644 -0.0364714
-0.00847513 -0.356351
-0.00391317 -0.35768
-0.00194874 -0.370516
-0.000388022 -0.370853
0.025324 -0.0306104
0.0163927 -0.0193638
0.040637 -0.302889
0.0410903 -0.287091
0.0121471 -0.345758
0.00521338 -0.344623
0.0320664 -0.0669384
0.0295546 -0.0611892
0.000598465 -0.35066
-0.00048817 -0.356191
0.000970261 -0.369191
0.0024864 -0.369633
0.0198167 -0.354539
0.0137788 -0.356792
0.0422162 -0.279656
0.03886 -0.2641
-0.0360897 -0.352973
-0.0401886 -0.343424
0.0108789 -0.162383
0.0201586 -0.190843
0.0405449 -0.21583
0.0366757 -0.248273
-0.0302095 -0.343336
-0.0270901 -0.343618
-0.0408809 -0.271974
-0.0436846 -0.282025
0.048947 -0.316111
0.0500506 -0.32007
0.0544793 -0.298382
0.0570071 -0.325331
-0.0110844 -0.11585
-0.00267913 -0.144538
-0.0391943 -0.320907
-0.0382049 -0.310918
-0.0361234 -0.255481
-0.0322455 -0.247426
0.0208828 -0.218577
0.0259523 -0.232729
0.0208216 -0.18588
0.0113513 -0.158696
0.00362898 -0.36999
0.00527979 -0.370455
-0.0200572 -0.367201
-0.0207363 -0.364531
-0.00162843 -0.373308
-0.00363146 -0.377098
0.0174995 -0.365861
0.0134936 -0.366041
-0.0143096 -0.360738
-0.00878851 -0.361095
-0.0187348 -0.374326
-0.0171203 -0.373294
-0.003716 -0.243279
-0.0116872 -0.197656
0.00450642 -0.0444651
0.00194698 -0.0108084
-0.00247206 -0.338534
-0.00589533 -0.345407
0.0371977 -0.309364
0.0401 -0.312532
0.0142898 -0.361386
0.0126634 -0.363955
0.0331339 -0.065507
0.0371774 -0.0561695
-0.0377471 -0.264305
-0.0368655 -0.269934
-0.0468049 -0.33117
-0.0413544 -0.345177
-0.000502234 -0.371578
-0.00251259 -0.371144
-0.0203937 -0.335142
-0.021474 -0.32253
-0.0405807 -0.286342
-0.038863 -0.268856
0.0058832 -0.370633
0.00397013 -0.37004
0.0113899 -0.0228972
0.0148749 -0.0460862
0.0336992 -0.248281
0.0257384 -0.223137
0.0312585 -0.359191
0.0435497 -0.342827
0.0278882 -0.365609
0.0209552 -0.374095
-0.00103109 -0.328834
0.00498739 -0.338112
0.0250354 -0.354733
0.022642 -0.358933
0.00183071 -0.319413
0.000770834 -0.333094
-0.001859 -0.334265
0.00762154 -0.3292
-0.0303359 -0.361546
-0.0290755 -0.364011
0.00841923 -0.357056
0.00568166 -0.357249
-0.00789841 -0.14924
-0.0169227 -0.173337
0.00756831 -0.151957
0.0146993 -0.180948
0.0027589 -0.368406
0.00425217 -0.369022
-0.0345349 -0.321971
-0.0303889 -0.324125
0.0105368 -0.367864
0.00936153 -0.369482
-0.0101714 -0.354713
-0.00863805 -0.356376
0.0489033 -0.317174
0.0470476 -0.319208
0.0282927 -0.216543
0.020347 -0.190067
0.0277984 -0.0507797
0.0246734 -0.0708321
0.0368634 -0.348606
0.0367244 -0.345048
-0.0409071 -0.335647
-0.0393697 -0.343702
0.0153107 -0.0123552
0.0241571 -0.0246974
-0.0317937 -0.299189
-0.0333826 -0.277846
-0.0412384 -0.272831
-0.034904 -0.250947
0.0255391 -0.32958
0.0284008 -0.316113
-0.018805 -0.273533
-0.00954412 -0.264799
0.0371406 -0.314618
0.0332301 -0.316527
0.0357287 -0.349074
0.0346923 -0.346794
-0.0283061 -0.235972
-0.0329867 -0.221159
-0.0295328 -0.242462
-0.0247282 -0.229751
0.0154187 -0.330237
0.0202947 -0.317088
-0.0188391 -0.372337
-0.0196934 -0.369099
-0.0230935 -0.322026
-0.0175285 -0.308654
-0.0197558 -0.376121
-0.0090019 -0.388664
0.0237694 -0.28595
0.00489802 -0.288565
-0.0344859 -0.262039
-0.0315435 -0.271066
-0.0297373 -0.355534
-0.0337742 -0.352494
-0.0119046 -0.333433
-0.00226522 -0.330476
0.00917151 -0.355612
0.00485578 -0.357188
0.0193979 -0.367316
0.016551 -0.371313
0.0233085 -0.053176
0.0205498 -0.0336668
0.00736197 -0.132681
0.00444482 -0.150454
-0.0145274 -0.352816
-0.013678 -0.351674
0.0339761 -0.244347
0.035447 -0.251978
0.0328551 -0.302069
0.0325268 -0.317017
-0.0265049 -0.367924
-0.0341762 -0.357135
-0.014941 -0.370758
-0.0120406 -0.37467
0.0410387 -0.344215
0.0401249 -0.344053
0.0363562 -0.265741
0.0326257 -0.240202
-0.0157082 -0.332545
-0.0104927 -0.321877
0.0504018 -0.300687
0.0434123 -0.277763
0.0154217 -0.193733
0.0270243 -0.147365
-0.0106605 -0.386765
-0.0125109 -0.384182
-0.00584925 -0.370783
-0.00438253 -0.369982
0.0219702 -0.225132
0.0259552 -0.252282
0.0171368 -0.170452
0.0199891 -0.172809
-0.0118886 -0.385414
-0.00864451 -0.388733
0.0255716 -0.367693
0.019996 -0.372736
0.00594974 -0.359377
0.00383399 -0.361243
-0.0106128 -0.129389
-0.00190635 -0.0960718
-0.0229535 -0.187956
-0.0266547 -0.204471
-0.0357119 -0.353361
-0.0386281 -0.345877
-0.0291377 -0.226746
-0.0271887 -0.225032
-0.052335 -0.329898
-0.0373228 -0.354379
-0.0292812 -0.359308
-0.0311578 -0.354644
0.0195325 -0.287861
0.0223257 -0.262053
0.00662451 -0.387749
0.00462339 -0.386832
0.050619 -0.308435
0.0488742 -0.311418
0.0127182 -0.358191
0.00696175 -0.35901
0.0441741 -0.339959
0.0489384 -0.327028
-0.0152449 -0.300009
-0.00591558 -0.298257
0.021586 -0.326148
0.0319891 -0.310437
0.00307885 -0.0184712
0.000220331 -0.0663571
0.00170308 -0.3722
0.00142084 -0.377107
-0.022892 -0.352615
-0.0242229 -0.354373
0.0257854 -0.232356
0.0370051 -0.260531
-0.030025 -0.0763879
-0.0288841 -0.079242
-0.022269 -0.222364
-0.0215196 -0.215508
-0.00342824 -0.00387481
-0.00113333 -0.00104328
-0.0384022 -0.26537
-0.0412241 -0.284652
-0.00233644 -0.358214
-0.00026664 -0.359329
-0.00250329 -0.349262
-0.0029556 -0.354992
-0.0143645 -0.331585
-0.00560459 -0.324634
-0.0348355 -0.0460241
-0.0373855 -0.041348
0.014368 -0.10469
0.0113197 -0.125082
0.0138564 -0.33592
0.0144326 -0.32371
-0.00168832 -0.345584
0.00217725 -0.351484
0.043607 -0.277326
0.0395524 -0.265048
0.00140836 -0.357747
0.00193986 -0.353896
0.0223761 -0.0513699
0.0275728 -0.0506625
0.0220951 -0.0284516
0.0138514 -0.0179067
0.00260418 -0.00227202
0.0134544 -0.0112816
0.0529431 -0.301175
0.0505141 -0.300484
-0.0118557 -0.325388
-0.017361 -0.329978
0.00175154 -0.0968329
-0.00647159 -0.0581944
-0.00421236 -0.390188
-0.00824357 -0.38402
-0.010596 -0.12732
-0.00155493 -0.0922293
0.0194866 -0.108912
0.0164608 -0.113542
-0.00680943 -0.339111
0.000298245 -0.340028
0.0494016 -0.307709
0.0483319 -0.319239
0.0120624 -0.38457
0.0210404 -0.374125
0.0239347 -0.193345
0.0302369 -0.224899
-0.0211094 -0.0919887
-0.0196523 -0.0791556
0.00575663 -0.383524
0.0125511 -0.376954
-0.0304989 -0.360555
-0.0300029 -0.362633
0.0249651 -0.208445
0.0209704 -0.218243
-0.0334244 -0.252311
-0.029314 -0.24025
0.00942888 -0.0161894
0.016065 -0.0274732
-0.00122331 -0.368744
-0.00388323 -0.369249
-0.00221536 -0.115778
-0.00868815 -0.119385
-0.0274491 -0.31395
-0.0326637 -0.31149
-0.000356658 -0.348238
-0.00613822 -0.347135
0.00179576 -0.356579
0.00533398 -0.352506
0.00952834 -0.367081
0.00979993 -0.368366
0.0235875 -0.0801615
0.028813 -0.0606867
0.0313614 -0.231913
0.0371018 -0.257542
0.0213857 -0.182244
0.0159748 -0.163168
-0.0210001 -0.364051
-0.0182151 -0.367239
-0.0114494 -0.351059
-0.0133075 -0.344484
-0.0430159 -0.279559
-0.036676 -0.257217
-0.0270275 -0.366041
-0.0326027 -0.358212
0.0107444 -0.222358
-0.00274193 -0.249535
-0.0152898 -0.342848
-0.0187617 -0.343627
-0.00691112 -0.346245
-0.0123882 -0.339301
-0.00458244 -0.357688
-0.0106635 -0.355705
-0.000923732 -0.367405
0.00346014 -0.367134
0.00666983 -0.357342
0.00957433 -0.357354
0.0376889 -0.259941
0.0427781 -0.279072
0.00410946 -0.0278423
-0.00234385 -0.0524804
0.02471 -0.0278613
0.0317594 -0.0416192
0.00242587 -0.368585
0.00352557 -0.369269
0.0355355 -0.255326
0.0376352 -0.260648
-0.0053222 -0.176496
-0.0169782 -0.20798
-0.00696931 -0.350185
-0.003393 -0.35555
-0.00877955 -0.359833
-0.0142396 -0.359347
-0.0144863 -0.142565
-0.00481286 -0.105058
-0.00540474 -0.132281
0.00442211 -0.152592
-0.000919289 -0.371022
-0.00239675 -0.370383
0.00088077 -0.358032
-9.28713e-05 -0.358763
-0.00555704 -0.368703
-0.00200896 -0.369012
0.00165392 -0.153747
0.00734331 -0.139307
0.0347102 -0.237955
0.0313191 -0.192814
0.000500656 -0.370619
0.00141029 -0.370521
0.0152453 -0.350896
0.0100906 -0.355187
0.0098219 -0.385613
0.0180881 -0.377275
-0.06357 -0.317542
-0.0503856 -0.288599
-0.0200625 -0.218422
-0.00904326 -0.188167
0.0035422 -0.00727625
0.00715464 -0.00993784
-0.0341622 -0.356046
-0.0485495 -0.337062
0.0443382 -0.337187
0.0459293 -0.330149
0.00526896 -0.368906
0.00264143 -0.369702
0.0396171 -0.347327
0.0417915 -0.343264
-0.0297165 -0.0741009
-0.0340427 -0.0575928
0.0281461 -0.311056
0.0221507 -0.318401
0.00289907 -0.388938
0.00968403 -0.381203
0.0340318 -0.25062
0.0404878 -0.268943
0.00819636 -0.180681
0.0065722 -0.181087
-8.31734e-05 -0.35933
-0.000512322 -0.35827
0.00632753 -0.361424
0.0123301 -0.359402
0.027282 -0.339906
0.0215777 -0.346362
0.0062341 -0.350157
0.011057 -0.342835
-0.0316619 -0.360347
-0.0385972 -0.349717
0.00747258 -0.336057
0.0143606 -0.332997
-0.0190345 -0.37702
-0.0274844 -0.366673
-0.0155282 -0.334632
-0.0156205 -0.342989
0.0341653 -0.0660031
0.0310142 -0.0685571
0.0165419 -0.354612
0.0228011 -0.350622
-0.00418078 -0.369685
-0.0071427 -0.369949
-0.0278418 -0.238182
-0.0351456 -0.256084
-0.0367606 -0.048983
-0.0326095 -0.045777
0.00614712 -0.0606461
0.0111586 -0.0536614
0.0275923 -0.32505
0.0252413 -0.335596
0.00464885 -0.351423
0.00983191 -0.345114
0.0467721 -0.292768
0.0490965 -0.310982
0.0182749 -0.355169
0.0123687 -0.357051
0.0133943 -0.196357
0.0209447 -0.219293
0.0100862 -0.126245
0.00718775 -0.113736
0.0230499 -0.223653
0.010631 -0.189185
0.000441872 -0.368857
0.00237738 -0.367782
0.0150674 -0.187223
0.0282572 -0.202506
0.0101588 -0.377901
0.00628582 -0.384054
0.00386543 -0.170876
-0.00688927 -0.142588
0.0190195 -0.213065
0.0110599 -0.193594
-0.0101768 -0.181307
-0.00510147 -0.158142
0.0290637 -0.0738049
0.0290856 -0.0812149
-0.0326106 -0.359331
-0.0235524 -0.371
-0.0164867 -0.0164694
-0.0213614 -0.0189929
0.037985 -0.261647
0.0289144 -0.230644
-0.0201452 -0.0366631
-0.02543 -0.0497472
0.0140764 -0.0895329
0.0151247 -0.0676347
-0.00216118 -0.358021
0.000196886 -0.358136
0.00723117 -0.0984
-0.0228313 -0.109019
0.0182526 -0.377363
0.0169633 -0.378442
-0.0341382 -0.0575803
-0.0374441 -0.0538036
-0.0466421 -0.318547
-0.0445652 -0.331791
-0.00356415 -0.357755
0.00121351 -0.358012
0.0262451 -0.0323917
0.033037 -0.0393827
0.00510772 -0.00562167
0.008075 -0.0108995
-0.0123395 -0.359121
-0.0178648 -0.358055
-0.0126809 -0.0113394
-0.0251544 -0.024266
0.0128986 -0.383535
0.0156902 -0.379744
0.0430311 -0.34038
0.03721 -0.352089
-0.0237229 -0.366495
-0.0242156 -0.363705
0.00715842 -0.367286
0.00741745 -0.36578
-0.0139604 -0.368422
-0.00982879 -0.370068
0.0175217 -0.3497
0.0186604 -0.345507
0.00322377 -0.357668
0.00484908 -0.35708
0.0221912 -0.0305601
0.0249672 -0.0463242
-0.00345646 -0.0816181
-0.00982196 -0.0503984
0.0392782 -0.342803
0.0384417 -0.339587
0.000627369 -0.370124
0.00022361 -0.370721
-0.00323824 -0.358012
0.00134323 -0.358278
-0.00151474 -0.308034
0.0095734 -0.30404
0.0246283 -0.0549451
0.0230582 -0.0764574
-0.00249386 -0.370787
-0.00334257 -0.369949
0.0151656 -0.194668
0.0193786 -0.199129
-0.0118814 -0.0691634
-0.0129467 -0.0433564
0.0401504 -0.346571
0.0407004 -0.345476
-0.0266603 -0.359461
-0.0214857 -0.363322
0.00188141 -0.168129
0.0132595 -0.199146
0.0219879 -0.0982431
0.040312 -0.169923
-0.0254764 -0.350562
-0.0202143 -0.3533
-0.0434831 -0.324569
-0.0404411 -0.333241
0.00993796 -0.356299
0.00769678 -0.356444
-0.00795695 -0.124229
-0.00536959 -0.181185
0.0042624 -0.357374
-0.000334172 -0.358176
0.0131456 -0.11622
0.0210168 -0.091131
0.0536707 -0.241809
0.0351442 -0.195418
-0.00306504 -0.37099
-0.0064968 -0.370482
0.0153202 -0.278006
0.0229553 -0.297342
0.0319126 -0.234986
0.0327676 -0.238612
-0.0195285 -0.375319
-0.0248904 -0.368318
-0.00100526 -0.357623
0.000797924 -0.358518
0.0142085 -0.297661
0.0199768 -0.314399
-0.0052555 -0.356792
-0.00274945 -0.357479
-0.00643731 -0.13812
-0.00808922 -0.139693
-0.00495942 -0.348595
0.000452241 -0.350353
-0.0156941 -0.352819
-0.0216838 -0.347993
-0.0271761 -0.343589
-0.0214486 -0.349392
0.0443587 -0.322427
0.0454943 -0.308306
0.000914503 -0.339742
0.00422123 -0.327325
-0.00604039 -0.0275233
-0.0020653 -0.0340927
0.01891 -0.353758
0.0249096 -0.350014
-0.0161973 -0.114096
-0.00637819 -0.13959
0.0153984 -0.162297
0.0184291 -0.164394
-0.0206157 -0.372218
-0.0158069 -0.374843
0.00630967 -0.368606
0.0037306 -0.369575
-0.037313 -0.281261
-0.0355712 -0.259199
0.017308 -0.0382977
0.0224696 -0.0483951
8.82469e-05 -0.358003
0.00475698 -0.357607
-0.0112279 -0.367152
-0.00898297 -0.368764
-0.0427244 -0.276943
-0.0491473 -0.299092
-0.00686396 -0.333899
-0.00208478 -0.343202
-0.00437892 -0.370106
-0.00803308 -0.369755
-0.00467789 -0.3701
-0.00841296 -0.369628
0.0321369 -0.236524
0.0268983 -0.206047
0.0448604 -0.277622
0.0572149 -0.302538
-0.0068101 -0.356659
-0.00309454 -0.357911
0.0131632 -0.37881
0.010841 -0.377702
0.0118449 -0.145886
0.0202447 -0.178938
-0.0140816 -0.371061
-0.0182954 -0.370622
0.0390978 -0.335622
0.0411671 -0.33582
0.0400775 -0.307301
0.0404744 -0.319875
-0.0449992 -0.321407
-0.0433957 -0.333853
0.0200761 -0.329332
0.0165047 -0.340412
0.00116284 -0.370676
0.00242591 -0.370326
-0.0273885 -0.259956
-0.03261 -0.269862
0.0384455 -0.0491401
0.0350071 -0.0469881
0.0269965 -0.079685
0.0232436 -0.0967749
-0.00974872 -0.341936
-0.0155851 -0.339801
-0.0119985 -0.354128
-0.0163914 -0.352154
-0.00452136 -0.369217
-0.00795526 -0.3693
-0.0225677 -0.0254035
-0.0193362 -0.0260201
-0.01286 -0.193159
-0.00742234 -0.183614
0.0515165 -0.315232
0.0477088 -0.332574
-0.026501 -0.362597
-0.0274708 -0.359189
-0.0382824 -0.326693
-0.0413201 -0.316408
-0.026579 -0.34885
-0.0315602 -0.341526
-0.0152946 -0.353515
-0.0185739 -0.34921
0.0336077 -0.356648
0.031408 -0.359022
-0.0139232 -0.36277
-0.0197198 -0.360443
0.0314804 -0.281646
0.0207559 -0.255429
-0.00870783 -0.0684498
-0.00722202 -0.0501285
-0.0126071 -0.167282
-0.0264981 -0.192425
0.00217757 -0.157505
-0.0046767 -0.174851
0.0143569 -0.107953
0.00539882 -0.136157
-0.0351123 -0.250591
-0.0287344 -0.224514
-0.0413066 -0.296713
-0.0422638 -0.311155
0.0456606 -0.307086
0.0468762 -0.314321
-0.0154274 -0.356832
-0.0143179 -0.359306
-0.00862417 -0.371341
-0.00458208 -0.371219
-0.034872 -0.31527
-0.0358701 -0.299343
-0.0453109 -0.339044
-0.0490716 -0.327331
-0.00033036 -0.359425
0.000141201 -0.359095
0.0465093 -0.315544
0.0479946 -0.317438
0.000775076 -0.360029
0.000199963 -0.358983
-0.0226389 -0.212778
-0.0191149 -0.1746
-0.0475048 -0.331633
-0.0437729 -0.339943
-0.0295298 -0.363582
-0.0382912 -0.350534
-0.0049061 -0.0859319
0.00929484 -0.122952
0.00419903 -0.138148
-0.00464882 -0.105807
-0.0355907 -0.354853
-0.0419017 -0.344422
0.0093579 -0.387418
0.0147629 -0.381487
-0.000169531 -0.158863
-0.00421418 -0.101842
-0.024616 -0.22979
-0.0239133 -0.228049
-0.0474031 -0.338267
-0.0538638 -0.319296
-0.0169408 -0.282613
-0.00959602 -0.300725
-0.0190236 -0.0229452
-0.0272144 -0.0318831
0.0196292 -0.0583499
0.0188502 -0.0364249
-0.018566 -0.374879
-0.023806 -0.370454
0.0349337 -0.314456
0.0372624 -0.320336
0.0211326 -0.20866
0.0307739 -0.237468
-0.00278382 -0.358013
-0.00494198 -0.35751
-0.0473186 -0.292124
-0.0457573 -0.290481
0.0325517 -0.355154
0.0332657 -0.356521
0.0151375 -0.365029
0.0119253 -0.364473
-0.0240623 -0.058237
-0.0241496 -0.0394262
0.00226523 -0.356636
0.00499643 -0.351153
0.00524045 -0.374163
0.0082984 -0.376498
-0.00427329 -0.370863
-0.00757947 -0.369997
-0.000228263 -0.359303
-0.00210243 -0.358494
-0.0201953 -0.26981
-0.0253651 -0.285489
-0.0034488 -0.357669
-0.00209785 -0.35613
0.00316888 -0.00450682
0.0124812 -0.024458
-0.0534569 -0.288234
-0.0343494 -0.242482
0.0452652 -0.322261
0.0439275 -0.318728
-0.0103281 -0.340635
-0.00940515 -0.348999
0.00676314 -0.360332
0.0131654 -0.358722
0.013431 -0.354961
0.0196383 -0.350906
-0.0146379 -0.365737
-0.0121278 -0.364828
-0.00114658 -0.083319
-0.000905759 -0.0941541
-0.029679 -0.288002
-0.0136471 -0.271453
-0.00706509 -0.379694
-0.0142047 -0.381063
-0.0142047 -0.381063
-0.0217007 -0.382866
-0.0217007 -0.382866
-0.0293852 -0.385248
-0.0293852 -0.385248
-0.0371102 -0.38829
-0.0371102 -0.38829
-0.0447638 -0.391957
-0.0447638 -0.391957
-0.0522085 -0.396247
-0.0522085 -0.396247
-0.0593345 -0.401119
-0.0593345 -0.401119
-0.066043 -0.406518
-0.066043 -0.406518
-0.0722434 -0.412381
-0.0722434 -0.412381
-0.077874 -0.418623
-0.077874 -0.418623
-0.0828778 -0.425159
-0.0828778 -0.425159
-0.0872216 -0.431899
-0.0872216 -0.431899
-0.0908911 -0.438751
-0.0908911 -0.438751
-0.0938651 -0.445611
-0.0938651 -0.445611
-0.096171 -0.452421
-0.096171 -0.452421
-0.097829 -0.459076
-0.097829 -0.459076
-0.098867 -0.46551
-0.098867 -0.46551
-0.0993359 -0.471677
-0.0993359 -0.471677
-0.0992779 -0.477499
-0.0992779 -0.477499
-0.0987579 -0.482949
-0.0987579 -0.482949
-0.0978183 -0.488012
-0.0978183 -0.488012
-0.0965151 -0.492647
-0.0965151 -0.492647
-0.0949142 -0.496854
-0.0949142 -0.496854
-0.0930481 -0.50064
-0.0930481 -0.50064
-0.0909492 -0.504029
-0.0909492 -0.504029
-0.0886614 -0.506996
-0.0886614 -0.506996
-0.0862193 -0.509575
-0.0862193 -0.509575
-0.0836032 -0.51182
-0.0836032 -0.51182
-0.0808098 -0.513713
-0.0808098 -0.513713
-0.0778794 -0.515262
-0.0778794 -0.515262
-0.0747645 -0.516439
-0.0747645 -0.516439
-0.0714067 -0.517324
-0.0714067 -0.517324
-0.0678105 -0.517886
-0.0678105 -0.517886
-0.0639603 -0.51799
-0.0639603 -0.51799
-0.0597317 -0.517667
-0.0597317 -0.517667
-0.0551272 -0.516943
-0.0551272 -0.516943
-0.0501213 -0.515627
-0.0501213 -0.515627
-0.0446494 -0.513476
-0.0446494 -0.513476
-0.0386764 -0.510551
-0.0386764 -0.510551
-0.0322224 -0.506705
-0.0322224 -0.506705
-0.0252444 -0.501496
-0.0252444 -0.501496
-0.0178094 -0.494767
-0.0178094 -0.494767
-0.00996339 -0.486221
-0.00996339 -0.486221
-0.00162191 -0.475233
-0.00162191 -0.475233
0.00680676 -0.461064
0.00680676 -0.461064
0.0154635 -0.442952
0.0154635 -0.442952
0.0241932 -0.418229
0.0241932 -0.418229
0.0332746 -0.385946
0.0332746 -0.385946
0.0459172 -0.350889
0.0459172 -0.350889
0.0534559 -0.33387
0.0534559 -0.33387
0.0539541 -0.327828
0.0539541 -0.327828
0.0524559 -0.325543
0.0524559 -0.325543
0.0508843 -0.325457
0.0508843 -0.325457
0.049241 -0.326926
0.049241 -0.326926
0.0478663 -0.329445
0.0478663 -0.329445
0.0462906 -0.332911
0.0462906 -0.332911
0.0442613 -0.337107
0.0442613 -0.337107
0.0421841 -0.341888
0.0421841 -0.341888
0.0399082 -0.346786
0.0399082 -0.346786
0.0372631 -0.351462
0.0372631 -0.351462
0.0342405 -0.35579
0.0342405 -0.35579
0.0310617 -0.359797
0.0310617 -0.359797
0.0277807 -0.363364
0.0277807 -0.363364
0.0243822 -0.36646
0.0243822 -0.36646
0.0209531 -0.369124
0.0209531 -0.369124
0.0175247 -0.371373
0.0175247 -0.371373
0.0141058 -0.373222
0.0141058 -0.373222
0.0106463 -0.374753
0.0106463 -0.374753
0.00710596 -0.376022
0.00710596 -0.376022
0.00338078 -0.377157
0.00338078 -0.377157
-0.00107906 -0.378344
-0.00107906 -0.378344
-0.00706509 -0.379694
0.0552472 -0.517392
0.0598388 -0.518112
0.0598388 -0.518112
0.064063 -0.518417
0.064063 -0.518417
0.0679093 -0.518321
0.0679093 -0.518321
0.071491 -0.517781
0.071491 -0.517781
0.0748362 -0.516902
0.0748362 -0.516902
0.0779445 -0.515738
0.0779445 -0.515738
0.0808567 -0.5142
0.0808567 -0.5142
0.0836377 -0.512329
0.0836377 -0.512329
0.0862456 -0.510091
0.0862456 -0.510091
0.0886793 -0.507519
0.0886793 -0.507519
0.0909567 -0.504565
0.0909567 -0.504565
0.0930454 -0.501188
0.0930454 -0.501188
0.0949069 -0.497411
0.0949069 -0.497411
0.0965015 -0.493222
0.0965015 -0.493222
0.0977983 -0.488613
0.0977983 -0.488613
0.0987344 -0.483548
0.0987344 -0.483548
0.0992576 -0.478121
0.0992576 -0.478121
0.0993141 -0.472345
0.0993141 -0.472345
0.0988563 -0.466194
0.0988563 -0.466194
0.0978134 -0.459761
0.0978134 -0.459761
0.0961623 -0.453124
0.0961623 -0.453124
0.0938671 -0.446342
0.0938671 -0.446342
0.0908922 -0.439491
0.0908922 -0.439491
0.0872386 -0.432655
0.0872386 -0.432655
0.0829114 -0.425943
0.0829114 -0.425943
0.0779139 -0.419418
0.0779139 -0.419418
0.0723045 -0.413197
0.0723045 -0.413197
0.0661186 -0.407353
0.0661186 -0.407353
0.0594317 -0.401965
0.0594317 -0.401965
0.0523301 -0.397105
0.0523301 -0.397105
0.0449101 -0.392819
0.0449101 -0.392819
0.0372973 -0.389164
0.0372973 -0.389164
0.0295885 -0.386139
0.0295885 -0.386139
0.021959 -0.383757
0.021959 -0.383757
0.0145026 -0.381947
0.0145026 -0.381947
0.00746528 -0.380566
0.00746528 -0.380566
0.00149798 -0.379245
0.00149798 -0.379245
-0.00293893 -0.378049
-0.00293893 -0.378049
-0.00671073 -0.376922
-0.00671073 -0.376922
-0.0102893 -0.375657
-0.0102893 -0.375657
-0.0137955 -0.374146
-0.0137955 -0.374146
-0.0172721 -0.372291
-0.0172721 -0.372291
-0.0207573 -0.370015
-0.0207573 -0.370015
-0.0242074 -0.367307
-0.0242074 -0.367307
-0.0276252 -0.364152
-0.0276252 -0.364152
-0.0309252 -0.360525
-0.0309252 -0.360525
-0.0340404 -0.356415
-0.0340404 -0.356415
-0.0369417 -0.3519
-0.0369417 -0.3519
-0.0396598 -0.3472
-0.0396598 -0.3472
-0.0420476 -0.342704
-0.0420476 -0.342704
-0.0440903 -0.338359
-0.0440903 -0.338359
-0.0458325 -0.334346
-0.0458325 -0.334346
-0.0474507 -0.330765
-0.0474507 -0.330765
-0.0491191 -0.327978
-0.0491191 -0.327978
-0.0505774 -0.326382
-0.0505774 -0.326382
-0.0520383 -0.326262
-0.0520383 -0.326262
-0.0531083 -0.328595
-0.0531083 -0.328595
-0.0525904 -0.33447
-0.0525904 -0.33447
-0.0462846 -0.350986
-0.0462846 -0.350986
-0.0327107 -0.386225
-0.0327107 -0.386225
-0.0233456 -0.41775
-0.0233456 -0.41775
-0.0151704 -0.442851
-0.0151704 -0.442851
-0.00663755 -0.461631
-0.00663755 -0.461631
0.00195548 -0.475622
0.00195548 -0.475622
0.0101206 -0.486706
0.0101206 -0.486706
0.0180171 -0.495129
0.0180171 -0.495129
0.0255061 -0.50183
0.0255061 -0.50183
0.0324425 -0.507126
0.0324425 -0.507126
0.038853 -0.511014
0.038853 -0.511014
0.0448152 -0.513868
0.0448152 -0.513868
0.0502859 -0.515999
0.0502859 -0.515999
0.0552472 -0.517392
      </DataArray> 
      <DataArray type="Float64" NumberOfComponents="2" Name="Velocity" format="ascii">
0 0
0 0
0 0
0 0
0 0
0 0
0 0
0 0
0 0
0 0
0 0
0 0
0 0
0 0
0 0
0 0
0 0
0 0
0 0
0 0
0 0
0 0
0 0
0 0
0 0
0 0
0 0
0 0
0 0
0 0
0 0
0 0
0 0
0 0
0 0
0 0
0 0
0 0
0 0
0 0
0 0
0 0
0 0
0 0
0 0
0 0
0 0
0 0
0 0
0 0
0 0
0 0
0 0
0 0
0 0
0 0
0 0
0 0
0 0
0 0
0 0
0 0
0 0
0 0
0 0
0 0
0 0
0 0
0 0
0 0
0 0
0 0
0 0
0 0
0 0
0 0
0 0
0 0
0 0
0 0
0 0
0 0
0 0
0 0
0 0
0 0
0 0
0 0
0 0
0 0
0 0
0 0
0 0
0 0
0 0
0 0
0 0
0 0
0 0
0 0
0 0
0 0
0 0
0 0
0 0
0 0
0 0
0 0
0 0
0 0
0 0
0 0
0 0
0 0
0 0
0 0
0 0
0 0
0 0
0 0
0 0
0 0
0 0
0 0
0 0
0 0
0 0
0 0
0 0
0 0
0 0
0 0
0 0
0 0
0 0
0 0
0 0
0 0
0 0
0 0
0 0
0 0
0 0
0 0
0 0
0 0
0 0
0 0
0 0
0 0
0 0
0 0
0 0
0 0
0 0
0 0
0 0
0 0
0 0
0 0
0 0
0 0
0 0
0 0
0 0
0 0
0 0
0 0
0 0
0 0
0 0
0 0
0 0
0 0
0 0
0 0
0 0
0 0
0 0
0 0
0 0
0 0
0 0
0 0
0 0
0 0
0 0
0 0
0 0
0 0
0 0
0 0
0 0
0 0
0 0
0 0
0 0
0 0
0 0
0 0
0 0
0 0
0 0
0 0
0 0
0 0
0 0
0 0
0 0
0 0
0 0
0 0
0 0
0 0
0 0
0 0
0 0
0 0
0 0
0 0
0 0
0 0
0 0
0 0
0 0
0 0
0 0
0 0
0 0
0 0
0 0
0 0
0 0
0 0
0 0
0 0
0 0
0 0
0 0
0 0
0 0
0 0
0 0
0 0
0 0
0 0
0 0
0 0
0 0
0 0
0 0
0 0
0 0
0 0
0 0
0 0
0 0
0 0
0 0
0 0
0 0
0 0
0 0
0 0
0 0
0 0
0 0
0 0
0 0
0 0
0 0
0 0
0 0
0 0
0 0
0 0
0 0
0 0
0 0
0 0
0 0
0 0
0 0
0 0
0 0
0 0
0 0
0 0
0 0
0 0
0 0
0 0
0 0
0 0
0 0
0 0
0 0
0 0
0 0
0 0
0 0
0 0
0 0
0 0
0 0
0 0
0 0
0 0
0 0
0 0
0 0
0 0
0 0
0 0
0 0
0 0
0 0
0 0
0 0
0 0
0 0
0 0
0 0
0 0
0 0
0 0
0 0
0 0
0 0
0 0
0 0
0 0
0 0
0 0
0 0
0 0
0 0
0 0
0 0
0 0
0 0
0 0
0 0
0 0
0 0
0 0
0 0
0 0
0 0
0 0
0 0
0 0
0 0
0 0
0 0
0 0
0 0
0 0
0 0
0 0
0 0
0 0
0 0
0 0
0 0
0 0
0 0
0 0
0 0
0 0
0 0
0 0
0 0
0 0
0 0
0 0
0 0
0 0
0 0
0 0
0 0
0 0
0 0
0 0
0 0
0 0
0 0
0 0
0 0
0 0
0 0
0 0
0 0
0 0
0 0
0 0
0 0
0 0
0 0
0 0
0 0
0 0
0 0
0 0
0 0
0 0
0 0
0 0
0 0
0 0
0 0
0 0
0 0
0 0
0 0
0 0
0 0
0 0
0 0
0 0
0 0
0 0
0 0
0 0
0 0
0 0
0 0
0 0
0 0
0 0
0 0
0 0
0 0
0 0
0 0
0 0
0 0
0 0
0 0
0 0
0 0
0 0
0 0
0 0
0 0
0 0
0 0
0 0
0 0
0 0
0 0
0 0
0 0
0 0
0 0
0 0
0 0
0 0
0 0
0 0
0 0
0 0
0 0
0 0
0 0
0 0
0 0
0 0
0 0
0 0
0 0
0 0
0 0
0 0
0 0
0 0
0 0
0 0
0 0
0 0
0 0
0 0
0 0
0 0
0 0
0 0
0 0
0 0
0 0
0 0
0 0
0 0
0 0
0 0
0 0
0 0
0 0
0 0
0 0
0 0
0 0
0 0
0 0
0 0
0 0
0 0
0 0
0 0
0 0
0 0
0 0
0 0
0 0
0 0
0 0
0 0
0 0
0 0
0 0
0 0
0 0
0 0
0 0
0 0
0 0
0 0
0 0
0 0
0 0
0 0
0 0
0 0
0 0
0 0
0 0
0 0
0 0
0 0
0 0
0 0
0 0
0 0
0 0
0 0
0 0
0 0
0 0
0 0
0 0
0 0
0 0
0 0
0 0
0 0
0 0
0 0
0 0
0 0
0 0
0 0
0 0
0 0
0 0
0 0
0 0
0 0
0 0
0 0
0 0
0 0
0 0
0 0
0 0
0 0
0 0
0 0
0 0
0 0
0 0
0 0
0 0
0 0
0 0
0 0
0 0
0 0
0 0
0 0
0 0
0 0
0 0
0 0
0 0
0 0
0 0
0 0
0 0
0 0
0 0
0 0
0 0
0 0
0 0
0 0
0 0
0 0
0 0
0 0
0 0
0 0
0 0
0 0
0 0
0 0
0 0
0 0
0 0
0 0
0 0
0 0
0 0
0 0
0 0
0 0
0 0
0 0
0 0
0 0
0 0
0 0
0 0
0 0
0 0
0 0
0 0
0 0
0 0
0 0
0 0
0 0
0 0
0 0
0 0
0 0
0 0
0 0
0 0
0 0
0 0
0 0
0 0
0 0
0 0
0 0
0 0
0 0
0 0
0 0
0 0
0 0
0 0
0 0
0 0
0 0
0 0
0 0
0 0
0 0
0 0
0 0
0 0
0 0
0 0
0 0
0 0
0 0
0 0
0 0
0 0
0 0
0 0
0 0
0 0
0 0
0 0
0 0
0 0
0 0
0 0
0 0
0 0
0 0
0 0
0 0
0 0
0 0
0 0
0 0
0 0
0 0
0 0
0 0
0 0
0 0
0 0
0 0
0 0
0 0
0 0
0 0
0 0
0 0
0 0
0 0
0 0
0 0
0 0
0 0
0 0
0 0
0 0
0 0
0 0
0 0
0 0
0 0
0 0
0 0
0 0
0 0
0 0
0 0
0 0
0 0
0 0
0 0
0 0
0 0
0 0
0 0
0 0
0 0
0 0
0 0
0 0
0 0
0 0
0 0
0 0
0 0
0 0
0 0
0 0
0 0
0 0
0 0
0 0
0 0
0 0
0 0
0 0
0 0
0 0
0 0
0 0
0 0
0 0
0 0
0 0
0 0
0 0
0 0
0 0
0 0
0 0
0 0
0 0
0 0
0 0
0 0
0 0
0 0
0 0
0 0
0 0
0 0
0 0
0 0
0 0
0 0
0 0
0 0
0 0
0 0
0 0
0 0
0 0
0 0
0 0
0 0
0 0
0 0
0 0
0 0
0 0
0 0
0 0
0 0
0 0
0 0
0 0
0 0
0 0
0 0
0 0
0 0
0 0
0 0
0 0
0 0
0 0
0 0
0 0
0 0
0 0
0 0
0 0
0 0
0 0
0 0
0 0
0 0
0 0
0 0
0 0
0 0
0 0
0 0
0 0
0 0
0 0
0 0
0 0
0 0
0 0
0 0
0 0
0 0
0 0
0 0
0 0
0 0
0 0
0 0
0 0
0 0
0 0
0 0
0 0
0 0
0 0
0 0
0 0
0 0
0 0
0 0
0 0
0 0
0 0
0 0
0 0
0 0
0 0
0 0
0 0
0 0
0 0
0 0
0 0
0 0
0 0
0 0
0 0
0 0
0 0
0 0
0 0
0 0
0 0
0 0
0 0
0 0
0 0
0 0
0 0
0 0
0 0
0 0
0 0
0 0
0 0
0 0
0 0
0 0
0 0
0 0
0 0
0 0
0 0
0 0
0 0
0 0
0 0
0 0
0 0
0 0
0 0
0 0
0 0
0 0
0 0
0 0
0 0
0 0
0 0
0 0
0 0
0 0
0 0
0 0
0 0
0 0
0 0
0 0
0 0
0 0
0 0
0 0
0 0
0 0
0 0
0 0
0 0
0 0
0 0
0 0
0 0
0 0
0 0
0 0
0 0
0 0
0 0
0 0
0 0
0 0
0 0
0 0
0 0
0 0
0 0
0 0
0 0
0 0
0 0
0 0
0 0
0 0
0 0
0 0
0 0
0 0
0 0
0 0
0 0
0 0
0 0
0 0
0 0
0 0
0 0
0 0
0 0
0 0
0 0
0 0
0 0
0 0
0 0
0 0
0 0
0 0
0 0
0 0
0 0
0 0
0 0
0 0
0 0
0 0
0 0
0 0
0 0
0 0
0 0
0 0
0 0
0 0
0 0
0 0
0 0
0 0
0 0
0 0
0 0
0 0
0 0
0 0
0 0
0 0
0 0
0 0
0 0
0 0
0 0
0 0
0 0
0 0
0 0
0 0
0 0
0 0
0 0
0 0
0 0
0 0
0 0
0 0
0 0
0 0
0 0
0 0
0 0
0 0
0 0
0 0
0 0
0 0
0 0
0 0
0 0
0 0
0 0
0 0
0 0
0 0
0 0
0 0
0 0
0 0
0 0
0 0
0 0
0 0
0 0
0 0
0 0
0 0
0 0
0 0
0 0
0 0
0 0
0 0
0 0
0 0
0 0
0 0
0 0
0 0
0 0
0 0
0 0
0 0
0 0
0 0
0 0
0 0
0 0
0 0
0 0
0 0
0 0
0 0
0 0
0 0
0 0
0 0
0 0
0 0
0 0
0 0
0 0
0 0
0 0
0 0
0 0
0 0
0 0
0 0
0 0
0 0
0 0
0 0
0 0
0 0
0 0
0 0
0 0
0 0
0 0
0 0
0 0
0 0
0 0
0 0
0 0
0 0
0 0
0 0
0 0
0 0
0 0
0 0
0 0
0 0
0 0
0 0
0 0
0 0
0 0
0 0
0 0
0 0
0 0
0 0
0 0
0 0
0 0
0 0
0 0
0 0
0 0
0 0
0 0
0 0
0 0
0 0
0 0
0 0
0 0
0 0
0 0
0 0
0 0
0 0
0 0
0 0
0 0
0 0
0 0
0 0
0 0
0 0
0 0
0 0
0 0
0 0
0 0
0 0
0 0
0 0
0 0
0 0
0 0
0 0
0 0
0 0
0 0
0 0
0 0
0 0
0 0
0 0
0 0
0 0
0 0
0 0
0 0
0 0
0 0
0 0
0 0
0 0
0 0
0 0
0 0
0 0
0 0
0 0
0 0
0 0
0 0
0 0
0 0
0 0
0 0
0 0
0 0
0 0
0 0
0 0
0 0
0 0
0 0
0 0
0 0
0 0
0 0
0 0
0 0
0 0
0 0
0 0
0 0
0 0
0 0
0 0
0 0
0 0
0 0
0 0
0 0
0 0
0 0
0 0
0 0
0 0
0 0
0 0
0 0
0 0
0 0
0 0
0 0
0 0
0 0
0 0
0 0
0 0
0 0
0 0
0 0
0 0
0 0
0 0
0 0
0 0
0 0
0 0
0 0
0 0
0 0
0 0
0 0
0 0
0 0
0 0
0 0
0 0
0 0
0 0
0 0
0 0
0 0
0 0
0 0
0 0
0 0
0 0
0 0
0 0
0 0
0 0
0 0
0 0
0 0
0 0
0 0
0 0
0 0
0 0
0 0
0 0
0 0
0 0
0 0
0 0
0 0
0 0
0 0
0 0
0 0
0 0
0 0
0 0
0 0
0 0
0 0
0 0
0 0
0 0
0 0
0 0
0 0
0 0
0 0
0 0
0 0
0 0
0 0
0 0
0 0
0 0
0 0
0 0
0 0
0 0
0 0
0 0
0 0
0 0
0 0
0 0
0 0
0 0
0 0
0 0
0 0
0 0
0 0
0 0
0 0
0 0
0 0
0 0
0 0
0 0
0 0
0 0
0 0
0 0
0 0
0 0
0 0
0 0
0 0
0 0
0 0
0 0
0 0
0 0
0 0
0 0
0 0
0 0
0 0
0 0
0 0
0 0
0 0
0 0
0 0
0 0
0 0
0 0
0 0
0 0
0 0
0 0
0 0
0 0
0 0
0 0
0 0
0 0
0 0
0 0
0 0
0 0
0 0
0 0
0 0
0 0
0 0
0 0
0 0
0 0
0 0
0 0
0 0
0 0
0 0
0 0
0 0
0 0
0 0
0 0
0 0
0 0
0 0
0 0
0 0
0 0
0 0
0 0
0 0
0 0
0 0
0 0
0 0
0 0
0 0
0 0
0 0
0 0
0 0
0 0
0 0
0 0
0 0
0 0
0 0
0 0
0 0
0 0
0 0
0 0
0 0
0 0
0 0
0 0
0 0
0 0
0 0
0 0
0 0
0 0
0 0
0 0
0 0
0 0
0 0
0 0
0 0
0 0
0 0
0 0
0 0
0 0
0 0
0 0
0 0
0 0
0 0
0 0
0 0
0 0
0 0
0 0
0 0
0 0
0 0
0 0
0 0
0 0
0 0
0 0
0 0
0 0
0 0
0 0
0 0
0 0
0 0
0 0
0 0
0 0
0 0
0 0
0 0
0 0
0 0
0 0
0 0
0 0
0 0
0 0
0 0
0 0
0 0
0 0
0 0
0 0
0 0
0 0
0 0
0 0
0 0
0 0
0 0
0 0
0 0
0 0
0 0
0 0
0 0
0 0
0 0
0 0
0 0
0 0
0 0
0 0
0 0
0 0
0 0
0 0
0 0
0 0
0 0
0 0
0 0
0 0
0 0
0 0
0 0
0 0
0 0
0 0
0 0
0 0
0 0
0 0
0 0
0 0
0 0
0 0
0 0
0 0
0 0
0 0
0 0
0 0
0 0
0 0
0 0
0 0
0 0
0 0
0 0
0 0
0 0
0 0
0 0
0 0
0 0
0 0
0 0
0 0
0 0
0 0
0 0
0 0
0 0
0 0
0 0
0 0
0 0
0 0
0 0
0 0
0 0
0 0
0 0
0 0
0 0
0 0
0 0
0 0
0 0
0 0
0 0
0 0
0 0
0 0
0 0
0 0
0 0
0 0
0 0
0 0
0 0
0 0
0 0
0 0
0 0
0 0
0 0
0 0
0 0
0 0
0 0
0 0
0 0
0 0
0 0
0 0
0 0
0 0
0 0
0 0
0 0
0 0
0 0
0 0
0 0
0 0
0 0
0 0
0 0
0 0
0 0
0 0
0 0
0 0
0 0
0 0
0 0
0 0
0 0
0 0
0 0
0 0
0 0
0 0
0 0
0 0
0 0
0 0
0 0
0 0
0 0
0 0
0 0
0 0
0 0
0 0
0 0
0 0
0 0
0 0
0 0
0 0
0 0
0 0
0 0
0 0
0 0
0 0
0 0
0 0
0 0
0 0
0 0
0 0
0 0
0 0
0 0
0 0
0 0
0 0
0 0
0 0
0 0
0 0
0 0
0 0
0 0
0 0
0 0
0 0
0 0
0 0
0 0
0 0
0 0
0 0
0 0
0 0
0 0
0 0
0 0
0 0
0 0
0 0
0 0
0 0
0 0
0 0
0 0
0 0
0 0
0 0
0 0
0 0
0 0
0 0
0 0
0 0
0 0
0 0
0 0
0 0
0 0
0 0
0 0
0 0
0 0
0 0
0 0
0 0
0 0
0 0
0 0
0 0
0 0
0 0
0 0
0 0
0 0
0 0
0 0
0 0
0 0
0 0
0 0
0 0
0 0
0 0
0 0
0 0
0 0
0 0
0 0
0 0
0 0
0 0
0 0
0 0
0 0
0 0
0 0
0 0
0 0
0 0
0 0
0 0
0 0
0 0
0 0
0 0
0 0
0 0
0 0
0 0
0 0
0 0
0 0
0 0
0 0
0 0
0 0
0 0
0 0
0 0
0 0
0 0
0 0
0 0
0 0
0 0
0 0
0 0
0 0
0 0
0 0
0 0
0 0
0 0
0 0
0 0
0 0
0 0
0 0
0 0
0 0
0 0
0 0
0 0
0 0
0 0
0 0
0 0
0 0
0 0
0 0
0 0
0 0
0 0
0 0
0 0
0 0
0 0
0 0
0 0
0 0
0 0
0 0
0 0
0 0
0 0
0 0
0 0
0 0
0 0
0 0
0 0
0 0
0 0
0 0
0 0
0 0
0 0
0 0
0 0
0 0
0 0
0 0
0 0
0 0
0 0
0 0
0 0
0 0
0 0
0 0
0 0
0 0
0 0
0 0
0 0
0 0
0 0
0 0
0 0
0 0
0 0
0 0
0 0
0 0
0 0
0 0
0 0
0 0
0 0
0 0
0 0
0 0
0 0
0 0
0 0
0 0
0 0
0 0
0 0
0 0
0 0
0 0
0 0
0 0
0 0
0 0
0 0
0 0
0 0
0 0
0 0
0 0
0 0
0 0
0 0
0 0
0 0
0 0
0 0
0 0
0 0
0 0
0 0
0 0
0 0
0 0
0 0
0 0
0 0
0 0
0 0
0 0
0 0
0 0
0 0
0 0
0 0
0 0
0 0
0 0
0 0
0 0
0 0
0 0
0 0
0 0
0 0
0 0
0 0
0 0
0 0
0 0
0 0
0 0
0 0
0 0
0 0
0 0
0 0
0 0
0 0
0 0
0 0
0 0
0 0
0 0
0 0
0 0
0 0
0 0
0 0
0 0
0 0
0 0
0 0
0 0
0 0
0 0
0 0
0 0
0 0
0 0
0 0
0 0
0 0
0 0
0 0
0 0
0 0
0 0
0 0
0 0
0 0
0 0
0 0
0 0
0 0
0 0
0 0
0 0
0 0
0 0
0 0
0 0
0 0
0 0
0 0
0 0
0 0
0 0
0 0
0 0
0 0
0 0
0 0
0 0
0 0
0 0
0 0
0 0
0 0
0 0
0 0
0 0
0 0
0 0
0 0
0 0
0 0
0 0
0 0
0 0
0 0
0 0
0 0
0 0
0 0
0 0
0 0
0 0
0 0
0 0
0 0
0 0
0 0
0 0
0 0
0 0
0 0
0 0
0 0
0 0
0 0
0 0
0 0
0 0
0 0
0 0
0 0
0 0
0 0
0 0
0 0
0 0
0 0
0 0
0 0
0 0
0 0
0 0
0 0
0 0
0 0
0 0
0 0
0 0
0 0
0 0
0 0
0 0
0 0
0 0
0 0
0 0
0 0
0 0
0 0
0 0
0 0
0 0
0 0
0 0
0 0
0 0
0 0
0 0
0 0
0 0
0 0
0 0
0 0
0 0
0 0
0 0
0 0
0 0
0 0
0 0
0 0
0 0
0 0
0 0
0 0
0 0
0 0
0 0
0 0
0 0
0 0
0 0
0 0
0 0
0 0
0 0
0 0
0 0
0 0
0 0
0 0
0 0
0 0
0 0
0 0
0 0
0 0
0 0
0 0
0 0
0 0
0 0
0 0
0 0
0 0
0 0
0 0
0 0
0 0
0 0
0 0
0 0
0 0
0 0
0 0
0 0
0 0
0 0
0 0
0 0
0 0
0 0
0 0
0 0
0 0
0 0
0 0
0 0
0 0
0 0
0 0
0 0
0 0
0 0
0 0
0 0
0 0
0 0
0 0
0 0
0 0
0 0
0 0
0 0
0 0
0 0
0 0
0 0
0 0
0 0
0 0
0 0
0 0
0 0
0 0
0 0
0 0
0 0
0 0
0 0
0 0
0 0
0 0
0 0
0 0
0 0
0 0
0 0
0 0
0 0
0 0
0 0
0 0
0 0
0 0
0 0
0 0
0 0
0 0
0 0
0 0
0 0
0 0
0 0
0 0
0 0
0 0
0 0
0 0
0 0
0 0
0 0
0 0
0 0
0 0
0 0
0 0
0 0
0 0
0 0
0 0
0 0
0 0
0 0
0 0
0 0
0 0
0 0
0 0
0 0
0 0
0 0
0 0
0 0
0 0
0 0
0 0
0 0
0 0
0 0
0 0
0 0
0 0
0 0
0 0
0 0
0 0
0 0
0 0
0 0
0 0
0 0
0 0
0 0
0 0
0 0
0 0
0 0
0 0
0 0
0 0
0 0
0 0
0 0
0 0
0 0
0 0
0 0
0 0
0 0
0 0
0 0
0 0
0 0
0 0
0 0
0 0
0 0
0 0
0 0
0 0
0 0
0 0
0 0
0 0
0 0
0 0
0 0
0 0
0 0
0 0
0 0
0 0
0 0
0 0
0 0
0 0
0 0
0 0
0 0
0 0
0 0
0 0
0 0
0 0
0 0
0 0
0 0
0 0
0 0
0 0
0 0
0 0
0 0
0 0
0 0
0 0
0 0
0 0
0 0
0 0
0 0
0 0
0 0
0 0
0 0
0 0
0 0
0 0
0 0
0 0
0 0
0 0
0 0
0 0
0 0
0 0
0 0
0 0
0 0
0 0
0 0
0 0
0 0
0 0
0 0
0 0
0 0
0 0
0 0
0 0
0 0
0 0
0 0
0 0
0 0
0 0
0 0
0 0
0 0
0 0
0 0
0 0
0 0
0 0
0 0
0 0
0 0
0 0
0 0
0 0
0 0
0 0
0 0
0 0
0 0
0 0
0 0
0 0
0 0
0 0
0 0
0 0
0 0
0 0
0 0
0 0
0 0
0 0
0 0
0 0
0 0
0 0
0 0
0 0
0 0
0 0
0 0
0 0
0 0
0 0
0 0
0 0
0 0
0 0
0 0
0 0
0 0
0 0
0 0
0 0
0 0
0 0
0 0
0 0
0 0
0 0
0 0
0 0
0 0
0 0
0 0
0 0
0 0
0 0
0 0
0 0
0 0
0 0
0 0
0 0
0 0
0 0
0 0
0 0
0 0
0 0
0 0
0 0
0 0
0 0
0 0
0 0
0 0
0 0
0 0
0 0
0 0
0 0
0 0
0 0
0 0
0 0
0 0
0 0
0 0
0 0
0 0
0 0
0 0
0 0
0 0
0 0
0 0
0 0
0 0
0 0
0 0
0 0
0 0
0 0
0 0
0 0
0 0
0 0
0 0
0 0
0 0
0 0
0 0
0 0
0 0
0 0
0 0
0 0
0 0
0 0
0 0
0 0
0 0
0 0
0 0
0 0
0 0
0 0
0 0
0 0
0 0
0 0
0 0
0 0
0 0
0 0
0 0
0 0
0 0
0 0
0 0
0 0
0 0
0 0
0 0
0 0
0 0
0 0
0 0
0 0
0 0
0 0
0 0
0 0
0 0
0 0
0 0
0 0
0 0
0 0
0 0
0 0
0 0
0 0
0 0
0 0
0 0
0 0
0 0
0 0
0 0
0 0
0 0
0 0
0 0
0 0
0 0
0 0
0 0
0 0
0 0
0 0
0 0
0 0
0 0
0 0
0 0
0 0
0 0
0 0
0 0
0 0
0 0
0 0
0 0
0 0
0 0
0 0
0 0
0 0
0 0
0 0
0 0
0 0
0 0
0 0
0 0
0 0
0 0
0 0
0 0
0 0
0 0
0 0
0 0
0 0
0 0
0 0
0 0
0 0
0 0
0 0
0 0
0 0
0 0
0 0
0 0
0 0
0 0
0 0
0 0
0 0
0 0
0 0
0 0
0 0
0 0
0 0
0 0
0 0
0 0
0 0
0 0
0 0
0 0
0 0
0 0
0 0
0 0
0 0
0 0
0 0
0 0
0 0
0 0
0 0
0 0
0 0
0 0
0 0
0 0
0 0
0 0
0 0
0 0
0 0
0 0
0 0
0 0
0 0
0 0
0 0
0 0
0 0
0 0
0 0
0 0
0 0
0 0
0 0
0 0
0 0
0 0
0 0
0 0
0 0
0 0
0 0
0 0
0 0
0 0
0 0
0 0
0 0
0 0
0 0
0 0
0 0
0 0
0 0
0 0
0 0
0 0
0 0
0 0
0 0
0 0
0 0
0 0
0 0
0 0
0 0
0 0
0 0
0 0
0 0
0 0
0 0
0 0
0 0
0 0
0 0
0 0
0 0
0 0
0 0
0 0
0 0
0 0
0 0
0 0
0 0
0 0
0 0
0 0
0 0
0 0
0 0
0 0
0 0
0 0
0 0
0 0
0 0
0 0
0 0
0 0
0 0
0 0
0 0
0 0
0 0
0 0
0 0
0 0
0 0
0 0
0 0
0 0
0 0
0 0
0 0
0 0
0 0
0 0
0 0
0 0
0 0
0 0
0 0
0 0
0 0
0 0
0 0
0 0
0 0
0 0
0 0
0 0
0 0
0 0
0 0
0 0
0 0
0 0
0 0
0 0
0 0
0 0
0 0
0 0
0 0
0 0
0 0
0 0
0 0
0 0
0 0
0 0
0 0
0 0
0 0
0 0
0 0
0 0
0 0
0 0
0 0
0 0
0 0
0 0
0 0
0 0
0 0
0 0
0 0
0 0
0 0
0 0
0 0
0 0
0 0
0 0
0 0
0 0
0 0
0 0
0 0
0 0
0 0
0 0
0 0
0 0
0 0
0 0
0 0
0 0
0 0
0 0
0 0
0 0
0 0
0 0
0 0
0 0
0 0
0 0
0 0
0 0
0 0
0 0
0 0
0 0
0 0
0 0
0 0
0 0
0 0
0 0
0 0
0 0
0 0
0 0
0 0
0 0
0 0
0 0
0 0
0 0
0 0
0 0
0 0
0 0
0 0
0 0
0 0
0 0
0 0
0 0
0 0
0 0
0 0
0 0
0 0
0 0
0 0
0 0
0 0
0 0
0 0
0 0
0 0
0 0
0 0
0 0
0 0
0 0
0 0
0 0
0 0
0 0
0 0
0 0
0 0
0 0
0 0
0 0
0 0
0 0
0 0
0 0
0 0
0 0
0 0
0 0
0 0
0 0
0 0
0 0
0 0
0 0
0 0
0 0
0 0
0 0
0 0
0 0
0 0
0 0
0 0
0 0
0 0
0 0
0 0
0 0
0 0
0 0
0 0
0 0
0 0
0 0
0 0
0 0
0 0
0 0
0 0
0 0
0 0
0 0
0 0
0 0
0 0
0 0
0 0
0 0
0 0
0 0
0 0
0 0
0 0
0 0
0 0
0 0
0 0
0 0
0 0
0 0
0 0
0 0
0 0
0 0
0 0
0 0
0 0
0 0
0 0
0 0
0 0
0 0
0 0
0 0
0 0
0 0
0 0
0 0
0 0
0 0
0 0
0 0
0 0
0 0
0 0
0 0
0 0
0 0
0 0
0 0
0 0
0 0
0 0
0 0
0 0
0 0
0 0
0 0
0 0
0 0
0 0
0 0
0 0
0 0
0 0
0 0
0 0
0 0
0 0
0 0
0 0
0 0
0 0
0 0
0 0
0 0
0 0
0 0
0 0
0 0
0 0
0 0
0 0
0 0
0 0
0 0
0 0
0 0
0 0
0 0
0 0
0 0
0 0
0 0
0 0
0 0
0 0
0 0
0 0
0 0
0 0
0 0
0 0
0 0
0 0
0 0
0 0
0 0
0 0
0 0
0 0
0 0
0 0
0 0
0 0
0 0
0 0
0 0
0 0
0 0
0 0
0 0
0 0
0 0
0 0
0 0
0 0
0 0
0 0
0 0
0 0
0 0
0 0
0 0
0 0
0 0
0 0
0 0
0 0
0 0
0 0
0 0
0 0
0 0
0 0
0 0
0 0
0 0
0 0
0 0
0 0
0 0
0 0
0 0
0 0
0 0
0 0
0 0
0 0
0 0
0 0
0 0
0 0
0 0
0 0
0 0
0 0
0 0
0 0
0 0
0 0
0 0
0 0
0 0
0 0
0 0
0 0
0 0
0 0
0 0
0 0
0 0
0 0
0 0
0 0
0 0
0 0
0 0
0 0
0 0
0 0
0 0
0 0
0 0
0 0
0 0
0 0
0 0
0 0
0 0
0 0
0 0
0 0
0 0
0 0
0 0
0 0
0 0
0 0
0 0
0 0
0 0
0 0
0 0
0 0
0 0
0 0
0 0
0 0
0 0
0 0
0 0
0 0
0 0
0 0
0 0
0 0
0 0
0 0
0 0
0 0
0 0
0 0
0 0
0 0
0 0
0 0
0 0
0 0
0 0
0 0
0 0
0 0
0 0
0 0
0 0
0 0
0 0
0 0
0 0
0 0
0 0
0 0
0 0
0 0
0 0
0 0
0 0
0 0
0 0
0 0
0 0
0 0
0 0
0 0
0 0
0 0
0 0
0 0
0 0
0 0
0 0
0 0
0 0
0 0
0 0
0 0
0 0
0 0
0 0
0 0
0 0
0 0
0 0
0 0
0 0
0 0
0 0
0 0
0 0
0 0
0 0
0 0
0 0
0 0
0 0
0 0
0 0
0 0
0 0
0 0
0 0
0 0
0 0
0 0
0 0
0 0
0 0
0 0
0 0
0 0
0 0
0 0
0 0
0 0
0 0
0 0
0 0
0 0
0 0
0 0
0 0
0 0
0 0
0 0
0 0
0 0
0 0
0 0
0 0
0 0
0 0
0 0
0 0
0 0
0 0
0 0
0 0
0 0
0 0
0 0
0 0
0 0
0 0
0 0
0 0
0 0
0 0
0 0
0 0
0 0
0 0
0 0
0 0
0 0
0 0
0 0
0 0
0 0
0 0
0 0
0 0
0 0
0 0
0 0
0 0
0 0
0 0
0 0
0 0
0 0
0 0
0 0
0 0
0 0
0 0
0 0
0 0
0 0
0 0
0 0
0 0
0 0
0 0
0 0
0 0
0 0
0 0
0 0
0 0
0 0
0 0
0 0
0 0
0 0
0 0
0 0
0 0
0 0
0 0
0 0
0 0
0 0
0 0
0 0
0 0
0 0
0 0
0 0
0 0
0 0
0 0
0 0
0 0
0 0
0 0
0 0
0 0
0 0
0 0
0 0
0 0
0 0
0 0
0 0
0 0
0 0
0 0
0 0
0 0
0 0
0 0
0 0
0 0
0 0
0 0
0 0
0 0
0 0
0 0
0 0
0 0
0 0
0 0
0 0
0 0
0 0
0 0
0 0
0 0
0 0
0 0
0 0
0 0
0 0
0 0
0 0
0 0
0 0
0 0
0 0
0 0
0 0
0 0
0 0
0 0
0 0
0 0
0 0
0 0
0 0
0 0
0 0
0 0
0 0
0 0
0 0
0 0
0 0
0 0
0 0
0 0
0 0
0 0
0 0
0 0
0 0
0 0
0 0
0 0
0 0
0 0
0 0
0 0
0 0
0 0
0 0
0 0
0 0
0 0
0 0
0 0
0 0
0 0
0 0
0 0
0 0
0 0
0 0
0 0
0 0
0 0
0 0
0 0
0 0
0 0
0 0
0 0
0 0
0 0
0 0
0 0
0 0
0 0
0 0
0 0
0 0
0 0
0 0
0 0
0 0
0 0
0 0
0 0
0 0
0 0
0 0
0 0
0 0
0 0
0 0
0 0
0 0
0 0
0 0
0 0
0 0
0 0
0 0
0 0
0 0
0 0
0 0
0 0
0 0
0 0
0 0
0 0
      </DataArray> 
      <DataArray type="Float64" NumberOfComponents="2" Name="Acceleration" format="ascii">
0 0
0 0
0 0
0 0
0 0
0 0
0 0
0 0
0 0
0 0
0 0
0 0
0 0
0 0
0 0
0 0
0 0
0 0
0 0
0 0
0 0
0 0
0 0
0 0
0 0
0 0
0 0
0 0
0 0
0 0
0 0
0 0
0 0
0 0
0 0
0 0
0 0
0 0
0 0
0 0
0 0
0 0
0 0
0 0
0 0
0 0
0 0
0 0
0 0
0 0
0 0
0 0
0 0
0 0
0 0
0 0
0 0
0 0
0 0
0 0
0 0
0 0
0 0
0 0
0 0
0 0
0 0
0 0
0 0
0 0
0 0
0 0
0 0
0 0
0 0
0 0
0 0
0 0
0 0
0 0
0 0
0 0
0 0
0 0
0 0
0 0
0 0
0 0
0 0
0 0
0 0
0 0
0 0
0 0
0 0
0 0
0 0
0 0
0 0
0 0
0 0
0 0
0 0
0 0
0 0
0 0
0 0
0 0
0 0
0 0
0 0
0 0
0 0
0 0
0 0
0 0
0 0
0 0
0 0
0 0
0 0
0 0
0 0
0 0
0 0
0 0
0 0
0 0
0 0
0 0
0 0
0 0
0 0
0 0
0 0
0 0
0 0
0 0
0 0
0 0
0 0
0 0
0 0
0 0
0 0
0 0
0 0
0 0
0 0
0 0
0 0
0 0
0 0
0 0
0 0
0 0
0 0
0 0
0 0
0 0
0 0
0 0
0 0
0 0
0 0
0 0
0 0
0 0
0 0
0 0
0 0
0 0
0 0
0 0
0 0
0 0
0 0
0 0
0 0
0 0
0 0
0 0
0 0
0 0
0 0
0 0
0 0
0 0
0 0
0 0
0 0
0 0
0 0
0 0
0 0
0 0
0 0
0 0
0 0
0 0
0 0
0 0
0 0
0 0
0 0
0 0
0 0
0 0
0 0
0 0
0 0
0 0
0 0
0 0
0 0
0 0
0 0
0 0
0 0
0 0
0 0
0 0
0 0
0 0
0 0
0 0
0 0
0 0
0 0
0 0
0 0
0 0
0 0
0 0
0 0
0 0
0 0
0 0
0 0
0 0
0 0
0 0
0 0
0 0
0 0
0 0
0 0
0 0
0 0
0 0
0 0
0 0
0 0
0 0
0 0
0 0
0 0
0 0
0 0
0 0
0 0
0 0
0 0
0 0
0 0
0 0
0 0
0 0
0 0
0 0
0 0
0 0
0 0
0 0
0 0
0 0
0 0
0 0
0 0
0 0
0 0
0 0
0 0
0 0
0 0
0 0
0 0
0 0
0 0
0 0
0 0
0 0
0 0
0 0
0 0
0 0
0 0
0 0
0 0
0 0
0 0
0 0
0 0
0 0
0 0
0 0
0 0
0 0
0 0
0 0
0 0
0 0
0 0
0 0
0 0
0 0
0 0
0 0
0 0
0 0
0 0
0 0
0 0
0 0
0 0
0 0
0 0
0 0
0 0
0 0
0 0
0 0
0 0
0 0
0 0
0 0
0 0
0 0
0 0
0 0
0 0
0 0
0 0
0 0
0 0
0 0
0 0
0 0
0 0
0 0
0 0
0 0
0 0
0 0
0 0
0 0
0 0
0 0
0 0
0 0
0 0
0 0
0 0
0 0
0 0
0 0
0 0
0 0
0 0
0 0
0 0
0 0
0 0
0 0
0 0
0 0
0 0
0 0
0 0
0 0
0 0
0 0
0 0
0 0
0 0
0 0
0 0
0 0
0 0
0 0
0 0
0 0
0 0
0 0
0 0
0 0
0 0
0 0
0 0
0 0
0 0
0 0
0 0
0 0
0 0
0 0
0 0
0 0
0 0
0 0
0 0
0 0
0 0
0 0
0 0
0 0
0 0
0 0
0 0
0 0
0 0
0 0
0 0
0 0
0 0
0 0
0 0
0 0
0 0
0 0
0 0
0 0
0 0
0 0
0 0
0 0
0 0
0 0
0 0
0 0
0 0
0 0
0 0
0 0
0 0
0 0
0 0
0 0
0 0
0 0
0 0
0 0
0 0
0 0
0 0
0 0
0 0
0 0
0 0
0 0
0 0
0 0
0 0
0 0
0 0
0 0
0 0
0 0
0 0
0 0
0 0
0 0
0 0
0 0
0 0
0 0
0 0
0 0
0 0
0 0
0 0
0 0
0 0
0 0
0 0
0 0
0 0
0 0
0 0
0 0
0 0
0 0
0 0
0 0
0 0
0 0
0 0
0 0
0 0
0 0
0 0
0 0
0 0
0 0
0 0
0 0
0 0
0 0
0 0
0 0
0 0
0 0
0 0
0 0
0 0
0 0
0 0
0 0
0 0
0 0
0 0
0 0
0 0
0 0
0 0
0 0
0 0
0 0
0 0
0 0
0 0
0 0
0 0
0 0
0 0
0 0
0 0
0 0
0 0
0 0
0 0
0 0
0 0
0 0
0 0
0 0
0 0
0 0
0 0
0 0
0 0
0 0
0 0
0 0
0 0
0 0
0 0
0 0
0 0
0 0
0 0
0 0
0 0
0 0
0 0
0 0
0 0
0 0
0 0
0 0
0 0
0 0
0 0
0 0
0 0
0 0
0 0
0 0
0 0
0 0
0 0
0 0
0 0
0 0
0 0
0 0
0 0
0 0
0 0
0 0
0 0
0 0
0 0
0 0
0 0
0 0
0 0
0 0
0 0
0 0
0 0
0 0
0 0
0 0
0 0
0 0
0 0
0 0
0 0
0 0
0 0
0 0
0 0
0 0
0 0
0 0
0 0
0 0
0 0
0 0
0 0
0 0
0 0
0 0
0 0
0 0
0 0
0 0
0 0
0 0
0 0
0 0
0 0
0 0
0 0
0 0
0 0
0 0
0 0
0 0
0 0
0 0
0 0
0 0
0 0
0 0
0 0
0 0
0 0
0 0
0 0
0 0
0 0
0 0
0 0
0 0
0 0
0 0
0 0
0 0
0 0
0 0
0 0
0 0
0 0
0 0
0 0
0 0
0 0
0 0
0 0
0 0
0 0
0 0
0 0
0 0
0 0
0 0
0 0
0 0
0 0
0 0
0 0
0 0
0 0
0 0
0 0
0 0
0 0
0 0
0 0
0 0
0 0
0 0
0 0
0 0
0 0
0 0
0 0
0 0
0 0
0 0
0 0
0 0
0 0
0 0
0 0
0 0
0 0
0 0
0 0
0 0
0 0
0 0
0 0
0 0
0 0
0 0
0 0
0 0
0 0
0 0
0 0
0 0
0 0
0 0
0 0
0 0
0 0
0 0
0 0
0 0
0 0
0 0
0 0
0 0
0 0
0 0
0 0
0 0
0 0
0 0
0 0
0 0
0 0
0 0
0 0
0 0
0 0
0 0
0 0
0 0
0 0
0 0
0 0
0 0
0 0
0 0
0 0
0 0
0 0
0 0
0 0
0 0
0 0
0 0
0 0
0 0
0 0
0 0
0 0
0 0
0 0
0 0
0 0
0 0
0 0
0 0
0 0
0 0
0 0
0 0
0 0
0 0
0 0
0 0
0 0
0 0
0 0
0 0
0 0
0 0
0 0
0 0
0 0
0 0
0 0
0 0
0 0
0 0
0 0
0 0
0 0
0 0
0 0
0 0
0 0
0 0
0 0
0 0
0 0
0 0
0 0
0 0
0 0
0 0
0 0
0 0
0 0
0 0
0 0
0 0
0 0
0 0
0 0
0 0
0 0
0 0
0 0
0 0
0 0
0 0
0 0
0 0
0 0
0 0
0 0
0 0
0 0
0 0
0 0
0 0
0 0
0 0
0 0
0 0
0 0
0 0
0 0
0 0
0 0
0 0
0 0
0 0
0 0
0 0
0 0
0 0
0 0
0 0
0 0
0 0
0 0
0 0
0 0
0 0
0 0
0 0
0 0
0 0
0 0
0 0
0 0
0 0
0 0
0 0
0 0
0 0
0 0
0 0
0 0
0 0
0 0
0 0
0 0
0 0
0 0
0 0
0 0
0 0
0 0
0 0
0 0
0 0
0 0
0 0
0 0
0 0
0 0
0 0
0 0
0 0
0 0
0 0
0 0
0 0
0 0
0 0
0 0
0 0
0 0
0 0
0 0
0 0
0 0
0 0
0 0
0 0
0 0
0 0
0 0
0 0
0 0
0 0
0 0
0 0
0 0
0 0
0 0
0 0
0 0
0 0
0 0
0 0
0 0
0 0
0 0
0 0
0 0
0 0
0 0
0 0
0 0
0 0
0 0
0 0
0 0
0 0
0 0
0 0
0 0
0 0
0 0
0 0
0 0
0 0
0 0
0 0
0 0
0 0
0 0
0 0
0 0
0 0
0 0
0 0
0 0
0 0
0 0
0 0
0 0
0 0
0 0
0 0
0 0
0 0
0 0
0 0
0 0
0 0
0 0
0 0
0 0
0 0
0 0
0 0
0 0
0 0
0 0
0 0
0 0
0 0
0 0
0 0
0 0
0 0
0 0
0 0
0 0
0 0
0 0
0 0
0 0
0 0
0 0
0 0
0 0
0 0
0 0
0 0
0 0
0 0
0 0
0 0
0 0
0 0
0 0
0 0
0 0
0 0
0 0
0 0
0 0
0 0
0 0
0 0
0 0
0 0
0 0
0 0
0 0
0 0
0 0
0 0
0 0
0 0
0 0
0 0
0 0
0 0
0 0
0 0
0 0
0 0
0 0
0 0
0 0
0 0
0 0
0 0
0 0
0 0
0 0
0 0
0 0
0 0
0 0
0 0
0 0
0 0
0 0
0 0
0 0
0 0
0 0
0 0
0 0
0 0
0 0
0 0
0 0
0 0
0 0
0 0
0 0
0 0
0 0
0 0
0 0
0 0
0 0
0 0
0 0
0 0
0 0
0 0
0 0
0 0
0 0
0 0
0 0
0 0
0 0
0 0
0 0
0 0
0 0
0 0
0 0
0 0
0 0
0 0
0 0
0 0
0 0
0 0
0 0
0 0
0 0
0 0
0 0
0 0
0 0
0 0
0 0
0 0
0 0
0 0
0 0
0 0
0 0
0 0
0 0
0 0
0 0
0 0
0 0
0 0
0 0
0 0
0 0
0 0
0 0
0 0
0 0
0 0
0 0
0 0
0 0
0 0
0 0
0 0
0 0
0 0
0 0
0 0
0 0
0 0
0 0
0 0
0 0
0 0
0 0
0 0
0 0
0 0
0 0
0 0
0 0
0 0
0 0
0 0
0 0
0 0
0 0
0 0
0 0
0 0
0 0
0 0
0 0
0 0
0 0
0 0
0 0
0 0
0 0
0 0
0 0
0 0
0 0
0 0
0 0
0 0
0 0
0 0
0 0
0 0
0 0
0 0
0 0
0 0
0 0
0 0
0 0
0 0
0 0
0 0
0 0
0 0
0 0
0 0
0 0
0 0
0 0
0 0
0 0
0 0
0 0
0 0
0 0
0 0
0 0
0 0
0 0
0 0
0 0
0 0
0 0
0 0
0 0
0 0
0 0
0 0
0 0
0 0
0 0
0 0
0 0
0 0
0 0
0 0
0 0
0 0
0 0
0 0
0 0
0 0
0 0
0 0
0 0
0 0
0 0
0 0
0 0
0 0
0 0
0 0
0 0
0 0
0 0
0 0
0 0
0 0
0 0
0 0
0 0
0 0
0 0
0 0
0 0
0 0
0 0
0 0
0 0
0 0
0 0
0 0
0 0
0 0
0 0
0 0
0 0
0 0
0 0
0 0
0 0
0 0
0 0
0 0
0 0
0 0
0 0
0 0
0 0
0 0
0 0
0 0
0 0
0 0
0 0
0 0
0 0
0 0
0 0
0 0
0 0
0 0
0 0
0 0
0 0
0 0
0 0
0 0
0 0
0 0
0 0
0 0
0 0
0 0
0 0
0 0
0 0
0 0
0 0
0 0
0 0
0 0
0 0
0 0
0 0
0 0
0 0
0 0
0 0
0 0
0 0
0 0
0 0
0 0
0 0
0 0
0 0
0 0
0 0
0 0
0 0
0 0
0 0
0 0
0 0
0 0
0 0
0 0
0 0
0 0
0 0
0 0
0 0
0 0
0 0
0 0
0 0
0 0
0 0
0 0
0 0
0 0
0 0
0 0
0 0
0 0
0 0
0 0
0 0
0 0
0 0
0 0
0 0
0 0
0 0
0 0
0 0
0 0
0 0
0 0
0 0
0 0
0 0
0 0
0 0
0 0
0 0
0 0
0 0
0 0
0 0
0 0
0 0
0 0
0 0
0 0
0 0
0 0
0 0
0 0
0 0
0 0
0 0
0 0
0 0
0 0
0 0
0 0
0 0
0 0
0 0
0 0
0 0
0 0
0 0
0 0
0 0
0 0
0 0
0 0
0 0
0 0
0 0
0 0
0 0
0 0
0 0
0 0
0 0
0 0
0 0
0 0
0 0
0 0
0 0
0 0
0 0
0 0
0 0
0 0
0 0
0 0
0 0
0 0
0 0
0 0
0 0
0 0
0 0
0 0
0 0
0 0
0 0
0 0
0 0
0 0
0 0
0 0
0 0
0 0
0 0
0 0
0 0
0 0
0 0
0 0
0 0
0 0
0 0
0 0
0 0
0 0
0 0
0 0
0 0
0 0
0 0
0 0
0 0
0 0
0 0
0 0
0 0
0 0
0 0
0 0
0 0
0 0
0 0
0 0
0 0
0 0
0 0
0 0
0 0
0 0
0 0
0 0
0 0
0 0
0 0
0 0
0 0
0 0
0 0
0 0
0 0
0 0
0 0
0 0
0 0
0 0
0 0
0 0
0 0
0 0
0 0
0 0
0 0
0 0
0 0
0 0
0 0
0 0
0 0
0 0
0 0
0 0
0 0
0 0
0 0
0 0
0 0
0 0
0 0
0 0
0 0
0 0
0 0
0 0
0 0
0 0
0 0
0 0
0 0
0 0
0 0
0 0
0 0
0 0
0 0
0 0
0 0
0 0
0 0
0 0
0 0
0 0
0 0
0 0
0 0
0 0
0 0
0 0
0 0
0 0
0 0
0 0
0 0
0 0
0 0
0 0
0 0
0 0
0 0
0 0
0 0
0 0
0 0
0 0
0 0
0 0
0 0
0 0
0 0
0 0
0 0
0 0
0 0
0 0
0 0
0 0
0 0
0 0
0 0
0 0
0 0
0 0
0 0
0 0
0 0
0 0
0 0
0 0
0 0
0 0
0 0
0 0
0 0
0 0
0 0
0 0
0 0
0 0
0 0
0 0
0 0
0 0
0 0
0 0
0 0
0 0
0 0
0 0
0 0
0 0
0 0
0 0
0 0
0 0
0 0
0 0
0 0
0 0
0 0
0 0
0 0
0 0
0 0
0 0
0 0
0 0
0 0
0 0
0 0
0 0
0 0
0 0
0 0
0 0
0 0
0 0
0 0
0 0
0 0
0 0
0 0
0 0
0 0
0 0
0 0
0 0
0 0
0 0
0 0
0 0
0 0
0 0
0 0
0 0
0 0
0 0
0 0
0 0
0 0
0 0
0 0
0 0
0 0
0 0
0 0
0 0
0 0
0 0
0 0
0 0
0 0
0 0
0 0
0 0
0 0
0 0
0 0
0 0
0 0
0 0
0 0
0 0
0 0
0 0
0 0
0 0
0 0
0 0
0 0
0 0
0 0
0 0
0 0
0 0
0 0
0 0
0 0
0 0
0 0
0 0
0 0
0 0
0 0
0 0
0 0
0 0
0 0
0 0
0 0
0 0
0 0
0 0
0 0
0 0
0 0
0 0
0 0
0 0
0 0
0 0
0 0
0 0
0 0
0 0
0 0
0 0
0 0
0 0
0 0
0 0
0 0
0 0
0 0
0 0
0 0
0 0
0 0
0 0
0 0
0 0
0 0
0 0
0 0
0 0
0 0
0 0
0 0
0 0
0 0
0 0
0 0
0 0
0 0
0 0
0 0
0 0
0 0
0 0
0 0
0 0
0 0
0 0
0 0
0 0
0 0
0 0
0 0
0 0
0 0
0 0
0 0
0 0
0 0
0 0
0 0
0 0
0 0
0 0
0 0
0 0
0 0
0 0
0 0
0 0
0 0
0 0
0 0
0 0
0 0
0 0
0 0
0 0
0 0
0 0
0 0
0 0
0 0
0 0
0 0
0 0
0 0
0 0
0 0
0 0
0 0
0 0
0 0
0 0
0 0
0 0
0 0
0 0
0 0
0 0
0 0
0 0
0 0
0 0
0 0
0 0
0 0
0 0
0 0
0 0
0 0
0 0
0 0
0 0
0 0
0 0
0 0
0 0
0 0
0 0
0 0
0 0
0 0
0 0
0 0
0 0
0 0
0 0
0 0
0 0
0 0
0 0
0 0
0 0
0 0
0 0
0 0
0 0
0 0
0 0
0 0
0 0
0 0
0 0
0 0
0 0
0 0
0 0
0 0
0 0
0 0
0 0
0 0
0 0
0 0
0 0
0 0
0 0
0 0
0 0
0 0
0 0
0 0
0 0
0 0
0 0
0 0
0 0
0 0
0 0
0 0
0 0
0 0
0 0
0 0
0 0
0 0
0 0
0 0
0 0
0 0
0 0
0 0
0 0
0 0
0 0
0 0
0 0
0 0
0 0
0 0
0 0
0 0
0 0
0 0
0 0
0 0
0 0
0 0
0 0
0 0
0 0
0 0
0 0
0 0
0 0
0 0
0 0
0 0
0 0
0 0
0 0
0 0
0 0
0 0
0 0
0 0
0 0
0 0
0 0
0 0
0 0
0 0
0 0
0 0
0 0
0 0
0 0
0 0
0 0
0 0
0 0
0 0
0 0
0 0
0 0
0 0
0 0
0 0
0 0
0 0
0 0
0 0
0 0
0 0
0 0
0 0
0 0
0 0
0 0
0 0
0 0
0 0
0 0
0 0
0 0
0 0
0 0
0 0
0 0
0 0
0 0
0 0
0 0
0 0
0 0
0 0
0 0
0 0
0 0
0 0
0 0
0 0
0 0
0 0
0 0
0 0
0 0
0 0
0 0
0 0
0 0
0 0
0 0
0 0
0 0
0 0
0 0
0 0
0 0
0 0
0 0
0 0
0 0
0 0
0 0
0 0
0 0
0 0
0 0
0 0
0 0
0 0
0 0
0 0
0 0
0 0
0 0
0 0
0 0
0 0
0 0
0 0
0 0
0 0
0 0
0 0
0 0
0 0
0 0
0 0
0 0
0 0
0 0
0 0
0 0
0 0
0 0
0 0
0 0
0 0
0 0
0 0
0 0
0 0
0 0
0 0
0 0
0 0
0 0
0 0
0 0
0 0
0 0
0 0
0 0
0 0
0 0
0 0
0 0
0 0
0 0
0 0
0 0
0 0
0 0
0 0
0 0
0 0
0 0
0 0
0 0
0 0
0 0
0 0
0 0
0 0
0 0
0 0
0 0
0 0
0 0
0 0
0 0
0 0
0 0
0 0
0 0
0 0
0 0
0 0
0 0
0 0
0 0
0 0
0 0
0 0
0 0
0 0
0 0
0 0
0 0
0 0
0 0
0 0
0 0
0 0
0 0
0 0
0 0
0 0
0 0
0 0
0 0
0 0
0 0
0 0
0 0
0 0
0 0
0 0
0 0
0 0
0 0
0 0
0 0
0 0
0 0
0 0
0 0
0 0
0 0
0 0
0 0
0 0
0 0
0 0
0 0
0 0
0 0
0 0
0 0
0 0
0 0
0 0
0 0
0 0
0 0
0 0
0 0
0 0
0 0
0 0
0 0
0 0
0 0
0 0
0 0
0 0
0 0
0 0
0 0
0 0
0 0
0 0
0 0
0 0
0 0
0 0
0 0
0 0
0 0
0 0
0 0
0 0
0 0
0 0
0 0
0 0
0 0
0 0
0 0
0 0
0 0
0 0
0 0
0 0
0 0
0 0
0 0
0 0
0 0
0 0
0 0
0 0
0 0
0 0
0 0
0 0
0 0
0 0
0 0
0 0
0 0
0 0
0 0
0 0
0 0
0 0
0 0
0 0
0 0
0 0
0 0
0 0
0 0
0 0
0 0
0 0
0 0
0 0
0 0
0 0
0 0
0 0
0 0
0 0
0 0
0 0
0 0
0 0
0 0
0 0
0 0
0 0
0 0
0 0
0 0
0 0
0 0
0 0
0 0
0 0
0 0
0 0
0 0
0 0
0 0
0 0
0 0
0 0
0 0
0 0
0 0
0 0
0 0
0 0
0 0
0 0
0 0
0 0
0 0
0 0
0 0
0 0
0 0
0 0
0 0
0 0
0 0
0 0
0 0
0 0
0 0
0 0
0 0
0 0
0 0
0 0
0 0
0 0
0 0
0 0
0 0
0 0
0 0
0 0
0 0
0 0
0 0
0 0
0 0
0 0
0 0
0 0
0 0
0 0
0 0
0 0
0 0
0 0
0 0
0 0
0 0
0 0
0 0
0 0
0 0
0 0
0 0
0 0
0 0
0 0
0 0
0 0
0 0
0 0
0 0
0 0
0 0
0 0
0 0
0 0
0 0
0 0
0 0
0 0
0 0
0 0
0 0
0 0
0 0
0 0
0 0
0 0
0 0
0 0
0 0
0 0
0 0
0 0
0 0
0 0
0 0
0 0
0 0
0 0
0 0
0 0
0 0
0 0
0 0
0 0
0 0
0 0
0 0
0 0
0 0
0 0
0 0
0 0
0 0
0 0
0 0
0 0
0 0
0 0
0 0
0 0
0 0
0 0
0 0
0 0
0 0
0 0
0 0
0 0
0 0
0 0
0 0
0 0
0 0
0 0
0 0
0 0
0 0
0 0
0 0
0 0
0 0
0 0
0 0
0 0
0 0
0 0
0 0
0 0
0 0
0 0
0 0
0 0
0 0
0 0
0 0
0 0
0 0
0 0
0 0
0 0
0 0
0 0
0 0
0 0
0 0
0 0
0 0
0 0
0 0
0 0
0 0
0 0
0 0
0 0
0 0
0 0
0 0
0 0
0 0
0 0
0 0
0 0
0 0
0 0
0 0
0 0
0 0
0 0
0 0
0 0
0 0
0 0
0 0
0 0
0 0
0 0
0 0
0 0
0 0
0 0
0 0
0 0
0 0
0 0
0 0
0 0
0 0
0 0
0 0
0 0
0 0
0 0
0 0
0 0
0 0
0 0
0 0
0 0
0 0
0 0
0 0
0 0
0 0
0 0
0 0
0 0
0 0
0 0
0 0
0 0
0 0
0 0
0 0
0 0
0 0
0 0
0 0
0 0
0 0
0 0
0 0
0 0
0 0
0 0
0 0
0 0
0 0
0 0
0 0
0 0
0 0
0 0
0 0
0 0
0 0
0 0
0 0
0 0
0 0
0 0
0 0
0 0
0 0
0 0
0 0
0 0
0 0
0 0
0 0
0 0
0 0
0 0
0 0
0 0
0 0
0 0
0 0
0 0
0 0
0 0
0 0
0 0
0 0
0 0
0 0
0 0
0 0
0 0
0 0
0 0
0 0
0 0
0 0
0 0
0 0
0 0
0 0
0 0
0 0
0 0
0 0
0 0
0 0
0 0
0 0
0 0
0 0
0 0
0 0
0 0
0 0
0 0
0 0
0 0
0 0
0 0
0 0
0 0
0 0
0 0
0 0
0 0
0 0
0 0
0 0
0 0
0 0
0 0
0 0
0 0
0 0
0 0
0 0
0 0
0 0
0 0
0 0
0 0
0 0
0 0
0 0
0 0
0 0
0 0
0 0
0 0
0 0
0 0
0 0
0 0
0 0
0 0
0 0
0 0
0 0
0 0
0 0
0 0
0 0
0 0
0 0
0 0
0 0
0 0
0 0
0 0
0 0
0 0
0 0
0 0
0 0
0 0
0 0
0 0
0 0
0 0
0 0
0 0
0 0
0 0
0 0
0 0
0 0
0 0
0 0
0 0
0 0
0 0
0 0
0 0
0 0
0 0
0 0
0 0
0 0
0 0
0 0
0 0
0 0
0 0
0 0
0 0
0 0
0 0
0 0
0 0
0 0
0 0
0 0
0 0
0 0
0 0
0 0
0 0
0 0
0 0
0 0
0 0
0 0
0 0
0 0
0 0
0 0
0 0
0 0
0 0
0 0
0 0
0 0
0 0
0 0
0 0
0 0
0 0
0 0
0 0
0 0
0 0
0 0
0 0
0 0
0 0
0 0
0 0
0 0
0 0
0 0
0 0
0 0
0 0
0 0
0 0
0 0
0 0
0 0
0 0
0 0
0 0
0 0
0 0
0 0
0 0
0 0
0 0
0 0
0 0
0 0
0 0
0 0
0 0
0 0
0 0
0 0
0 0
0 0
0 0
0 0
0 0
0 0
0 0
0 0
0 0
0 0
0 0
0 0
0 0
0 0
0 0
0 0
0 0
0 0
0 0
0 0
0 0
0 0
0 0
0 0
0 0
0 0
0 0
0 0
0 0
0 0
0 0
0 0
0 0
0 0
0 0
0 0
0 0
0 0
0 0
0 0
0 0
0 0
0 0
0 0
0 0
0 0
0 0
0 0
0 0
0 0
0 0
0 0
0 0
0 0
0 0
0 0
0 0
0 0
0 0
0 0
0 0
0 0
0 0
0 0
0 0
0 0
0 0
0 0
0 0
0 0
0 0
0 0
0 0
0 0
0 0
0 0
0 0
0 0
0 0
0 0
0 0
0 0
0 0
0 0
0 0
0 0
0 0
0 0
0 0
0 0
0 0
0 0
0 0
0 0
0 0
0 0
0 0
0 0
0 0
0 0
0 0
0 0
0 0
0 0
0 0
0 0
0 0
0 0
0 0
0 0
0 0
0 0
0 0
0 0
0 0
0 0
0 0
0 0
0 0
0 0
0 0
0 0
0 0
0 0
0 0
0 0
0 0
0 0
0 0
0 0
0 0
0 0
0 0
0 0
0 0
0 0
0 0
0 0
0 0
0 0
0 0
0 0
0 0
0 0
0 0
0 0
0 0
0 0
0 0
0 0
0 0
0 0
0 0
0 0
0 0
0 0
0 0
0 0
0 0
0 0
0 0
0 0
0 0
0 0
0 0
0 0
0 0
0 0
0 0
0 0
0 0
0 0
0 0
0 0
0 0
0 0
0 0
0 0
0 0
0 0
0 0
0 0
0 0
0 0
0 0
0 0
0 0
0 0
0 0
0 0
0 0
0 0
0 0
0 0
0 0
0 0
0 0
0 0
0 0
0 0
0 0
0 0
0 0
0 0
0 0
0 0
0 0
0 0
0 0
0 0
0 0
0 0
0 0
0 0
0 0
0 0
0 0
0 0
0 0
0 0
0 0
0 0
0 0
0 0
0 0
0 0
0 0
0 0
0 0
0 0
0 0
0 0
0 0
0 0
0 0
0 0
0 0
0 0
0 0
0 0
0 0
0 0
0 0
0 0
0 0
0 0
0 0
0 0
0 0
0 0
0 0
0 0
0 0
0 0
0 0
0 0
0 0
0 0
0 0
0 0
0 0
0 0
0 0
0 0
0 0
0 0
0 0
0 0
0 0
0 0
0 0
0 0
0 0
0 0
0 0
0 0
0 0
0 0
0 0
0 0
0 0
0 0
0 0
0 0
0 0
0 0
0 0
0 0
0 0
0 0
0 0
0 0
0 0
0 0
0 0
0 0
0 0
0 0
0 0
0 0
0 0
0 0
0 0
0 0
0 0
0 0
0 0
0 0
0 0
0 0
0 0
0 0
0 0
0 0
0 0
0 0
0 0
0 0
0 0
0 0
0 0
0 0
0 0
0 0
0 0
0 0
0 0
0 0
0 0
0 0
0 0
0 0
0 0
0 0
0 0
0 0
0 0
0 0
0 0
0 0
0 0
0 0
0 0
0 0
0 0
0 0
0 0
0 0
0 0
0 0
0 0
0 0
0 0
0 0
0 0
0 0
0 0
0 0
0 0
0 0
0 0
0 0
0 0
0 0
0 0
0 0
0 0
0 0
0 0
0 0
0 0
0 0
0 0
0 0
0 0
0 0
0 0
0 0
0 0
0 0
0 0
0 0
0 0
0 0
0 0
0 0
0 0
0 0
0 0
0 0
0 0
0 0
0 0
0 0
0 0
0 0
0 0
0 0
0 0
0 0
0 0
0 0
0 0
0 0
0 0
0 0
0 0
0 0
0 0
0 0
0 0
0 0
0 0
0 0
0 0
0 0
0 0
0 0
0 0
0 0
0 0
0 0
0 0
0 0
0 0
0 0
0 0
0 0
0 0
0 0
0 0
0 0
0 0
0 0
0 0
0 0
0 0
0 0
0 0
0 0
0 0
0 0
0 0
0 0
0 0
0 0
0 0
0 0
0 0
0 0
0 0
0 0
0 0
0 0
0 0
0 0
0 0
0 0
0 0
0 0
0 0
0 0
0 0
0 0
0 0
0 0
0 0
0 0
0 0
0 0
0 0
0 0
0 0
0 0
0 0
0 0
0 0
0 0
0 0
0 0
0 0
0 0
0 0
0 0
0 0
0 0
0 0
0 0
0 0
0 0
0 0
0 0
0 0
0 0
0 0
0 0
0 0
0 0
0 0
0 0
0 0
0 0
0 0
0 0
0 0
0 0
0 0
0 0
0 0
0 0
0 0
0 0
0 0
0 0
0 0
0 0
0 0
0 0
0 0
0 0
0 0
0 0
0 0
0 0
0 0
0 0
0 0
0 0
0 0
0 0
0 0
0 0
0 0
0 0
0 0
0 0
0 0
0 0
0 0
0 0
0 0
0 0
0 0
0 0
0 0
0 0
0 0
0 0
0 0
0 0
0 0
0 0
0 0
0 0
0 0
0 0
0 0
0 0
0 0
0 0
0 0
0 0
0 0
0 0
0 0
0 0
0 0
0 0
0 0
0 0
0 0
0 0
0 0
0 0
0 0
0 0
0 0
0 0
0 0
0 0
0 0
0 0
0 0
0 0
0 0
0 0
0 0
0 0
0 0
0 0
0 0
0 0
0 0
0 0
0 0
0 0
0 0
0 0
0 0
0 0
0 0
0 0
0 0
0 0
0 0
0 0
0 0
0 0
0 0
0 0
0 0
0 0
0 0
0 0
0 0
0 0
0 0
0 0
0 0
0 0
0 0
0 0
0 0
0 0
0 0
0 0
0 0
0 0
0 0
0 0
0 0
0 0
0 0
0 0
0 0
0 0
0 0
0 0
0 0
0 0
0 0
0 0
0 0
0 0
0 0
0 0
0 0
0 0
0 0
0 0
0 0
0 0
0 0
0 0
0 0
0 0
0 0
0 0
0 0
0 0
0 0
0 0
0 0
0 0
0 0
0 0
0 0
0 0
0 0
0 0
0 0
0 0
0 0
0 0
0 0
0 0
0 0
0 0
0 0
0 0
0 0
0 0
0 0
0 0
0 0
0 0
0 0
0 0
0 0
0 0
0 0
0 0
0 0
0 0
0 0
0 0
0 0
0 0
0 0
0 0
0 0
0 0
0 0
0 0
0 0
0 0
0 0
0 0
0 0
0 0
0 0
0 0
0 0
0 0
0 0
0 0
0 0
0 0
0 0
0 0
0 0
0 0
0 0
0 0
0 0
0 0
0 0
0 0
0 0
0 0
0 0
0 0
0 0
0 0
0 0
0 0
0 0
0 0
0 0
0 0
0 0
0 0
0 0
0 0
0 0
0 0
0 0
0 0
0 0
      </DataArray> 
      <DataArray type="Float64" NumberOfComponents="2" Name="CauchyNormalStress" format="ascii">
15.7802 9.61506
14.3675 7.81415
15.2283 1.5721
7.8021 -0.375003
5.26716 0.0645347
3.2401 -0.0229551
2.10025 -0.17177
1.34189 -0.171353
0.463787 -0.0772174
-0.16888 -0.00734875
-0.664761 -0.0822371
-0.965489 -0.113431
-1.3931 -0.0597905
-1.66993 -0.00271623
-1.85361 -0.0660016
-1.89662 -0.0817234
-2.03277 -0.0304746
-2.04004 0.00721947
-1.95796 -0.0610284
-1.73113 -0.0821234
-1.59778 -0.0301216
-1.33359 0.00509465
-0.955069 -0.0764377
-0.384676 -0.110859
0.0671342 -0.0392234
0.708534 0.0247484
1.57175 -0.0817178
2.99317 -0.353381
4.35619 -0.505935
6.51398 -0.240138
13.6972 0.682514
-1.38241 1.7264
-1.82264 2.01328
-1.64634 3.70156
4.84634 12.6691
-1.27392 -0.0471132
-0.33436 0.0306608
-0.0731585 -0.208497
-0.1792 -0.408961
-0.172174 -0.485758
-0.0449382 -0.839525
-0.0302212 -0.948783
-0.0244265 -1.06848
-0.0700244 -1.10145
-0.109557 -1.21953
-0.124196 -1.02559
-0.135104 -1.12764
-0.17353 -1.09523
-0.235189 -1.1139
-0.295739 -1.01229
-0.34872 -1.00021
-0.397056 -0.827038
-0.48365 -0.874929
-0.0115992 -1.13974
-1.01047 -0.0741425
-1.20243 -0.0944519
-0.909487 -0.223132
-0.984328 -0.289018
-0.692595 -0.500969
-132.952 -341.304
-0.755377 -3.24223
-0.239035 -1.21699
-1.62738 -4.05855
-13.0803 -66.0143
-4.54198 -58.3326
0.0366299 -33.2564
-2.5846 -35.0167
-2.98982 -34.3848
-5.42468 -39.9466
29.4086 1.80326
-21.9744 -66.1604
-29.1306 -79.1636
-40.2105 -118.652
-13.2209 -65.5336
30.8255 0.830459
42.4358 17.1757
-32.9209 -12.3872
-120.844 -327.314
-4.85221 -58.5644
0.0263689 -33.6184
-2.67286 -35.2121
-2.99096 -34.4849
-5.40133 -39.9219
0.0286779 -1.45322
-0.735535 -3.19497
-0.364032 -1.21778
-2.14443 -3.61202
-1.37942 0.182672
-0.364235 -2.52225
-0.065355 -1.40722
-0.349898 -1.76151
-0.385303 -1.01631
-0.471261 -0.897488
-1.01469 1.79004
-1.00327 -0.0225353
-1.16839 -0.155527
-0.863105 -0.183238
-0.970503 -0.340904
-0.754047 -0.336152
-0.746484 -0.494948
-0.603565 -0.565546
-0.578595 -0.678442
-0.49708 -0.81409
-0.411655 -0.825549
-0.360503 -1.00531
-0.249331 -0.946427
-0.193609 -1.14165
-0.111058 -1.12376
-0.13384 -1.17936
-0.111107 -1.05425
-0.07092 -1.11819
-1.35994 2.76065
-0.497599 4.95982
5.27613 11.8285
-33.9835 -20.377
-20.6886 -53.048
-32.9243 -22.0402
-18.0807 -71.8113
-23.0952 -58.0978
-4.05626 -42.7655
-33.5886 -16.0642
8.90215 -47.3329
2.72421 -7.00127
1.85941 -7.18372
-6.0558 -73.6434
-6.3934 -75.7564
4.27332 -17.5547
1.69253 -8.25994
0.810201 -35.7773
0.932313 -31.255
-0.481589 -35.9725
1.81444 -27.3061
1.12567 -31.7617
-3.18712 -30.237
-0.376827 -30.386
-0.876687 -32.8975
-4.30762 -32.4875
2.61877 -25.1918
3.36113 -24.0585
2.8848 -32.7997
-17.283 -10.7146
-17.9992 -10.7199
-19.1277 -11.8155
1.63321 -38.0853
2.26038 -28.9919
-9.88526 -33.5731
-9.44235 -31.5481
-0.532367 -42.4259
-2.77447 -40.9041
-7.67565 -35.9995
-8.62973 -38.6264
-0.699163 -39.3448
-13.2492 -8.75151
-15.7823 -9.31121
-14.6458 -9.41211
1.45501 -24.2693
1.98106 -25.5819
-14.7953 -15.1365
-9.74453 -22.8675
-2.11785 -26.2636
0.751967 -22.8496
0.535264 -24.4469
-2.22219 -28.3866
-10.392 -24.5118
-15.7551 -15.7388
3.03379 -21.0723
4.1616 -29.2704
-24.6034 -18.2175
-23.9382 -14.509
-20.0987 -11.6577
-21.0582 -15.9381
5.23678 -30.2735
5.63894 -36.4438
4.55442 -35.239
3.64627 -29.0461
3.61216 -22.6887
3.18365 -20.1345
-25.7808 -20.8796
-14.7798 -30.535
-14.2697 -28.4528
-25.5519 -29.2543
4.13303 -45.0529
0.340614 -57.0594
-9.36734 -42.5733
-1.83093 -45.0351
4.98017 -41.4691
-11.9147 -8.53362
-13.6252 -8.70218
-13.6109 -8.35729
-13.9775 -8.62963
-11.4197 -7.26761
-11.0516 -7.14946
-10.5736 -6.82214
-12.0947 -8.10782
1.9239 -20.6538
2.65923 -18.7341
2.81699 -18.2818
1.98243 -21.2414
-11.2553 -8.59555
-11.7817 -9.81199
-12.0167 -14.7534
-9.26423 -17.6182
-4.44134 -20.7489
-1.46126 -22.432
-2.08337 -23.5887
-5.17309 -21.9996
-10.0406 -18.8483
-12.407 -15.2782
-12.4766 -9.41134
-11.6673 -8.27196
2.9119 -17.7287
4.5951 -23.1253
-32.6363 -26.2591
-27.0486 -15.1992
-29.3791 -18.4963
6.73395 -30.4614
6.73629 -34.2601
4.24296 -22.8369
2.81476 -16.0786
-26.0286 -33.1006
-26.1179 -42.7484
7.17388 -48.883
-12.3686 -50.7322
-26.5806 -52.7446
-9.99066 -44.1153
2.40101 -50.3784
-8.3239 -5.95166
-9.51385 -6.63228
-9.67006 -6.56481
-8.45066 -5.83276
-7.87633 -5.68438
-7.89377 -5.57398
2.26928 -17.0838
1.91064 -16.8113
-8.22799 -7.31581
-6.13822 -12.2246
-0.565476 -17.3596
-1.50087 -18.1029
-6.71009 -12.5048
-8.21524 -6.76664
1.95185 -11.1091
2.41367 -12.865
2.86891 -15.3687
3.40097 -15.7142
4.74929 -17.249
6.18355 -22.569
-28.1206 -41.6465
-34.5599 -16.2655
-31.3505 -28.6613
7.47518 -28.5903
7.62912 -30.307
6.27214 -24.9781
4.83209 -20.3212
3.74329 -17.3254
2.49845 -13.3831
1.8029 -9.86389
-31.06 -45.5826
-31.2523 -60.1926
8.49404 -36.2391
7.75197 -65.8747
-29.7731 -69.9043
8.81016 -49.0613
8.26762 -34.0789
-17.1272 -57.0755
4.88233 -59.9506
-4.29522 -4.15954
-4.69166 -3.97515
-5.89709 -4.81761
-5.05467 -4.78688
-6.86609 -4.91515
-6.36465 -4.96864
-6.53161 -4.53295
-6.53061 -4.63925
-5.26487 -4.03146
-5.61197 -4.0173
-4.93735 -4.40263
-5.65489 -4.34243
-4.01698 -3.7182
-4.49805 -4.06174
2.05773 -15.2437
2.24047 -14.7982
2.33558 -12.9102
1.69924 -9.61688
2.35307 -12.4751
2.11426 -15.2671
1.03549 -16.3217
-5.54999 -5.16444
-4.32922 -6.89891
-1.78489 -10.7373
0.432373 -13.053
-1.12017 -14.2531
-2.66075 -11.1498
-5.01816 -6.70164
-5.12263 -4.44901
0.747477 -5.09621
1.57149 -8.85976
2.11474 -9.93592
3.13128 -12.0297
4.32537 -14.4853
0.860502 -94.2847
-26.627 -14.2234
-15.9988 -1.91059
-27.3237 -10.9472
-3.50005 -86.2209
6.50515 -22.5052
6.2628 -21.5188
4.36219 -15.7505
2.64633 -12.6224
0.899386 -5.92158
1.64556 -121.439
-9.64647 -93.0234
1.08984 -117.328
-4.26875 -99.626
6.69025 -38.0732
-17.1749 -97.0303
-56.4126 -113.417
6.50143 -31.4132
-54.0245 -99.6753
-4.52109 -76.9197
-0.504644 -2.3364
-2.00471 -3.12288
-3.62801 -3.11975
-4.15191 -2.90849
-3.80468 -2.74058
-2.59994 -2.80065
-0.59348 -2.54259
3.2876 -10.4795
1.24938 -6.71125
1.71622 -7.47049
2.33971 -11.4678
-0.284763 -2.94249
3.52223 -8.31612
5.05976 -7.15745
3.91962 -8.89658
1.41366 -9.21546
-0.420498 -2.75747
0.76399 -3.12199
0.738156 -4.08686
0.183678 -2.25501
0.500295 -3.80107
0.471048 -3.80312
0.9196 -5.80668
0.794778 -4.94914
1.19222 -6.19064
1.25901 -6.13098
1.43711 -6.41164
1.21113 -5.64222
-23.987 -39.8503
-12.5502 -4.03342
-11.3267 -3.61096
-24.7145 -27.9731
2.50232 -8.78705
3.10869 -10.5343
3.31759 -11.7688
2.28613 -9.94725
2.85084 -16.2134
2.67274 -14.6276
2.41008 -10.3935
3.01688 -10.9084
3.06232 -10.4272
2.38412 -8.55573
2.38471 -8.70924
1.80258 -7.38829
1.07532 -5.49442
1.28711 -6.51401
0.353585 -3.51734
0.490182 -3.55865
0.444745 -3.62753
0.319133 -3.01854
1.33842 -65.6113
1.55035 -87.4085
-1.44234 -116.682
1.10097 -63.7876
1.01513 -111.733
0.634685 -84.0626
0.9477 -19.5155
-3.48079 -17.6497
-2.41368 -136.452
1.72998 -19.139
3.59626 -91.9859
-1.01244 -24.7341
2.63643 -1.27868
5.89486 1.84008
3.22004 -1.7988
0.488168 -1.5812
1.39602 -1.56271
-0.672326 -1.66964
-1.85043 -1.61133
-1.35326 -1.5765
-2.42063 -1.56739
-2.90254 -1.53926
-2.71019 -1.4997
-2.88739 -1.4024
-2.81693 -1.41231
-2.90739 -1.36236
-2.45235 -1.38574
-1.74103 -1.43076
-2.17231 -1.35847
-0.909322 -1.46093
0.899286 -1.59755
-0.226049 -1.41947
2.34619 -1.02144
6.49087 1.28233
3.04597 -1.14382
0.188017 -1.81407
0.190676 -2.10903
0.405244 -2.81324
0.346662 -2.68558
1.85133 -6.57717
3.78776 -2.1097
2.24408 -6.496
3.51896 -7.71872
2.99661 -2.95748
6.38312 0.0702785
4.04269 -4.25007
2.96445 -5.10803
5.70138 0.139514
0.271431 -1.33256
0.234575 -1.19972
0.320164 0.402386
0.538703 -0.684155
0.42474 -0.778903
0.19417 0.0991133
2.55227 1.50876
12.1515 5.08007
3.08427 1.60541
2.83733 0.118297
3.12753 -0.176944
9.6025 1.77877
5.85053 -4.63833
7.30147 -1.63865
1.0383 -2.12774
1.26792 -2.25954
-0.432985 -5.35124
0.54109 -5.4914
2.73016 -10.523
2.36583 -10.1902
0.775881 -5.11
0.405262 -3.36711
-0.313181 -1.6234
-1.50526 -2.84781
-3.22616 -2.72817
-3.96116 -2.74034
-3.97731 -3.02458
-2.85157 -3.15529
-0.742171 -3.0311
-1.87602 -1.69616
6.43814 -44.2108
4.53774 -56.9336
8.03723 -96.56
8.70202 -99.5473
1.02754 -6.17845
3.02008 -12.3026
5.42979 -18.0372
5.46207 -21.0583
6.75239 -26.8897
5.53074 -18.3354
-25.604 -29.9073
-22.7822 -40.4675
3.14527 -11.1456
2.66861 -11.3914
2.10468 -10.7044
1.12936 -6.73161
1.91803 -12.556
3.78073 -11.1181
-31.2313 -70.2741
-33.5176 -83.7864
-30.3756 -9.45999
-9.178 -8.43538
-4.49777 -16.2872
-3.56701 -15.4399
-8.96916 -8.98834
0.948158 -19.8647
2.43141 -14.0359
2.61022 -15.2996
1.53882 -19.1665
-7.44054 -5.47367
-8.32371 -5.8735
-7.44672 -5.33914
-9.26323 -6.28444
-9.96604 -6.7659
-9.05644 -6.43404
-7.69615 -5.7666
-5.30509 -48.487
7.63896 -44.1981
5.13909 -62.7392
7.37441 -38.2963
-31.6377 -39.233
-33.0786 -27.6776
3.31926 -17.993
5.43575 -28.0445
-22.3862 -13.0599
-31.4085 -20.2721
5.66115 -23.8407
3.48503 -20.0155
-14.4413 -39.579
-14.1111 -37.1038
-15.8514 -10.6163
-15.5418 -21.4719
-5.49438 -27.6198
-4.91052 -25.9195
-14.8687 -19.91
-14.7423 -10.9959
3.02693 -22.4732
2.48338 -22.1573
-13.6299 -8.31877
-17.9198 -10.3736
1.49006 -41.5659
-4.23063 -47.7116
1.83818 -34.6163
2.81735 -37.3636
0.753095 -28.8816
0.464072 -26.4781
-2.82042 -37.1987
-1.28788 -34.3642
3.09161 -28.1907
3.73204 -141.903
-2.58095 -1.77377
-15.5145 -33.3349
-6.22029 -30.411
-4.56707 -3.94584
5.79749 -62.3355
-1.91028 -2.50191
-24.3994 -191.967
-16.5821 -59.4702
-2.85402 -3.36414
-8.6576 -34.1063
2.45157 -88.8092
-0.179443 -98.6949
-14.0232 -98.3296
-12.599 -80.1185
-7.96068 -155.695
-7.84377 -42.3588
-12.8321 -46.5722
-8.7568 -68.5166
4.00715 -89.8725
3.47676 -99.0322
0.804402 -72.5561
-4.71853 -62.9829
-3.56627 -53.9236
-17.3667 -51.0231
-22.6506 -63.3236
-1.12321 -49.2297
3.26161 -81.4283
-0.1834 -103.338
-11.5162 -82.8908
-14.0938 -103.899
-8.42923 -70.3593
-7.8747 -42.4042
-12.8079 -46.7049
-13.4409 -172.227
2.86101 -101.883
4.62803 -93.3191
1.30168 -74.9931
-3.4817 -54.9528
-4.42213 -64.5915
-1.01932 -50.199
-17.4177 -51.3926
-22.6403 -64.4465
3.7237 -84.1421
-15.6656 -10.6257
2.05149 -5.91024
9.56438 3.10082
7.40087 -0.721717
-85.4356 -164.481
-40.8086 -120.365
-62.9211 -92.6468
-24.5866 -30.9483
-17.8118 -14.2243
-16.9158 -13.0262
7.68569 1.86417
0.695457 -6.0055
-62.7362 -104.14
-84.2181 -166.98
-33.7301 -13.8482
7.16572 -1.1055
-17.4505 -18.3241
-23.3914 -41.8971
-27.3243 -86.3652
-24.3782 -122.397
1.66389 -93.1116
-87.9415 -139.473
7.49592 -67.7864
-29.5756 -67.6753
-39.3529 -82.5807
-50.2998 -104.602
-10.7388 -121.406
-61.1812 -138.343
4.37648 -89.6773
-88.4361 -145.857
-44.7227 -96.8679
-39.8369 -85.991
-25.4763 -110.232
-23.7428 -136.22
-3.85206 -107.617
1.86093 -100.472
-18.5293 -92.4424
-28.2656 -96.632
-7.61367 -105.843
-34.394 -122.899
0.14687 -98.9188
-21.1253 -80.9182
3.48726 -104.494
-14.3727 -67.6256
-6.93914 -79.5473
-17.1188 -59.8697
-26.1729 -165.198
6.36673 -107.056
1.99144 -94.3925
-22.054 -5.88245
-12.4889 -2.78151
-20.1625 -9.4544
5.79564 -1.40179
-25.9565 -19.206
-28.3753 -9.86052
-23.9151 -6.62183
-21.7188 -7.55989
-20.7282 -11.9264
-13.1356 -3.18493
-24.6493 -25.0697
-28.029 -11.3703
4.40387 -107.502
-5.21087 -86.1007
-9.97178 -78.0615
-24.7775 -160.944
-12.7333 -70.3089
3.62561 -96.36
5.6775 -104.296
-27.2963 -59.809
-16.3513 -69.6654
-5.1129 -61.2833
-11.1219 -52.8554
-33.529 -76.6415
-17.7122 -79.2194
-0.338852 -79.8103
-3.76988 -69.3306
-29.7079 -61.4059
-22.0887 -54.8287
-15.393 -48.1414
-20.5072 -46.106
-25.6776 -42.9407
-28.8778 -39.564
-29.7159 -49.5722
-29.6728 -30.2141
-31.7496 -36.9201
-30.2893 -57.262
-20.5692 -36.4174
-29.196 -41.1708
-28.9204 -34.483
-25.4301 -35.9443
-20.0801 -33.0753
-20.393 -24.9923
-20.1516 -40.0791
-29.4847 -24.7561
-25.6656 -26.8672
-20.9307 -27.6481
-20.8385 -20.8567
-31.2261 -22.9326
-27.4943 -19.5279
-24.0799 -16.883
-25.9326 -16.0109
-27.6026 -17.5717
-29.1248 -17.4186
-25.4381 -14.7434
-22.5442 -12.9369
-24.6692 -14.0396
-21.0045 -12.3322
-24.8587 -23.4822
-29.1964 -27.601
-28.8295 -22.7775
-31.9166 -32.5071
-31.9539 -22.9697
-27.9205 -19.0707
-19.8543 -18.6858
-24.0811 -16.1844
-20.6931 -12.6903
-15.962 -10.7415
-17.4542 -10.5373
-20.9961 -14.3512
-19.8759 -15.0552
-19.471 -78.9301
-4.95886 -98.7624
-18.5916 -100.718
2.57077 -90.2012
-29.1318 -78.8699
-21.901 -65.9489
-10.3909 -68.2989
0.535908 -50.3719
-2.11364 -72.4143
-3.28585 -52.7964
-27.2008 -72.2865
-36.5025 -57.1023
-3.09485 -51.6826
-2.10206 -70.4533
0.427902 -49.408
2.28956 -87.307
-27.607 -69.8792
-35.5731 -58.5398
-10.0344 -67.6093
-18.632 -98.8351
-4.80639 -95.8836
-19.1555 -77.8287
41.4903 20.492
30.8925 1.47034
-32.2454 -22.042
-30.7546 -14.3931
-29.1624 -19.0926
-31.9672 -12.1823
-28.0514 -29.5934
-32.3702 -28.3465
-33.4217 -21.8337
-27.6333 -43.8963
-27.044 -50.7499
-31.1985 -37.7408
-27.0202 -64.6064
-24.0527 -45.6298
-5.72871 -88.4166
-17.5215 -74.9158
-12.9223 -70.212
-8.05373 -81.4721
-13.0385 -85.537
-1.31734 -94.9379
-24.6369 -77.5332
-19.5555 -58.3003
-29.2482 -51.8976
-24.4894 -64.9907
-23.6237 -57.9125
-32.2461 -71.2741
-24.9498 -41.7685
-29.8996 -40.4518
-30.6086 -50.2284
-32.9451 -24.8279
-33.5475 -18.603
-33.612 -20.8072
-31.8167 -15.2186
-32.8944 -13.8142
-33.4018 -19.024
-32.1227 -30.3651
-27.1898 -26.7008
-30.1542 -19.4405
-30.551 -30.9581
-26.6944 -56.6362
-24.2044 -61.505
-31.7938 -65.2694
-11.8414 -63.0697
-28.6554 -51.306
-23.6678 -47.8273
-16.9808 -44.8814
-30.8155 -18.1445
-31.7764 -19.5596
-28.1441 -16.9278
-33.2624 -23.9349
-32.7249 -20.0474
-33.8566 -15.7839
-33.8666 -18.6415
-34.1134 -17.7395
-7.98741 -18.0664
-5.0014 -23.9877
-4.62483 -12.1257
-2.2359 -49.6094
-0.4637 -37.0506
-2.95229 -10.2671
-4.34218 -2.90912
-6.76785 -2.03388
-11.0307 -19.0326
-8.28491 -82.1504
-4.3475 -63.2202
-11.0344 -43.8944
4.2721 -69.3565
-16.6337 -30.5248
-8.53519 -93.8574
2.3421 -105.683
-44.4854 -256.433
-50.2579 -59.1167
-29.6698 -111.398
-5.28247 -126.29
-26.8789 -118.691
-70.1501 -222.343
-50.2283 -55.9236
-54.6186 -269.156
-29.4187 -121.518
-27.6343 -129.867
-7.55469 -133.576
-67.5393 -239.959
-53.6753 -128.967
-39.9911 -153.831
-15.1758 -140.771
-121.62 -217.169
-51.7399 -213.112
1.92617 -107.246
-7.74225 -114.815
-42.894 -108.456
-64.9376 -117.961
3.91123 -79.7081
6.05771 -66.7429
5.34034 -78.0307
6.42874 -51.5013
6.77622 -57.0088
2.28183 -73.1241
-2.75396 -85.6189
1.39748 -96.5781
5.04239 -73.1524
-28.754 -76.2293
-35.2521 -75.1587
-35.3364 -84.1292
-31.3227 -69.3911
-34.9335 -76.5095
-44.2028 -91.4026
-42.6344 -93.1743
-14.7175 -82.1605
-20.9326 -77.8794
-1.30574 -102.671
2.10743 -91.9396
-2.30139 -107.048
4.5288 -74.6872
-8.55491 -133.743
-15.3096 -109.273
-4.92611 -94.2013
-45.7581 -167.187
-70.4073 -172.823
-83.5873 -140.463
-95.9785 -263.202
-123.627 -228.083
-63.629 -129.185
-65.4634 -123.09
-28.764 -145.101
-11.8333 -163.573
-50.9336 -100.662
-45.3801 -91.5501
-42.2768 -94.4326
-36.8391 -89.4582
-39.1361 -85.2059
-29.2868 -91.1359
-33.5912 -101.502
-58.6727 -109.674
-47.5039 -104.838
-47.4393 -142.926
-41.7378 -155.13
-20.0803 -150.766
-10.0831 -125.925
-40.5548 -125.045
-40.1902 -112.246
-35.3555 -103.751
-31.2219 -96.7559
-12.4703 -102.695
-28.39 -146.259
-53.7694 -155.101
-59.8008 -127.652
-47.0911 -111.018
-16.9817 -124.96
-41.7947 -99.2745
-34.8472 -89.7116
-18.3689 -93.6775
-30.2783 -83.1381
-10.8571 -72.8836
-5.16586 -69.019
-10.9478 -65.4257
-11.189 -59.2442
-5.34237 -54.9139
-16.7491 -63.4729
0.695077 -85.6617
3.95707 -73.7097
6.59555 -75.9551
2.8439 -70.3481
5.92372 -64.7863
6.03378 -62.6332
-7.53961 -87.7677
-10.2221 -74.3848
-2.64851 -74.7605
-8.5058 -79.777
0.926875 -66.4378
-17.6062 -87.7211
-24.9755 -74.352
-14.0491 -70.6693
-1.28059 -62.8007
-8.22659 -66.1156
-16.9742 -58.2455
-20.7105 -66.9264
2.23061 -60.1072
-5.62516 -60.4496
-7.52282 -55.0465
-2.44729 -52.4373
0.224422 -60.6966
3.16275 -55.3726
-1.12247 -55.5887
6.54654 -51.3204
5.2607 -47.4894
-1.34293 -49.4515
0.915412 -67.7308
0.0369653 -48.0009
-3.37273 -27.4609
1.4894 -44.2387
-4.71401 -15.3776
-2.00641 -12.8903
2.83936 -35.1622
-3.28454 -61.5704
-9.24821 -15.3678
-5.52491 -14.2943
-10.4859 -32.4653
-4.4551 -0.723637
-5.85731 -63.6653
-13.2196 -15.0669
-7.84945 -4.855
-17.4896 -49.2863
-27.4019 -22.0686
-10.7847 -82.7865
-7.58706 0.449195
-11.7895 -1.92021
0.364433 -22.0775
-0.887636 -12.8502
0.514394 -9.96653
-29.1759 26.2166
-63.9325 -101.672
0.737357 -10.2325
3.71385 -31.9864
-24.5908 -54.7683
-11.2156 -107.108
-32.7838 -36.4728
-9.71252 0.768294
-15.6342 7.9431
-1.90898 -19.8983
0.112282 -10.0269
-1.47474 -9.67028
0.540647 -10.371
-27.0049 53.1073
-64.2265 -85.7797
2.80585 -36.396
1.14675 -6.08175
0.332206 -3.10637
0.43123 -3.61228
0.276113 -3.04922
-0.0181824 -0.953602
-0.100149 -0.789029
0.50791 -3.68743
2.10828 -9.42307
2.06765 -8.80847
1.43054 -6.42937
0.573186 -3.85117
0.155393 -2.97712
0.43632 -3.78192
-0.182388 -0.468579
-0.140377 -0.530319
2.4139 -9.87478
2.3861 -8.64137
0.703248 -4.27645
0.640062 -4.30186
0.478184 -4.18052
-0.0394133 -0.296255
-0.194042 -0.0106173
0.777877 -4.39081
3.87573 -13.4215
3.98816 -12.9584
2.69139 -9.69233
0.958046 -5.08008
0.754993 -4.28409
1.11865 -5.22526
-0.703031 -0.658769
-0.710795 -0.529187
4.20669 -14.4573
2.7601 -10.7146
0.794178 -5.4602
1.18899 -5.60972
1.00031 -5.58947
-0.982081 -0.344769
-0.918661 -0.298679
1.00157 -5.47572
4.30903 -15.6963
3.82693 -15.8054
2.53024 -12.6932
1.18116 -7.98355
1.14382 -5.73036
1.26881 -7.77922
-1.18525 -0.157634
-1.015 -0.136691
4.1663 -17.9505
2.52232 -13.3221
1.04549 -5.4304
1.31014 -8.74234
0.941624 -5.40334
-0.69287 -0.684097
-0.467984 -0.87753
1.31737 -8.33273
4.86949 -21.5564
4.43272 -18.3075
2.84533 -10.9481
1.35476 -6.07076
0.743293 -5.27765
1.12749 -5.90211
-0.375361 -1.00938
-0.365871 -1.75505
5.03641 -18.87
2.77508 -9.76725
0.763439 -4.36792
0.963625 -5.183
0.664992 -4.30256
-0.0606599 -1.29538
-0.471112 -2.47248
1.14355 -5.30358
4.32238 -14.5275
4.09176 -13.3187
1.29141 -6.11636
0.348662 -3.36994
0.269114 -2.96031
0.466777 -3.44794
-0.548309 -0.744542
-0.620757 -0.712289
0.110611 -2.91988
2.22128 -8.23146
2.26677 -8.83088
1.20396 -6.23431
0.387902 -3.46626
0.427281 -3.38885
0.447138 -3.5225
-0.731807 -0.481089
-0.794491 -0.42457
0.364578 -3.34882
2.0066 -8.65166
1.91618 -8.7947
-1.03519 -0.229647
0.252294 -2.94068
0.302978 -3.03064
0.311277 -3.05916
1.46492 -7.69662
-0.881986 -0.189462
-26.8142 -102.575
-8.09279 -105.111
-11.8472 -90.646
4.41772 -23.139
4.26934 -25.5094
2.17298 -17.1562
6.6012 -37.0688
6.06302 -25.8762
-30.1477 -112.405
-32.4891 -129.571
-53.5087 -118.589
4.67982 -26.8795
1.71622 -18.7803
3.91966 -28.2325
5.56718 -46.9546
6.68208 -32.6315
-24.7132 -124.688
-11.103 -114.793
-29.3588 -109.86
-15.9367 -109.79
2.80423 -12.5613
2.02129 -9.4402
1.13602 -6.48038
1.7983 -9.37485
3.38597 -12.1618
2.0983 -8.0447
3.08055 -11.5801
3.68036 -14.0937
4.84731 -17.0052
4.55072 -16.385
3.03305 -10.7992
4.7786 -15.6084
5.77389 -20.0199
5.84948 -21.4911
4.89025 -16.1848
3.1942 -11.3261
4.9041 -17.2773
6.57638 -25.0729
5.90771 -20.6001
2.16752 -9.12443
1.32187 -6.38973
2.34413 -9.06801
3.12576 -11.7069
2.8838 -11.7989
1.44407 -7.43585
0.967943 -5.64236
1.68434 -7.98657
2.36894 -10.6973
2.09343 -10.387
-22.8627 -68.9557
-23.3881 -62.4108
8.7592 -40.7875
7.50844 -40.8151
7.33934 -33.1463
7.45762 -47.4594
6.74232 -27.8778
8.03344 -39.5739
7.84416 -47.1147
-29.0874 -83.1118
-33.0908 -77.1275
3.39778 -14.7366
3.17365 -15.0303
3.03188 -15.2527
3.55296 -17.728
5.45601 -22.6399
5.35368 -20.2783
4.58936 -18.0766
5.885 -21.6217
3.94062 -16.2957
5.19914 -24.0579
5.86454 -26.6037
7.80771 -32.5292
7.37058 -27.2766
6.95568 -26.237
6.65057 -23.8115
7.8243 -36.7655
7.91931 -32.5492
7.00904 -25.5646
7.59427 -29.0539
6.58696 -23.2295
7.73224 -31.6974
7.9402 -37.3097
7.41739 -33.3602
5.40637 -19.9853
4.5357 -15.9269
5.32484 -18.3533
4.00639 -14.0464
3.67826 -12.863
4.85921 -16.5242
5.86783 -20.513
5.92414 -23.2377
5.24767 -20.4181
3.05437 -13.4747
2.74825 -12.8328
2.71538 -13.2971
3.46159 -17.8077
8.49161 -57.0367
7.04506 -55.1044
5.45932 -64.6298
4.56155 -21.6331
4.25044 -18.8457
4.03221 -20.0173
3.7429 -20.45
4.74005 -25.4769
7.22781 -32.364
6.81606 -27.7079
6.59365 -29.3982
5.96037 -31.1954
7.0639 -39.2257
6.48958 -26.3956
6.75372 -25.6937
7.11255 -29.545
7.04453 -34.3684
6.16646 -27.2063
6.08754 -43.0185
3.85792 -45.7441
1.6983 -46.0349
3.37356 -41.5849
2.54185 -50.6925
5.38391 -47.1111
3.85558 -53.3835
5.72801 -41.8361
7.32886 -43.3949
6.40964 -55.3816
0.102035 -46.6724
4.56588 -28.6029
3.9997 -25.8439
3.1886 -25.8136
2.82587 -31.7415
4.696 -38.4545
5.82078 -37.7949
5.66533 -34.8101
5.05936 -31.5159
3.08276 -38.3418
5.39119 -33.4202
5.98806 -30.4003
6.14232 -33.4446
5.47102 -26.9924
6.43099 -37.4249
4.32911 -36.9813
4.05986 -33.7613
5.10981 -23.5118
4.92819 -26.7211
3.90567 -25.6453
3.95624 -21.5994
4.95193 -40.5485
3.26081 -41.366
3.96723 -32.1923
3.25397 -34.9369
4.50539 -17.4736
3.75116 -14.6578
3.89613 -14.7227
3.45194 -14.5326
4.94221 -20.759
4.02534 -19.4554
3.81271 -16.688
4.46354 -20.2479
3.14678 -10.6608
2.16128 -8.04296
3.41355 -11.7186
0.407376 -3.57381
2.48675 -9.23093
0.10512 -2.86568
0.399488 -3.56213
1.5274 -6.42014
-1.20011 -0.146421
-0.996717 -0.0697438
8.37823 -55.8379
7.89555 -42.9355
7.08557 -52.6003
7.79809 -37.0826
7.10937 -55.5846
7.76736 -42.6811
8.61149 -41.766
7.93811 -48.2984
0 0
0 0
0 0
0 0
0 0
0 0
0 0
0 0
0 0
0 0
0 0
0 0
0 0
0 0
0 0
0 0
0 0
0 0
0 0
0 0
0 0
0 0
0 0
0 0
0 0
0 0
0 0
0 0
0 0
0 0
0 0
0 0
0 0
0 0
0 0
0 0
0 0
0 0
0 0
0 0
0 0
0 0
0 0
0 0
0 0
0 0
0 0
0 0
0 0
0 0
0 0
0 0
0 0
0 0
0 0
0 0
0 0
0 0
0 0
0 0
0 0
0 0
0 0
0 0
0 0
0 0
0 0
0 0
0 0
0 0
0 0
0 0
0 0
0 0
0 0
0 0
0 0
0 0
0 0
0 0
0 0
0 0
0 0
0 0
0 0
0 0
0 0
0 0
0 0
0 0
0 0
0 0
0 0
0 0
0 0
0 0
0 0
0 0
0 0
0 0
0 0
0 0
0 0
0 0
0 0
0 0
0 0
0 0
0 0
0 0
0 0
0 0
0 0
0 0
0 0
0 0
0 0
0 0
0 0
0 0
0 0
0 0
0 0
0 0
0 0
0 0
0 0
0 0
0 0
0 0
0 0
0 0
0 0
0 0
0 0
0 0
0 0
0 0
0 0
0 0
0 0
0 0
0 0
0 0
0 0
0 0
0 0
0 0
0 0
0 0
0 0
0 0
0 0
0 0
0 0
0 0
0 0
0 0
0 0
0 0
0 0
0 0
0 0
0 0
0 0
0 0
0 0
0 0
0 0
0 0
0 0
0 0
0 0
0 0
0 0
0 0
0 0
0 0
0 0
0 0
0 0
0 0
0 0
0 0
0 0
0 0
0 0
0 0
0 0
0 0
0 0
0 0
0 0
0 0
0 0
0 0
0 0
0 0
0 0
0 0
0 0
0 0
0 0
0 0
0 0
0 0
0 0
0 0
0 0
0 0
0 0
0 0
0 0
0 0
0 0
0 0
0 0
0 0
0 0
0 0
0 0
0 0
0 0
0 0
0 0
0 0
0 0
0 0
0 0
0 0
0 0
0 0
0 0
0 0
0 0
0 0
0 0
0 0
0 0
0 0
0 0
0 0
0 0
0 0
0 0
0 0
0 0
0 0
0 0
0 0
0 0
0 0
0 0
0 0
0 0
0 0
0 0
0 0
0 0
0 0
0 0
0 0
0 0
0 0
0 0
0 0
0 0
0 0
0 0
0 0
0 0
0 0
0 0
0 0
0 0
0 0
0 0
0 0
0 0
0 0
0 0
0 0
0 0
0 0
0 0
0 0
0 0
0 0
0 0
0 0
0 0
0 0
0 0
0 0
0 0
0 0
0 0
0 0
0 0
0 0
0 0
0 0
0 0
0 0
0 0
0 0
0 0
0 0
0 0
0 0
0 0
0 0
0 0
0 0
0 0
0 0
0 0
0 0
0 0
0 0
0 0
0 0
0 0
0 0
0 0
0 0
0 0
0 0
0 0
0 0
0 0
0 0
0 0
0 0
0 0
0 0
0 0
0 0
0 0
0 0
0 0
0 0
0 0
0 0
0 0
0 0
0 0
0 0
0 0
0 0
0 0
0 0
0 0
0 0
0 0
0 0
0 0
0 0
0 0
0 0
0 0
0 0
0 0
0 0
0 0
0 0
0 0
0 0
0 0
0 0
0 0
0 0
0 0
0 0
0 0
0 0
0 0
0 0
0 0
0 0
0 0
0 0
0 0
0 0
0 0
0 0
0 0
0 0
0 0
0 0
0 0
0 0
0 0
0 0
0 0
0 0
0 0
0 0
0 0
0 0
0 0
0 0
0 0
0 0
0 0
0 0
0 0
0 0
0 0
0 0
0 0
0 0
0 0
0 0
0 0
0 0
0 0
0 0
0 0
0 0
0 0
0 0
0 0
0 0
0 0
0 0
0 0
0 0
0 0
0 0
0 0
0 0
0 0
0 0
0 0
0 0
0 0
0 0
0 0
0 0
0 0
0 0
0 0
0 0
0 0
0 0
0 0
0 0
0 0
0 0
0 0
0 0
0 0
0 0
0 0
0 0
0 0
0 0
0 0
0 0
0 0
0 0
0 0
0 0
0 0
0 0
0 0
0 0
0 0
0 0
0 0
0 0
0 0
0 0
0 0
0 0
0 0
0 0
0 0
0 0
0 0
0 0
0 0
0 0
0 0
0 0
0 0
0 0
0 0
0 0
0 0
0 0
0 0
0 0
0 0
0 0
0 0
0 0
0 0
0 0
0 0
0 0
0 0
0 0
0 0
0 0
0 0
0 0
0 0
0 0
0 0
0 0
0 0
0 0
0 0
0 0
0 0
0 0
0 0
0 0
0 0
0 0
0 0
0 0
0 0
0 0
0 0
0 0
0 0
0 0
0 0
0 0
0 0
0 0
0 0
0 0
0 0
0 0
0 0
0 0
0 0
0 0
0 0
0 0
0 0
0 0
0 0
0 0
0 0
0 0
0 0
0 0
0 0
0 0
0 0
0 0
0 0
0 0
0 0
0 0
0 0
0 0
0 0
0 0
0 0
0 0
0 0
0 0
0 0
0 0
0 0
0 0
0 0
0 0
0 0
0 0
0 0
0 0
0 0
0 0
0 0
0 0
0 0
0 0
0 0
0 0
0 0
0 0
0 0
0 0
0 0
0 0
0 0
0 0
0 0
0 0
0 0
0 0
0 0
0 0
0 0
0 0
0 0
0 0
0 0
0 0
0 0
0 0
0 0
0 0
0 0
0 0
0 0
0 0
0 0
0 0
0 0
0 0
0 0
0 0
0 0
0 0
0 0
0 0
0 0
0 0
0 0
0 0
0 0
0 0
0 0
0 0
0 0
0 0
0 0
0 0
0 0
0 0
0 0
0 0
0 0
0 0
0 0
0 0
0 0
0 0
0 0
0 0
0 0
0 0
0 0
0 0
0 0
0 0
0 0
0 0
0 0
0 0
0 0
0 0
0 0
0 0
0 0
0 0
0 0
0 0
0 0
0 0
0 0
0 0
0 0
0 0
0 0
0 0
0 0
0 0
0 0
0 0
0 0
0 0
0 0
0 0
0 0
0 0
0 0
0 0
0 0
0 0
0 0
0 0
0 0
0 0
0 0
0 0
0 0
0 0
0 0
0 0
0 0
0 0
0 0
0 0
0 0
0 0
0 0
0 0
0 0
0 0
0 0
0 0
0 0
0 0
0 0
0 0
0 0
0 0
0 0
0 0
0 0
0 0
0 0
0 0
0 0
0 0
0 0
0 0
0 0
0 0
0 0
0 0
0 0
0 0
0 0
0 0
0 0
0 0
0 0
0 0
0 0
0 0
0 0
0 0
0 0
0 0
0 0
0 0
0 0
0 0
0 0
0 0
0 0
0 0
0 0
0 0
0 0
0 0
0 0
0 0
0 0
0 0
0 0
0 0
0 0
0 0
0 0
0 0
0 0
0 0
0 0
0 0
0 0
0 0
0 0
0 0
0 0
0 0
0 0
0 0
0 0
0 0
0 0
0 0
0 0
0 0
0 0
0 0
0 0
0 0
0 0
0 0
0 0
0 0
0 0
0 0
0 0
0 0
0 0
0 0
0 0
0 0
0 0
0 0
0 0
0 0
0 0
0 0
0 0
0 0
0 0
0 0
0 0
0 0
0 0
0 0
0 0
0 0
0 0
0 0
0 0
0 0
0 0
0 0
0 0
0 0
0 0
0 0
0 0
0 0
0 0
0 0
0 0
0 0
0 0
0 0
0 0
0 0
0 0
0 0
0 0
0 0
0 0
0 0
0 0
0 0
0 0
0 0
0 0
0 0
0 0
0 0
0 0
0 0
0 0
0 0
0 0
0 0
0 0
0 0
0 0
0 0
0 0
0 0
0 0
0 0
0 0
0 0
0 0
0 0
0 0
0 0
0 0
0 0
0 0
0 0
0 0
0 0
0 0
0 0
0 0
0 0
0 0
0 0
0 0
0 0
0 0
0 0
0 0
0 0
0 0
0 0
0 0
0 0
0 0
0 0
0 0
0 0
0 0
0 0
0 0
0 0
0 0
0 0
0 0
0 0
0 0
0 0
0 0
0 0
0 0
0 0
0 0
0 0
0 0
0 0
0 0
0 0
0 0
0 0
0 0
0 0
0 0
0 0
0 0
0 0
0 0
0 0
0 0
0 0
0 0
0 0
0 0
0 0
0 0
0 0
0 0
0 0
0 0
0 0
0 0
0 0
0 0
0 0
0 0
0 0
0 0
0 0
0 0
0 0
0 0
0 0
0 0
0 0
0 0
0 0
0 0
0 0
0 0
0 0
0 0
0 0
0 0
0 0
0 0
0 0
0 0
0 0
0 0
0 0
0 0
0 0
0 0
0 0
0 0
0 0
0 0
0 0
0 0
0 0
0 0
0 0
0 0
0 0
0 0
0 0
0 0
0 0
0 0
0 0
0 0
0 0
0 0
0 0
0 0
0 0
0 0
0 0
0 0
0 0
0 0
0 0
0 0
0 0
0 0
0 0
0 0
0 0
0 0
0 0
0 0
0 0
0 0
0 0
0 0
0 0
0 0
0 0
0 0
0 0
0 0
0 0
0 0
0 0
0 0
0 0
0 0
0 0
0 0
0 0
0 0
0 0
0 0
0 0
0 0
0 0
0 0
0 0
0 0
0 0
0 0
0 0
0 0
0 0
0 0
0 0
0 0
0 0
0 0
0 0
0 0
0 0
0 0
0 0
0 0
0 0
0 0
0 0
0 0
0 0
0 0
0 0
0 0
0 0
0 0
0 0
0 0
0 0
0 0
0 0
0 0
0 0
0 0
0 0
0 0
0 0
0 0
0 0
0 0
0 0
0 0
0 0
0 0
0 0
0 0
0 0
0 0
0 0
0 0
0 0
0 0
0 0
0 0
0 0
0 0
0 0
0 0
0 0
0 0
0 0
0 0
0 0
0 0
0 0
0 0
0 0
0 0
0 0
0 0
0 0
0 0
0 0
0 0
0 0
0 0
0 0
0 0
0 0
0 0
0 0
0 0
0 0
0 0
0 0
0 0
0 0
0 0
0 0
0 0
0 0
0 0
0 0
0 0
0 0
0 0
0 0
0 0
0 0
0 0
0 0
0 0
0 0
0 0
0 0
0 0
0 0
0 0
0 0
0 0
0 0
0 0
0 0
0 0
0 0
0 0
0 0
0 0
0 0
0 0
0 0
0 0
0 0
0 0
0 0
0 0
0 0
0 0
0 0
0 0
0 0
0 0
0 0
0 0
0 0
0 0
0 0
0 0
0 0
0 0
0 0
0 0
0 0
0 0
0 0
0 0
0 0
0 0
0 0
0 0
0 0
0 0
0 0
0 0
0 0
0 0
0 0
0 0
0 0
0 0
0 0
0 0
0 0
0 0
0 0
0 0
0 0
0 0
0 0
0 0
0 0
0 0
0 0
0 0
0 0
0 0
0 0
0 0
0 0
0 0
0 0
0 0
0 0
0 0
0 0
0 0
0 0
0 0
0 0
0 0
0 0
0 0
0 0
0 0
0 0
0 0
0 0
0 0
0 0
0 0
0 0
0 0
0 0
0 0
0 0
0 0
0 0
0 0
0 0
0 0
0 0
0 0
0 0
0 0
0 0
0 0
0 0
0 0
0 0
0 0
0 0
0 0
0 0
0 0
0 0
0 0
0 0
0 0
0 0
0 0
0 0
0 0
0 0
0 0
0 0
0 0
0 0
0 0
0 0
0 0
0 0
0 0
0 0
0 0
0 0
0 0
0 0
0 0
0 0
0 0
0 0
0 0
0 0
0 0
0 0
0 0
0 0
0 0
0 0
0 0
0 0
0 0
0 0
0 0
0 0
0 0
0 0
0 0
0 0
0 0
0 0
0 0
0 0
0 0
0 0
0 0
0 0
0 0
0 0
0 0
0 0
0 0
0 0
0 0
0 0
0 0
0 0
0 0
0 0
0 0
0 0
0 0
0 0
0 0
0 0
0 0
0 0
0 0
0 0
0 0
0 0
0 0
0 0
0 0
0 0
0 0
0 0
0 0
0 0
0 0
0 0
0 0
0 0
0 0
0 0
0 0
0 0
0 0
0 0
0 0
0 0
0 0
0 0
0 0
0 0
0 0
0 0
0 0
0 0
0 0
0 0
0 0
0 0
0 0
0 0
0 0
0 0
0 0
0 0
0 0
0 0
0 0
0 0
0 0
0 0
0 0
0 0
0 0
0 0
0 0
0 0
0 0
0 0
0 0
0 0
0 0
0 0
0 0
0 0
0 0
0 0
0 0
0 0
0 0
0 0
0 0
0 0
0 0
0 0
0 0
0 0
0 0
0 0
0 0
0 0
0 0
0 0
0 0
0 0
0 0
0 0
0 0
0 0
0 0
0 0
0 0
0 0
0 0
0 0
0 0
0 0
0 0
0 0
0 0
0 0
0 0
0 0
0 0
0 0
0 0
0 0
0 0
0 0
0 0
0 0
0 0
0 0
0 0
0 0
0 0
0 0
0 0
0 0
0 0
0 0
0 0
0 0
0 0
0 0
0 0
0 0
0 0
0 0
0 0
0 0
0 0
0 0
0 0
0 0
0 0
0 0
0 0
0 0
0 0
0 0
0 0
0 0
0 0
0 0
0 0
0 0
0 0
0 0
0 0
0 0
0 0
0 0
0 0
0 0
0 0
0 0
0 0
0 0
0 0
0 0
0 0
0 0
0 0
0 0
0 0
0 0
0 0
0 0
0 0
0 0
0 0
0 0
0 0
0 0
0 0
0 0
0 0
0 0
0 0
0 0
0 0
0 0
0 0
0 0
0 0
0 0
0 0
0 0
0 0
0 0
0 0
0 0
0 0
0 0
0 0
0 0
0 0
0 0
0 0
0 0
0 0
0 0
0 0
0 0
0 0
0 0
0 0
0 0
0 0
0 0
0 0
0 0
0 0
0 0
0 0
0 0
0 0
0 0
0 0
0 0
0 0
0 0
0 0
0 0
0 0
0 0
0 0
0 0
0 0
0 0
0 0
0 0
0 0
0 0
0 0
0 0
0 0
0 0
0 0
0 0
0 0
0 0
0 0
0 0
0 0
0 0
0 0
0 0
0 0
0 0
0 0
0 0
0 0
0 0
0 0
0 0
0 0
0 0
0 0
0 0
0 0
0 0
0 0
0 0
0 0
0 0
0 0
0 0
0 0
0 0
0 0
0 0
0 0
0 0
0 0
0 0
0 0
0 0
0 0
0 0
0 0
0 0
0 0
0 0
0 0
0 0
0 0
0 0
0 0
0 0
0 0
0 0
0 0
0 0
0 0
0 0
0 0
0 0
0 0
0 0
0 0
0 0
0 0
0 0
0 0
0 0
0 0
0 0
0 0
0 0
0 0
0 0
0 0
0 0
0 0
0 0
0 0
0 0
0 0
0 0
0 0
0 0
0 0
0 0
0 0
0 0
0 0
0 0
0 0
0 0
0 0
0 0
0 0
0 0
0 0
0 0
0 0
0 0
0 0
0 0
0 0
0 0
0 0
0 0
0 0
0 0
0 0
0 0
0 0
0 0
0 0
0 0
0 0
0 0
0 0
0 0
0 0
0 0
0 0
0 0
0 0
0 0
0 0
0 0
0 0
0 0
0 0
0 0
0 0
0 0
0 0
0 0
0 0
0 0
0 0
0 0
0 0
0 0
0 0
0 0
0 0
0 0
0 0
0 0
0 0
0 0
0 0
0 0
0 0
0 0
0 0
0 0
0 0
0 0
0 0
0 0
0 0
0 0
0 0
0 0
0 0
0 0
0 0
0 0
0 0
0 0
0 0
0 0
0 0
0 0
0 0
0 0
0 0
0 0
0 0
0 0
0 0
0 0
0 0
0 0
0 0
0 0
0 0
0 0
0 0
0 0
0 0
0 0
0 0
0 0
0 0
0 0
0 0
0 0
0 0
0 0
0 0
0 0
0 0
0 0
0 0
0 0
0 0
0 0
0 0
0 0
0 0
0 0
0 0
0 0
0 0
0 0
0 0
0 0
0 0
0 0
0 0
0 0
0 0
0 0
0 0
0 0
0 0
0 0
0 0
0 0
0 0
0 0
0 0
0 0
0 0
0 0
0 0
0 0
0 0
0 0
0 0
0 0
0 0
0 0
0 0
0 0
0 0
0 0
0 0
0 0
0 0
0 0
0 0
0 0
0 0
0 0
0 0
0 0
0 0
0 0
0 0
0 0
0 0
0 0
0 0
0 0
0 0
0 0
0 0
0 0
0 0
0 0
0 0
0 0
0 0
0 0
0 0
0 0
0 0
0 0
0 0
0 0
0 0
0 0
0 0
0 0
0 0
0 0
0 0
0 0
0 0
0 0
0 0
0 0
0 0
0 0
0 0
0 0
0 0
0 0
0 0
0 0
0 0
0 0
0 0
0 0
0 0
0 0
0 0
0 0
0 0
0 0
0 0
0 0
0 0
0 0
0 0
0 0
0 0
0 0
0 0
0 0
0 0
0 0
0 0
0 0
0 0
0 0
0 0
0 0
0 0
0 0
0 0
0 0
0 0
0 0
0 0
0 0
0 0
0 0
0 0
0 0
0 0
0 0
0 0
0 0
0 0
0 0
0 0
0 0
0 0
0 0
0 0
0 0
0 0
0 0
0 0
0 0
0 0
0 0
0 0
0 0
0 0
0 0
0 0
0 0
0 0
0 0
0 0
0 0
0 0
0 0
0 0
0 0
0 0
0 0
0 0
0 0
0 0
0 0
0 0
0 0
0 0
0 0
0 0
0 0
0 0
0 0
0 0
0 0
0 0
0 0
0 0
0 0
0 0
0 0
0 0
0 0
0 0
0 0
0 0
0 0
0 0
0 0
0 0
0 0
0 0
0 0
0 0
0 0
0 0
0 0
0 0
0 0
0 0
0 0
0 0
0 0
0 0
0 0
0 0
0 0
0 0
0 0
0 0
0 0
0 0
0 0
0 0
0 0
0 0
0 0
0 0
0 0
0 0
0 0
0 0
0 0
0 0
0 0
0 0
0 0
0 0
0 0
0 0
0 0
0 0
0 0
0 0
0 0
0 0
0 0
0 0
0 0
0 0
0 0
0 0
0 0
0 0
0 0
0 0
0 0
0 0
0 0
0 0
0 0
0 0
0 0
0 0
0 0
0 0
0 0
0 0
0 0
0 0
0 0
0 0
0 0
0 0
0 0
0 0
0 0
0 0
0 0
0 0
0 0
0 0
0 0
0 0
0 0
0 0
0 0
0 0
0 0
0 0
0 0
0 0
0 0
0 0
0 0
0 0
0 0
0 0
0 0
0 0
0 0
0 0
0 0
0 0
0 0
0 0
0 0
0 0
0 0
0 0
0 0
0 0
0 0
0 0
0 0
0 0
0 0
0 0
0 0
0 0
0 0
0 0
0 0
0 0
0 0
0 0
0 0
0 0
0 0
0 0
0 0
0 0
0 0
0 0
0 0
0 0
0 0
0 0
0 0
0 0
0 0
0 0
0 0
0 0
0 0
0 0
0 0
0 0
0 0
0 0
0 0
0 0
0 0
0 0
0 0
0 0
0 0
0 0
0 0
0 0
0 0
0 0
0 0
0 0
0 0
0 0
0 0
0 0
0 0
0 0
0 0
0 0
0 0
0 0
0 0
0 0
0 0
0 0
0 0
0 0
0 0
0 0
0 0
0 0
0 0
0 0
0 0
0 0
0 0
0 0
0 0
0 0
0 0
0 0
0 0
0 0
0 0
0 0
0 0
0 0
0 0
0 0
0 0
0 0
0 0
0 0
0 0
0 0
0 0
0 0
0 0
0 0
0 0
0 0
0 0
0 0
0 0
0 0
0 0
0 0
0 0
0 0
0 0
0 0
0 0
0 0
0 0
0 0
0 0
0 0
0 0
0 0
0 0
0 0
0 0
0 0
0 0
0 0
0 0
0 0
0 0
0 0
0 0
0 0
0 0
0 0
0 0
0 0
0 0
0 0
0 0
0 0
0 0
0 0
0 0
0 0
0 0
0 0
0 0
0 0
0 0
0 0
0 0
0 0
0 0
0 0
0 0
0 0
0 0
0 0
0 0
0 0
0 0
0 0
0 0
0 0
0 0
0 0
0 0
0 0
0 0
0 0
0 0
0 0
0 0
0 0
0 0
0 0
0 0
0 0
0 0
0 0
0 0
0 0
0 0
0 0
0 0
0 0
0 0
0 0
0 0
0 0
0 0
0 0
0 0
0 0
0 0
0 0
0 0
0 0
0 0
0 0
0 0
0 0
0 0
      </DataArray> 
      <DataArray type="Float64" NumberOfComponents="1" Name="CauchyShearStress" format="ascii">
-5.63332
4.94928
-1.64323
0.471389
0.248184
0.335957
0.240081
0.113398
-0.0348001
-0.0594531
-0.0558883
-0.0904322
-0.124785
-0.092071
-0.0443879
-0.034239
-0.0367666
0.0194956
0.0664954
0.0643643
0.0488361
0.0894464
0.102325
0.0348601
-0.0534608
-0.0696757
-0.143438
-0.504681
-0.636637
-0.828044
0.576661
0.0138179
0.230556
0.531922
-6.33463
0.0345209
0.200907
0.238003
0.217363
0.0814558
0.0709936
0.143198
0.223575
0.215619
0.308448
0.245749
0.336375
0.432496
0.493814
0.492709
0.532077
0.545256
0.571112
0.250142
-0.131506
-0.259429
-0.399579
-0.506024
-0.610033
-0.641983
0.784551
1.09801
2.18253
-26.1861
-13.1142
-5.56901
-8.41367
-10.4268
-14.9863
0.191931
-25.1944
-21.905
-16.6811
26.5215
-2.26609
-17.9858
26.3945
-5.13736
13.5304
5.77279
8.50703
10.4635
15.0123
-0.323558
-1.03665
-1.2312
-2.58247
0.0020674
-0.110756
0.237175
0.41882
0.753857
0.778781
0.154956
-0.14524
-0.257171
-0.37628
-0.477275
-0.538148
-0.580366
-0.598339
-0.640777
-0.563155
-0.544236
-0.525689
-0.469037
-0.479206
-0.355167
-0.216017
-0.162647
-0.209512
0.613887
1.19681
6.62115
1.76527
-14.2922
-8.28919
-14.4249
16.0978
9.27893
3.97336
3.9991
-3.56285
-0.327876
-13.6978
13.7036
-3.27953
-3.60517
-6.81422
-6.43814
7.29708
-5.72006
6.39429
-6.26239
-6.42672
6.93806
6.96983
-5.53961
-5.27265
-6.19037
-3.09435
2.31782
3.22366
7.01412
5.85681
7.93019
-7.19278
-8.30301
-8.71395
-8.35372
9.16544
7.68449
-3.25294
0.719792
3.01677
-5.38781
5.58675
-4.08255
-4.74115
-5.45108
-5.00896
5.29023
6.00683
5.39955
4.31735
-5.13623
-5.26273
-4.55656
-2.32529
1.00815
4.65081
-4.74183
-4.62226
5.40899
5.59419
4.96179
4.87508
5.56938
7.62105
-6.76904
-7.8683
-6.07253
-8.99387
-10.087
8.9845
5.15972
-3.72736
-2.53088
-0.243399
-1.23754
0.973607
2.40785
1.68233
3.39933
-4.84954
-4.99135
4.89325
4.95351
-3.91073
-3.33425
-3.65285
-3.21452
-3.63386
-4.52689
4.83587
4.11282
3.66067
3.87582
3.3901
3.8767
-4.74895
-4.50882
-6.18331
0.137813
3.53327
-2.90367
3.26839
4.65737
4.40582
9.37055
-11.405
-2.44929
-12.479
13.0413
10.5303
7.39205
-3.77151
-2.77194
-0.976765
0.688969
2.10156
3.41637
-4.6521
4.53879
-3.2957
-2.29984
-3.23708
3.38262
2.50031
3.39484
-3.78649
-4.11545
-4.18717
-3.82993
-2.11429
-1.55613
-15.4429
-2.76561
12.0697
-0.364692
0.37221
2.46155
3.42811
3.84422
3.91641
3.18797
12.4218
-12.3
1.59078
4.83534
-15.5137
-4.14499
-3.37252
14.4289
4.63137
-3.57126
-3.60037
-2.61907
-3.23925
-1.32034
-1.92341
0.16506
-0.403472
1.24715
0.765892
2.55786
1.95543
3.60691
3.03933
-3.66675
-4.26898
-4.46345
3.71359
4.25412
4.21966
3.2888
-3.15535
-1.44951
-1.34297
-2.1346
2.15719
1.60046
1.55854
3.34992
-2.24194
-3.07983
-2.69484
-2.13644
-0.774176
-27.2695
-10.3171
-0.820371
6.55607
28.8408
2.08004
-2.04675
2.03828
3.41669
2.26455
20.4483
10.5149
-17.2826
-10.8383
10.8113
-17.732
1.53342
-8.22945
8.44758
12.1108
-3.65497
-2.2762
-1.22134
-0.240867
0.649156
1.55221
2.90315
-4.06821
-3.0791
3.48592
3.42863
-1.98936
-1.47855
-3.64503
2.85176
1.14219
2.05055
-2.4127
2.69616
-0.721902
-1.31425
-1.17154
-1.65677
-1.27297
-1.47508
-1.21064
-0.968476
-0.523769
-50.7552
-7.42591
6.0369
45.5803
0.141393
0.974803
2.19697
2.99752
6.71754
-5.79327
-2.99002
-1.95614
-0.879363
0.0602285
0.743532
1.05976
0.943186
1.56538
0.65549
0.85175
0.988625
1.09573
15.738
26.0248
14.7466
-15.3739
-20.8085
-25.9184
10.7796
13.5065
15.1076
-9.69579
-21.6795
-15.1842
-1.98877
-3.6361
-1.41076
-1.21598
-1.23235
-0.853897
-0.79793
-0.85132
-0.454528
-0.308233
-0.39407
0.0469747
0.195836
0.123082
0.508641
0.613291
0.577105
0.901243
0.881365
0.939715
1.62254
3.51627
1.7698
-0.87863
-0.810281
1.25714
1.38252
-3.98225
-4.37141
3.79359
3.86632
4.10616
-0.838327
-1.32896
1.50865
1.2104
-1.40936
1.29908
-2.01277
-1.60154
1.40921
1.78871
-3.13302
-6.51225
-3.24443
3.17361
3.39383
5.31919
4.38814
-5.14448
3.08077
-3.45461
0.191363
-0.066185
4.16177
-4.36828
2.63633
-1.73929
3.85133
2.07802
1.08031
0.236549
-0.717184
-1.7185
-2.91426
-3.91761
-12.4766
18.1108
-19.9231
20.2487
1.99707
2.58953
0.430074
-4.72653
5.66523
0.247967
21.2438
-26.2982
-1.22656
-2.63304
-3.43013
-2.76435
2.27528
-3.07432
9.50803
-5.08612
-2.18823
2.81193
2.40792
-2.02956
-2.71969
4.35436
4.46978
-4.72475
-4.32833
3.82601
2.86941
1.35706
0.00788967
-1.97247
-3.47421
-3.88942
10.6749
1.90434
-3.68125
-2.45316
-10.5451
7.164
4.45468
4.27884
2.54444
-2.73061
-3.29216
-4.88218
10.3094
-9.39617
3.8539
5.12712
5.75384
-5.10734
-4.55951
-3.92816
5.26781
-5.26805
1.99096
-0.541599
7.40665
-10.3697
6.61292
-6.57303
6.09338
-5.66966
7.96399
-7.18177
-5.77642
-28.0572
-2.81708
-31.7438
-22.4051
-3.42809
-16.5608
2.52747
21.7857
41.6632
3.81138
25.2721
22.658
-24.3211
-36.6857
-37.4941
-38.3085
-19.657
-25.0335
-28.7778
-21.9527
-21.2846
-20.159
-23.3854
-17.6496
-30.2604
-37.89
-12.8645
-17.8685
22.2778
38.1734
34.9259
28.9261
19.7909
25.1822
23.0686
19.2735
22.055
20.3433
17.9085
23.5302
13.0518
30.4886
38.0926
18.1441
19.7526
1.72431
6.77257
2.22533
60.1281
16.477
69.3725
30.1146
12.4358
-23.2789
-9.15327
-1.94717
-71.1765
-58.8628
-27.2156
-2.91698
-15.8863
-35.6544
20.2484
20.6171
3.62033
12.1704
-3.20077
15.4213
10.9928
-19.0545
-10.5932
-26.1267
2.84335
4.04658
-3.85729
-15.9775
0.0244901
1.22854
-13.8462
-16.4966
-7.19247
1.53552
10.5523
-6.25184
16.2077
9.68812
28.2134
40.7144
40.6974
27.2456
29.7228
22.2542
22.6629
2.84281
2.35763
7.20154
-0.170998
12.9337
1.87998
-1.52924
-5.68656
-9.89988
-3.82151
-17.2936
-5.84237
-24.8472
-39.2097
-41.3633
-25.7856
-28.9362
-21.7718
-20.8227
14.0226
16.1781
12.0977
12.6501
-10.8233
-17.4391
-8.01598
-11.3775
11.623
13.4075
12.4132
11.9917
11.4088
10.9979
12.6988
8.20756
9.58196
11.3748
9.82017
-10.8465
-9.30429
-9.58877
-8.62981
-6.37045
-10.601
6.4136
7.26862
7.44047
5.43904
5.35384
4.70337
3.98384
3.01812
-2.56298
-1.36725
-1.16318
-0.171803
1.39283
-1.43991
-5.98693
-7.03299
-5.42024
-8.17019
-4.13451
-3.60582
-4.76853
-3.4287
-2.62612
-3.679
-1.87501
-3.74293
-4.24985
16.8171
14.6714
18.026
16.4207
21.8647
25.2443
20.3236
10.8889
15.0604
10.3189
52.9716
59.9144
-10.1363
-14.8172
-10.6382
-16.2147
-51.0475
-58.1259
-20.0875
-17.6492
-14.3301
-16.9517
19.7361
3.03586
7.78203
5.49488
9.06087
0.988526
16.5419
9.61982
5.57905
14.6131
14.2059
12.1967
12.1316
19.7263
19.2127
13.3453
22.0088
-20.5148
-12.2381
-18.8204
-9.31653
-21.3805
-13.3082
-12.7619
-15.3687
-9.01627
-20.6755
-12.9347
-11.5585
-7.31175
-5.23853
-4.55006
-5.48645
-2.51165
-2.77669
-9.32245
-12.9988
-9.58057
-11.6573
-13.6504
-14.8267
-13.9676
-14.6959
-12.1391
-12.8612
-11.7312
0.908384
2.6911
1.73359
4.53947
-0.846686
0.302241
2.93288
-0.509097
14.849
18.6577
9.52949
21.771
17.4205
7.83624
4.8347
6.0836
16.8266
30.3801
26.1828
31.4764
19.9527
24.895
32.5089
20.7139
-44.176
-65.913
-50.1544
-29.2584
-49.5939
-107.211
71.4623
27.4007
48.9078
47.4238
20.2383
101.056
21.4882
4.5056
5.08938
3.38153
-38.5335
-26.1825
-0.97051
15.2743
8.80867
-7.40827
-9.10611
-0.567372
-14.4083
-8.31343
4.2233
8.79178
-6.94691
-19.111
17.5676
13.0309
15.3059
12.0759
10.6838
9.66491
16.1836
16.2265
17.5378
-2.51845
11.1212
7.77762
11.2115
-0.366812
-15.1649
-7.16295
-17.1763
-7.52166
-15.3106
34.6877
7.34539
3.64363
-9.72351
-9.65186
18.9118
-10.2202
-9.90128
-16.9615
-4.95902
-9.85749
-17.4696
-19.5512
-9.47692
-1.10866
6.89752
-15.0752
-13.5425
-11.4275
0.607594
1.46392
-1.27205
-1.85545
-5.995
0.938133
9.01638
-4.76256
2.00535
4.59801
2.99229
6.14823
6.22112
5.66847
14.2108
12.1788
14.166
13.3618
11.4385
15.3686
-3.55288
-1.40944
4.20773
-5.49568
0.107347
10.7324
-12.3967
-14.3442
-9.96535
-12.6891
-7.47982
-17.6403
-16.3984
-15.872
-10.0262
-12.9729
-14.6792
-15.6158
-6.57822
-11.8141
-12.2313
-9.85326
8.27936
6.26224
9.5874
3.06706
4.54962
8.9959
7.99721
-19.805
-18.6011
-16.6378
-11.9164
-9.07233
-13.9781
-24.0299
-15.0971
-12.5559
-26.258
-2.99874
-27.3559
-18.0938
-4.85847
-29.5645
-27.414
-37.0057
-5.07872
-6.50093
-12.3137
-7.69544
-5.54535
-17.6533
-69.889
-4.70911
-11.2888
36.4077
45.1585
33.3943
6.41915
7.68161
12.3141
6.16968
6.3069
5.04463
16.7642
65.5944
14.5733
1.25632
0.245926
0.455408
0.168347
-0.125124
-0.0269042
0.583959
2.13144
1.7336
1.00553
0.292769
0.1454
0.258761
-0.00595342
-0.159241
1.82122
0.355822
0.0439558
0.190408
0.0288199
-0.167028
-0.0855621
0.249855
0.676575
0.231715
-0.355979
-0.270862
-0.0342195
-0.367218
0.649312
0.612423
-0.332315
-2.34118
-1.01607
-0.80509
-1.20695
0.494069
0.400263
-0.636464
-3.30524
-3.81622
-4.35755
-2.63682
-1.48264
-3.13643
0.229324
0.103111
-5.22603
4.81834
1.418
3.02054
1.15588
-0.647834
-0.768235
3.65852
6.27112
4.42741
2.48288
0.908548
1.02153
0.733152
-0.759341
-0.450121
3.85968
0.489531
0.0726037
0.291581
0.0406664
-0.284617
0.0246547
0.391578
0.698042
0.222196
-0.740298
-0.176258
-0.0755905
-0.277086
0.538283
0.539272
-0.00923037
-0.859561
-1.14173
-1.31854
-0.42574
-0.370118
-0.528094
0.531577
0.488235
-0.302806
-1.91066
-2.08167
0.543663
-0.354022
-0.417084
-0.527227
-2.3352
0.379556
20.818
10.4259
12.6748
-7.04125
-9.00595
-7.69035
-10.2557
-6.42462
-16.6151
-19.0116
-20.9476
8.60344
8.66076
10.9548
14.1048
8.10848
-0.266503
-11.0469
-0.867
7.44266
2.96489
2.47611
1.74073
2.78664
1.40398
0.889434
1.54519
2.3372
1.27075
-2.11369
-1.33491
-1.46644
-0.691901
-3.30038
1.54184
1.51219
2.28789
3.6452
1.05056
-1.72432
-1.07232
-1.5404
-1.65086
-2.36951
-2.03283
-1.36785
-2.08354
-2.63409
-3.02684
16.0796
15.1383
-3.82058
-6.45979
-5.62234
-7.99692
-4.17519
-0.870461
-0.752274
-17.7118
-15.5642
3.21229
3.64914
3.89043
4.15585
2.98294
2.21411
2.74941
1.40299
3.01768
3.81493
3.33861
-1.33432
-2.7261
-0.916826
0.3559
1.05021
0.52623
0.981526
1.8642
-0.0258586
3.76931
-0.480317
-1.41103
-1.88994
-1.39674
-1.13889
-1.64248
-1.04829
-0.344583
-0.586777
-2.39386
-2.68762
-3.22261
-3.2526
-3.61473
-4.39051
-3.84028
0.0751819
1.30889
4.03855
3.62078
4.21631
4.58793
4.51275
1.71788
1.54758
2.81135
3.85345
2.6893
-2.2191
-1.03466
-1.62068
-2.66836
-3.12856
3.63554
6.17972
7.47015
6.25006
-7.348
-4.4358
-5.64925
-4.28356
-2.36505
-2.92704
-8.19833
4.92967
5.0773
5.46298
6.04577
5.29618
4.25716
4.33188
4.80273
6.37154
-4.68534
-3.83039
-3.7978
-4.02525
-3.60443
-5.60282
-5.64249
-3.87396
-4.64082
-5.1664
-4.67757
-5.24148
-6.39664
5.5612
5.99674
-2.67021
-2.6872
-2.16799
-2.98992
-3.31987
-4.18145
-3.53384
-3.88828
-0.522307
-0.139597
-0.274088
-0.0553361
-0.758932
-0.0416419
-0.0510876
-0.446933
0.306167
0.142167
4.58414
7.31027
8.165
4.86382
0.288628
-0.432874
2.81531
0.63556
0
0
0
0
0
0
0
0
0
0
0
0
0
0
0
0
0
0
0
0
0
0
0
0
0
0
0
0
0
0
0
0
0
0
0
0
0
0
0
0
0
0
0
0
0
0
0
0
0
0
0
0
0
0
0
0
0
0
0
0
0
0
0
0
0
0
0
0
0
0
0
0
0
0
0
0
0
0
0
0
0
0
0
0
0
0
0
0
0
0
0
0
0
0
0
0
0
0
0
0
0
0
0
0
0
0
0
0
0
0
0
0
0
0
0
0
0
0
0
0
0
0
0
0
0
0
0
0
0
0
0
0
0
0
0
0
0
0
0
0
0
0
0
0
0
0
0
0
0
0
0
0
0
0
0
0
0
0
0
0
0
0
0
0
0
0
0
0
0
0
0
0
0
0
0
0
0
0
0
0
0
0
0
0
0
0
0
0
0
0
0
0
0
0
0
0
0
0
0
0
0
0
0
0
0
0
0
0
0
0
0
0
0
0
0
0
0
0
0
0
0
0
0
0
0
0
0
0
0
0
0
0
0
0
0
0
0
0
0
0
0
0
0
0
0
0
0
0
0
0
0
0
0
0
0
0
0
0
0
0
0
0
0
0
0
0
0
0
0
0
0
0
0
0
0
0
0
0
0
0
0
0
0
0
0
0
0
0
0
0
0
0
0
0
0
0
0
0
0
0
0
0
0
0
0
0
0
0
0
0
0
0
0
0
0
0
0
0
0
0
0
0
0
0
0
0
0
0
0
0
0
0
0
0
0
0
0
0
0
0
0
0
0
0
0
0
0
0
0
0
0
0
0
0
0
0
0
0
0
0
0
0
0
0
0
0
0
0
0
0
0
0
0
0
0
0
0
0
0
0
0
0
0
0
0
0
0
0
0
0
0
0
0
0
0
0
0
0
0
0
0
0
0
0
0
0
0
0
0
0
0
0
0
0
0
0
0
0
0
0
0
0
0
0
0
0
0
0
0
0
0
0
0
0
0
0
0
0
0
0
0
0
0
0
0
0
0
0
0
0
0
0
0
0
0
0
0
0
0
0
0
0
0
0
0
0
0
0
0
0
0
0
0
0
0
0
0
0
0
0
0
0
0
0
0
0
0
0
0
0
0
0
0
0
0
0
0
0
0
0
0
0
0
0
0
0
0
0
0
0
0
0
0
0
0
0
0
0
0
0
0
0
0
0
0
0
0
0
0
0
0
0
0
0
0
0
0
0
0
0
0
0
0
0
0
0
0
0
0
0
0
0
0
0
0
0
0
0
0
0
0
0
0
0
0
0
0
0
0
0
0
0
0
0
0
0
0
0
0
0
0
0
0
0
0
0
0
0
0
0
0
0
0
0
0
0
0
0
0
0
0
0
0
0
0
0
0
0
0
0
0
0
0
0
0
0
0
0
0
0
0
0
0
0
0
0
0
0
0
0
0
0
0
0
0
0
0
0
0
0
0
0
0
0
0
0
0
0
0
0
0
0
0
0
0
0
0
0
0
0
0
0
0
0
0
0
0
0
0
0
0
0
0
0
0
0
0
0
0
0
0
0
0
0
0
0
0
0
0
0
0
0
0
0
0
0
0
0
0
0
0
0
0
0
0
0
0
0
0
0
0
0
0
0
0
0
0
0
0
0
0
0
0
0
0
0
0
0
0
0
0
0
0
0
0
0
0
0
0
0
0
0
0
0
0
0
0
0
0
0
0
0
0
0
0
0
0
0
0
0
0
0
0
0
0
0
0
0
0
0
0
0
0
0
0
0
0
0
0
0
0
0
0
0
0
0
0
0
0
0
0
0
0
0
0
0
0
0
0
0
0
0
0
0
0
0
0
0
0
0
0
0
0
0
0
0
0
0
0
0
0
0
0
0
0
0
0
0
0
0
0
0
0
0
0
0
0
0
0
0
0
0
0
0
0
0
0
0
0
0
0
0
0
0
0
0
0
0
0
0
0
0
0
0
0
0
0
0
0
0
0
0
0
0
0
0
0
0
0
0
0
0
0
0
0
0
0
0
0
0
0
0
0
0
0
0
0
0
0
0
0
0
0
0
0
0
0
0
0
0
0
0
0
0
0
0
0
0
0
0
0
0
0
0
0
0
0
0
0
0
0
0
0
0
0
0
0
0
0
0
0
0
0
0
0
0
0
0
0
0
0
0
0
0
0
0
0
0
0
0
0
0
0
0
0
0
0
0
0
0
0
0
0
0
0
0
0
0
0
0
0
0
0
0
0
0
0
0
0
0
0
0
0
0
0
0
0
0
0
0
0
0
0
0
0
0
0
0
0
0
0
0
0
0
0
0
0
0
0
0
0
0
0
0
0
0
0
0
0
0
0
0
0
0
0
0
0
0
0
0
0
0
0
0
0
0
0
0
0
0
0
0
0
0
0
0
0
0
0
0
0
0
0
0
0
0
0
0
0
0
0
0
0
0
0
0
0
0
0
0
0
0
0
0
0
0
0
0
0
0
0
0
0
0
0
0
0
0
0
0
0
0
0
0
0
0
0
0
0
0
0
0
0
0
0
0
0
0
0
0
0
0
0
0
0
0
0
0
0
0
0
0
0
0
0
0
0
0
0
0
0
0
0
0
0
0
0
0
0
0
0
0
0
0
0
0
0
0
0
0
0
0
0
0
0
0
0
0
0
0
0
0
0
0
0
0
0
0
0
0
0
0
0
0
0
0
0
0
0
0
0
0
0
0
0
0
0
0
0
0
0
0
0
0
0
0
0
0
0
0
0
0
0
0
0
0
0
0
0
0
0
0
0
0
0
0
0
0
0
0
0
0
0
0
0
0
0
0
0
0
0
0
0
0
0
0
0
0
0
0
0
0
0
0
0
0
0
0
0
0
0
0
0
0
0
0
0
0
0
0
0
0
0
0
0
0
0
0
0
0
0
0
0
0
0
0
0
0
0
0
0
0
0
0
0
0
0
0
0
0
0
0
0
0
0
0
0
0
0
0
0
0
0
0
0
0
0
0
0
0
0
0
0
0
0
0
0
0
0
0
0
0
0
0
0
0
0
0
0
0
0
0
0
0
0
0
0
0
0
0
0
0
0
0
0
0
0
0
0
0
0
0
0
0
0
0
0
0
0
0
0
0
0
0
0
0
0
0
0
0
0
0
0
0
0
0
0
0
0
0
0
0
0
0
0
0
0
0
0
0
0
0
0
0
0
0
0
0
0
0
0
0
0
0
0
0
0
0
0
0
0
0
0
0
0
0
0
0
0
0
0
0
0
0
0
0
0
0
0
0
0
0
0
0
0
0
0
0
0
0
0
0
0
0
0
0
0
0
0
0
0
0
0
0
0
0
0
0
0
0
0
0
0
0
0
0
0
0
0
0
0
0
0
0
0
0
0
0
0
0
0
0
0
0
0
0
0
0
0
0
0
0
0
0
0
0
0
0
0
0
0
0
0
0
0
0
0
0
0
0
0
0
0
0
0
0
0
0
0
0
0
0
0
0
0
0
0
0
0
0
0
0
0
0
0
0
0
0
0
0
0
0
0
0
0
0
0
0
0
0
0
0
0
0
0
0
0
0
0
0
0
0
0
0
0
0
0
0
0
0
0
0
0
0
0
0
0
0
0
0
0
0
0
0
0
0
0
0
0
0
0
0
0
0
0
0
0
0
0
0
0
0
0
0
0
0
0
0
0
0
0
0
0
0
0
0
0
0
0
0
0
0
0
0
0
0
0
0
0
0
0
0
0
0
0
0
0
0
0
0
0
0
0
0
0
0
0
0
0
0
0
0
0
0
0
0
0
0
0
0
0
0
0
0
0
0
0
0
0
0
0
0
0
0
0
0
0
0
0
0
0
0
0
0
0
0
0
0
0
0
0
0
0
0
0
0
0
0
0
0
0
0
0
0
0
0
0
0
0
0
0
0
0
0
0
0
0
0
0
0
0
0
0
0
0
0
0
0
0
0
0
0
0
0
0
0
0
0
0
0
0
0
0
0
0
0
0
0
0
0
0
0
0
0
0
0
0
0
0
0
0
0
0
0
0
0
0
0
0
0
0
0
0
0
0
0
0
0
0
0
0
0
0
0
0
0
0
0
0
0
0
0
0
0
0
0
0
0
0
0
0
0
0
0
0
0
0
0
0
0
0
0
0
0
0
0
0
0
0
0
0
0
0
0
0
0
0
0
0
0
0
0
0
0
0
0
0
0
0
0
0
0
0
0
0
0
0
0
0
0
0
0
0
0
0
0
0
0
0
0
0
0
0
0
0
0
0
0
0
0
0
0
0
0
0
0
0
0
0
0
0
0
0
0
0
0
0
0
0
0
0
0
0
0
0
0
0
0
0
0
0
0
0
0
0
0
0
0
0
0
0
0
0
0
0
0
0
0
0
0
0
0
0
0
0
0
0
0
0
0
0
0
0
0
0
0
0
0
0
0
0
0
0
0
0
0
0
0
0
0
0
0
0
0
0
0
0
0
0
0
0
0
0
0
0
0
0
0
0
0
0
0
0
0
0
0
0
0
0
0
0
0
0
0
0
0
0
0
0
0
0
0
0
0
0
0
0
0
0
0
0
0
0
0
0
0
0
0
0
0
0
0
0
0
0
0
0
0
0
0
0
0
0
0
0
0
0
0
0
0
0
0
0
0
0
0
0
0
0
0
0
0
0
0
0
0
0
0
0
0
0
0
0
0
0
0
0
0
0
0
0
0
0
0
0
0
0
0
0
0
0
0
0
0
0
0
0
0
0
0
0
0
0
0
0
0
0
0
0
0
0
0
0
0
0
0
0
0
0
0
0
0
0
0
0
0
0
0
0
0
0
0
0
0
0
0
0
0
0
0
0
0
0
0
0
0
0
0
0
0
0
0
0
0
0
0
0
0
0
0
0
0
0
0
0
0
0
0
0
0
0
0
0
0
0
0
0
0
0
0
0
0
0
0
0
0
0
0
0
0
0
0
0
0
0
0
0
0
0
0
0
0
0
0
0
0
0
0
0
0
0
0
0
0
0
0
0
0
0
0
0
0
0
0
0
0
0
0
0
0
0
0
0
0
0
0
0
0
0
0
0
0
0
0
0
0
0
0
0
0
0
0
0
0
0
0
0
0
0
0
0
0
0
0
0
0
0
0
0
0
0
0
0
0
0
0
0
0
0
0
0
0
0
0
0
0
0
0
0
0
0
0
0
0
0
0
0
0
      </DataArray> 
      <DataArray type="Float64" NumberOfComponents="1" Name="NormalFibers" format="ascii">
0
0
0
0
0
0
0
0
0
0
0
0
0
0
0
0
0
0
0
0
0
0
0
0
0
0
0
0
0
0
0
0
0
0
0
0
0
0
0
0
0
0
0
0
0
0
0
0
0
0
0
0
0
0
0
0
0
0
0
0
0
0
0
0
0
0
0
0
0
0
0
0
0
0
0
0
0
0
0
0
0
0
0
0
0
0
0
0
0
0
0
0
0
0
0
0
0
0
0
0
0
0
0
0
0
0
0
0
0
0
0
0
0
0
0
0
0
0
0
0
0
0
0
0
0
0
0
0
0
0
0
0
0
0
0
0
0
0
0
0
0
0
0
0
0
0
0
0
0
0
0
0
0
0
0
0
0
0
0
0
0
0
0
0
0
0
0
0
0
0
0
0
0
0
0
0
0
0
0
0
0
0
0
0
0
0
0
0
0
0
0
0
0
0
0
0
0
0
0
0
0
0
0
0
0
0
0
0
0
0
0
0
0
0
0
0
0
0
0
0
0
0
0
0
0
0
0
0
0
0
0
0
0
0
0
0
0
0
0
0
0
0
0
0
0
0
0
0
0
0
0
0
0
0
0
0
0
0
0
0
0
0
0
0
0
0
0
0
0
0
0
0
0
0
0
0
0
0
0
0
0
0
0
0
0
0
0
0
0
0
0
0
0
0
0
0
0
0
0
0
0
0
0
0
0
0
0
0
0
0
0
0
0
0
0
0
0
0
0
0
0
0
0
0
0
0
0
0
0
0
0
0
0
0
0
0
0
0
0
0
0
0
0
0
0
0
0
0
0
0
0
0
0
0
0
0
0
0
0
0
0
0
0
0
0
0
0
0
0
0
0
0
0
0
0
0
0
0
0
0
0
0
0
0
0
0
0
0
0
0
0
0
0
0
0
0
0
0
0
0
0
0
0
0
0
0
0
0
0
0
0
0
0
0
0
0
0
0
0
0
0
0
0
0
0
0
0
0
0
0
0
0
0
0
0
0
0
0
0
0
0
0
0
0
0
0
0
0
0
0
0
0
0
0
0
0
0
0
0
0
0
0
0
0
0
0
0
0
0
0
0
0
0
0
0
0
0
0
0
0
0
0
0
0
0
0
0
0
0
0
0
0
0
0
0
0
0
0
0
0
0
0
0
0
0
0
0
0
0
0
0
0
0
0
0
0
0
0
0
0
0
0
0
0
0
0
0
0
0
0
0
0
0
0
0
0
0
0
0
0
0
0
0
0
0
0
0
0
0
0
0
0
0
0
0
0
0
0
0
0
0
0
0
0
0
0
0
0
0
0
0
0
0
0
0
0
0
0
0
0
0
0
0
0
0
0
0
0
0
0
0
0
0
0
0
0
0
0
0
0
0
0
0
0
0
0
0
0
0
0
0
0
0
0
0
0
0
0
0
0
0
0
0
0
0
0
0
0
0
0
0
0
0
0
0
0
0
0
0
0
0
0
0
0
0
0
0
0
0
0
0
0
0
0
0
0
0
0
0
0
0
0
0
0
0
0
0
0
0
0
0
0
0
0
0
0
0
0
0
0
0
0
0
0
0
0
0
0
0
0
0
0
0
0
0
0
0
0
0
0
0
0
0
0
0
0
0
0
0
0
0
0
0
0
0
0
0
0
0
0
0
0
0
0
0
0
0
0
0
0
0
0
0
0
0
0
0
0
0
0
0
0
0
0
0
0
0
0
0
0
0
0
0
0
0
0
0
0
0
0
0
0
0
0
0
0
0
0
0
0
0
0
0
0
0
0
0
0
0
0
0
0
0
0
0
0
0
0
0
0
0
0
0
0
0
0
0
0
0
0
0
0
0
0
0
0
0
0
0
0
0
0
0
0
0
0
0
0
0
0
0
0
0
0
0
0
0
0
0
0
0
0
0
0
0
0
0
0
0
0
0
0
0
0
0
0
0
0
0
0
0
0
0
0
0
0
0
0
0
0
0
0
0
0
0
0
0
0
0
0
0
0
0
0
0
0
0
0
0
0
0
0
0
0
0
0
0
0
0
0
0
0
0
0
0
0
0
0
0
0
0
0
0
0
0
0
0
0
0
0
0
0
0
0
0
0
0
0
0
0
0
0
0
0
0
0
0
0
0
0
0
0
0
0
0
0
0
0
0
0
0
0
0
0
0
0
0
0
0
0
0
0
0
0
0
0
0
0
0
0
0
0
0
0
0
0
0
0
0
0
0
0
0
0
0
0
0
0
0
0
0
0
0
0
0
0
0
0
0
0
0
0
0
0
0
0
0
0
0
0
0
0
0
0
0
0
0
0
0
0
0
0
0
0
0
0
0
0
0
0
0
0
0
0
0
0
0
0
0
0
0
0
0
0
0
0
0
0
0
0
0
0
0
0
0
0
0
0
0
0
0
0
0
0
0
0
0
0
0
0
0
0
0
0
0
0
0
0
0
0
0
0
0
0
0
0
0
0
0
0
0
0
0
0
0
0
0
0
0
0
0
0
0
0
0
0
0
0
0
0
0
0
0
0
0
0
0
0
0
0
0
0
0
0
0
0
0
0
0
0
0
0
0
0
0
0
0
0
0
0
0
0
0
0
0
0
0
0
0
0
0
0
0
0
0
0
0
0
0
0
0
0
0
0
0
0
0
0
0
0
0
0
0
0
0
0
0
0
0
0
0
0
0
0
0
0
0
0
0
0
0
0
0
0
0
0
0
0
0
0
0
0
0
0
0
0
0
0
0
0.00701304
0.00701304
0.0377102
0.0377102
-0.12115
-0.12115
-0.0610106
-0.0610106
-0.0033088
-0.0033088
-0.0575195
-0.0575195
0.00350022
0.00350022
0.0269235
0.0269235
-0.150544
-0.150544
-0.0189384
-0.0189384
-0.0490532
-0.0490532
-0.0743877
-0.0743877
-0.129144
-0.129144
0.0331835
0.0331835
-0.0611081
-0.0611081
0.0861578
0.0861578
-0.0514463
-0.0514463
-0.00396435
-0.00396435
0.0502359
0.0502359
-0.0315353
-0.0315353
-0.0180782
-0.0180782
-0.0761475
-0.0761475
-0.296328
-0.296328
-0.0294174
-0.0294174
-0.0379138
-0.0379138
-0.0264805
-0.0264805
-0.0180103
-0.0180103
-0.00454192
-0.00454192
-0.147841
-0.147841
0.0126833
0.0126833
0.0119082
0.0119082
0.0141895
0.0141895
-0.199482
-0.199482
-0.0319049
-0.0319049
-0.222849
-0.222849
-0.0118967
-0.0118967
-0.0468017
-0.0468017
-0.0170999
-0.0170999
0.0103714
0.0103714
-0.0581283
-0.0581283
-0.0439581
-0.0439581
0.0723138
0.0723138
-0.0673905
-0.0673905
-0.0609523
-0.0609523
-0.213134
-0.213134
-0.0583888
-0.0583888
-0.0353263
-0.0353263
-0.0376067
-0.0376067
-0.0239238
-0.0239238
-0.0235732
-0.0235732
0.10593
0.10593
-0.0342821
-0.0342821
0.0197181
0.0197181
-0.175389
-0.175389
-0.00575408
-0.00575408
-0.0178927
-0.0178927
-0.0879159
-0.0879159
-0.110274
-0.110274
-0.0074304
-0.0074304
-0.0227767
-0.0227767
-0.0853544
-0.0853544
0.0624627
0.0624627
0.000739591
0.000739591
-0.0841901
-0.0841901
-0.0623065
-0.0623065
-0.0619389
-0.0619389
-0.063224
-0.063224
0.0592008
0.0592008
0.0824697
0.0824697
-0.137533
-0.137533
-0.0942555
-0.0942555
-0.0306561
-0.0306561
-0.227771
-0.227771
0.0553912
0.0553912
-0.114842
-0.114842
-0.000389525
-0.000389525
-0.0344015
-0.0344015
-0.0042346
-0.0042346
-0.0868294
-0.0868294
-0.0647181
-0.0647181
-0.147988
-0.147988
0.0140241
0.0140241
-0.0788123
-0.0788123
-0.208585
-0.208585
-0.130839
-0.130839
-0.105389
-0.105389
-0.0294031
-0.0294031
-0.00954753
-0.00954753
0.0303521
0.0303521
-0.00647202
-0.00647202
-0.0297488
-0.0297488
-0.001226
-0.001226
0.0542089
0.0542089
-0.111219
-0.111219
-0.175618
-0.175618
-0.0127895
-0.0127895
0.00811791
0.00811791
-0.0448181
-0.0448181
-0.274891
-0.274891
-0.0595927
-0.0595927
-0.00155406
-0.00155406
-0.07561
-0.07561
-0.0309257
-0.0309257
-0.0604326
-0.0604326
-0.0112547
-0.0112547
0.0107171
0.0107171
-0.206258
-0.206258
-0.0508258
-0.0508258
-0.0351655
-0.0351655
-0.0405661
-0.0405661
-0.128529
-0.128529
0.10151
0.10151
0.0663138
0.0663138
0.015206
0.015206
0.0507606
0.0507606
-0.0123492
-0.0123492
-0.00581545
-0.00581545
-0.089422
-0.089422
-0.141607
-0.141607
0.0147542
0.0147542
-0.0065556
-0.0065556
-0.0270359
-0.0270359
0.0155449
0.0155449
-0.0460407
-0.0460407
-0.0721679
-0.0721679
-0.16554
-0.16554
-0.00614875
-0.00614875
-0.00706647
-0.00706647
0.00432697
0.00432697
-0.213042
-0.213042
-0.109282
-0.109282
0.0363539
0.0363539
0.00549038
0.00549038
-0.0291676
-0.0291676
0.0615379
0.0615379
-0.0377307
-0.0377307
-0.00747696
-0.00747696
-0.0812844
-0.0812844
-0.093319
-0.093319
-0.0326308
-0.0326308
-0.0102205
-0.0102205
-0.0461692
-0.0461692
-0.00824489
-0.00824489
-0.0223213
-0.0223213
-0.0162243
-0.0162243
-0.0104617
-0.0104617
-0.0304099
-0.0304099
0.0176044
0.0176044
-0.0276135
-0.0276135
-0.0915368
-0.0915368
-0.0174372
-0.0174372
-0.0109073
-0.0109073
0.0250149
0.0250149
-0.175716
-0.175716
-0.151659
-0.151659
-0.417202
-0.417202
-0.205933
-0.205933
-0.156855
-0.156855
0.002698
0.002698
-0.0274026
-0.0274026
-0.0800387
-0.0800387
0.0562908
0.0562908
-0.0383017
-0.0383017
0.0399609
0.0399609
-0.00785723
-0.00785723
-0.0518169
-0.0518169
-0.0855717
-0.0855717
0.0297138
0.0297138
-0.069723
-0.069723
-0.0417966
-0.0417966
-0.0314007
-0.0314007
-0.0999557
-0.0999557
-0.0958531
-0.0958531
-0.0127575
-0.0127575
0.00615787
0.00615787
-0.0591453
-0.0591453
-0.0158184
-0.0158184
-0.0802369
-0.0802369
-0.0719552
-0.0719552
-0.0977451
-0.0977451
-0.0127133
-0.0127133
-0.0180263
-0.0180263
-0.00163037
-0.00163037
-0.186307
-0.186307
-0.105202
-0.105202
-0.212121
-0.212121
-0.00932523
-0.00932523
-0.0110778
-0.0110778
0.0382797
0.0382797
0.0182096
0.0182096
0.0427383
0.0427383
0.0750281
0.0750281
-0.0654156
-0.0654156
-0.0719671
-0.0719671
0.00386299
0.00386299
-0.0225341
-0.0225341
-0.00102845
-0.00102845
-0.0176605
-0.0176605
-0.0460665
-0.0460665
0.0215913
0.0215913
-0.0271671
-0.0271671
-0.141966
-0.141966
-0.0116003
-0.0116003
0.0487236
0.0487236
-0.0218317
-0.0218317
-0.283756
-0.283756
0.0480312
0.0480312
0.0125289
0.0125289
-0.0208442
-0.0208442
-0.107295
-0.107295
-0.00412289
-0.00412289
-0.0193061
-0.0193061
-0.120815
-0.120815
-0.0563745
-0.0563745
0.0476655
0.0476655
-0.0274099
-0.0274099
-0.0544764
-0.0544764
-0.136122
-0.136122
0.0800233
0.0800233
0.0793727
0.0793727
-0.00294762
-0.00294762
-0.166065
-0.166065
0.0185231
0.0185231
-0.0420179
-0.0420179
-0.0646719
-0.0646719
-0.0122963
-0.0122963
0.000450907
0.000450907
-0.017762
-0.017762
-0.130831
-0.130831
-0.0407063
-0.0407063
-0.0119701
-0.0119701
-0.0111171
-0.0111171
-0.0426521
-0.0426521
-0.169258
-0.169258
0.00488691
0.00488691
-0.0357262
-0.0357262
-0.0514662
-0.0514662
-0.21418
-0.21418
-0.150716
-0.150716
-0.130808
-0.130808
-0.038721
-0.038721
-0.00878933
-0.00878933
-0.00765235
-0.00765235
0.0866112
0.0866112
-0.00373157
-0.00373157
-0.0172497
-0.0172497
-0.0103536
-0.0103536
0.0781713
0.0781713
-0.152692
-0.152692
-0.0668042
-0.0668042
-0.0111645
-0.0111645
-0.204007
-0.204007
-0.207416
-0.207416
-0.00771909
-0.00771909
-0.230541
-0.230541
-0.00219231
-0.00219231
-0.134226
-0.134226
0.0409289
0.0409289
-0.0201016
-0.0201016
-0.000940617
-0.000940617
-0.0341709
-0.0341709
-0.311057
-0.311057
-0.0397884
-0.0397884
-0.0177807
-0.0177807
-0.0400194
-0.0400194
-0.139237
-0.139237
-0.0647867
-0.0647867
-0.0640199
-0.0640199
0.0946086
0.0946086
-0.0125243
-0.0125243
-0.157208
-0.157208
-0.0184487
-0.0184487
-0.00810274
-0.00810274
-0.205198
-0.205198
-0.0283383
-0.0283383
-0.165495
-0.165495
-0.0200623
-0.0200623
-0.00442866
-0.00442866
-0.0816574
-0.0816574
0.0308099
0.0308099
0.00206543
0.00206543
-0.0489742
-0.0489742
-0.061313
-0.061313
-0.043923
-0.043923
-0.079137
-0.079137
-0.188846
-0.188846
0.0607185
0.0607185
-0.166229
-0.166229
0.00888124
0.00888124
-0.19518
-0.19518
-0.0573945
-0.0573945
-0.0785506
-0.0785506
-0.010353
-0.010353
0.0343285
0.0343285
-0.223978
-0.223978
0.0450804
0.0450804
0.0169804
0.0169804
0.0880718
0.0880718
-0.188723
-0.188723
-0.0561515
-0.0561515
-0.00342113
-0.00342113
-0.0999077
-0.0999077
-0.139975
-0.139975
-0.0382262
-0.0382262
-0.172034
-0.172034
-0.0677545
-0.0677545
-0.0198128
-0.0198128
-0.0323048
-0.0323048
0.0356236
0.0356236
-0.154845
-0.154845
0.0601141
0.0601141
-0.0495851
-0.0495851
0.000927453
0.000927453
-0.0618125
-0.0618125
0.00919349
0.00919349
0.0329778
0.0329778
-0.0568184
-0.0568184
-0.0941056
-0.0941056
-0.142901
-0.142901
0.00845588
0.00845588
-0.209321
-0.209321
0.0406159
0.0406159
-0.027239
-0.027239
-0.0833815
-0.0833815
-0.133536
-0.133536
-0.183032
-0.183032
-0.169978
-0.169978
-0.0228101
-0.0228101
-0.0812552
-0.0812552
-0.0011213
-0.0011213
-0.0126782
-0.0126782
-0.229361
-0.229361
-0.0237702
-0.0237702
0.0734493
0.0734493
0.0346835
0.0346835
-0.0270807
-0.0270807
-0.00179631
-0.00179631
0.00154513
0.00154513
-0.000298659
-0.000298659
-0.0658432
-0.0658432
-0.06286
-0.06286
0.015902
0.015902
-0.0111527
-0.0111527
-0.0949139
-0.0949139
0.021269
0.021269
-0.0510282
-0.0510282
-0.032931
-0.032931
-0.0388446
-0.0388446
-0.0174389
-0.0174389
-0.0164724
-0.0164724
-0.117643
-0.117643
-0.012112
-0.012112
0.00765927
0.00765927
-0.00644942
-0.00644942
0.0808659
0.0808659
-0.0954691
-0.0954691
-0.0769019
-0.0769019
-0.0684622
-0.0684622
-0.0786306
-0.0786306
-0.0281215
-0.0281215
-0.118772
-0.118772
-0.128728
-0.128728
-0.0605357
-0.0605357
-0.249524
-0.249524
0.0395864
0.0395864
-0.0176958
-0.0176958
-0.0123847
-0.0123847
0.0805668
0.0805668
0.0404743
0.0404743
-0.0115489
-0.0115489
-0.000610964
-0.000610964
-0.0220903
-0.0220903
-0.0242011
-0.0242011
-0.0947913
-0.0947913
-0.0631502
-0.0631502
-0.063536
-0.063536
-0.0570744
-0.0570744
-0.0844305
-0.0844305
-0.0199139
-0.0199139
0.0212842
0.0212842
0.0599176
0.0599176
-0.0399644
-0.0399644
-0.0606747
-0.0606747
-0.0248638
-0.0248638
-0.361136
-0.361136
0.0103747
0.0103747
0.0387184
0.0387184
-0.190045
-0.190045
0.0460777
0.0460777
-0.0297034
-0.0297034
0.0252922
0.0252922
-0.328037
-0.328037
-0.0404542
-0.0404542
0.0363194
0.0363194
-0.23583
-0.23583
-0.110533
-0.110533
-0.0607489
-0.0607489
-0.235335
-0.235335
-0.0229534
-0.0229534
-0.0221591
-0.0221591
-0.0774859
-0.0774859
-0.32641
-0.32641
-0.0808495
-0.0808495
-0.00976463
-0.00976463
-0.0256165
-0.0256165
0.00597962
0.00597962
-0.162525
-0.162525
-0.0859111
-0.0859111
0.0136508
0.0136508
-0.0734519
-0.0734519
-0.0287249
-0.0287249
-0.0264633
-0.0264633
-0.122971
-0.122971
-0.133741
-0.133741
-0.190888
-0.190888
-0.00282941
-0.00282941
-0.0434112
-0.0434112
-0.0741489
-0.0741489
-0.040221
-0.040221
-0.046952
-0.046952
0.00468878
0.00468878
-0.0637345
-0.0637345
0.0257609
0.0257609
-0.046473
-0.046473
-0.0362543
-0.0362543
-0.0148052
-0.0148052
0.0455183
0.0455183
-0.103581
-0.103581
-0.132997
-0.132997
-0.0133734
-0.0133734
-0.150957
-0.150957
-0.0355317
-0.0355317
-0.235742
-0.235742
-0.391128
-0.391128
0.0234134
0.0234134
0.0440574
0.0440574
0.0231038
0.0231038
-0.0936683
-0.0936683
0.000979967
0.000979967
-0.00499349
-0.00499349
-0.160688
-0.160688
-0.0107101
-0.0107101
-0.0122953
-0.0122953
0.00651469
0.00651469
-0.00784887
-0.00784887
-0.0942433
-0.0942433
-0.259868
-0.259868
-0.00545692
-0.00545692
-0.000484784
-0.000484784
-0.0269703
-0.0269703
-0.0292832
-0.0292832
-0.195454
-0.195454
-0.00971991
-0.00971991
-0.148917
-0.148917
0.00754228
0.00754228
-0.0696007
-0.0696007
-0.0460545
-0.0460545
0.0268915
0.0268915
-0.0398518
-0.0398518
0.0157815
0.0157815
0.0135427
0.0135427
-0.0364667
-0.0364667
-0.00719638
-0.00719638
-0.0502036
-0.0502036
-0.0545656
-0.0545656
-0.0173597
-0.0173597
0.0447767
0.0447767
-0.0408361
-0.0408361
-0.0646636
-0.0646636
0.043866
0.043866
-0.00937666
-0.00937666
-0.115798
-0.115798
-0.00489819
-0.00489819
-0.074768
-0.074768
-0.223242
-0.223242
-0.0292093
-0.0292093
-0.0556492
-0.0556492
-0.0974725
-0.0974725
0.0657065
0.0657065
0.02454
0.02454
-0.0538431
-0.0538431
0.0165314
0.0165314
-0.00707118
-0.00707118
-0.060466
-0.060466
-0.0511416
-0.0511416
-0.0481844
-0.0481844
-0.0119686
-0.0119686
0.00034938
0.00034938
-0.0436692
-0.0436692
-0.0456547
-0.0456547
-0.015748
-0.015748
-0.0307978
-0.0307978
-0.323675
-0.323675
-0.0110662
-0.0110662
-0.0387334
-0.0387334
-0.0496092
-0.0496092
-0.021541
-0.021541
0.0238427
0.0238427
-0.0283575
-0.0283575
-0.0467124
-0.0467124
0.0220577
0.0220577
0.00754252
0.00754252
-0.0763566
-0.0763566
-0.0575201
-0.0575201
-0.146037
-0.146037
-0.023307
-0.023307
0.00579813
0.00579813
-0.0190075
-0.0190075
-0.0151793
-0.0151793
-0.0883018
-0.0883018
-0.0107091
-0.0107091
-0.0307791
-0.0307791
-0.0288115
-0.0288115
-0.165743
-0.165743
-0.0182472
-0.0182472
-0.0190776
-0.0190776
-0.0440898
-0.0440898
-0.138146
-0.138146
-0.00442369
-0.00442369
-0.155848
-0.155848
-0.00482192
-0.00482192
-0.200725
-0.200725
-0.166479
-0.166479
-0.000624654
-0.000624654
0.0414659
0.0414659
0.0132525
0.0132525
-0.122495
-0.122495
-0.00371571
-0.00371571
-0.0369374
-0.0369374
-0.189778
-0.189778
0.0530824
0.0530824
-0.121238
-0.121238
-0.0428891
-0.0428891
-0.113278
-0.113278
-0.158276
-0.158276
0.0686528
0.0686528
-0.0248804
-0.0248804
-0.0629556
-0.0629556
-0.0143135
-0.0143135
-0.0676391
-0.0676391
-0.015784
-0.015784
-0.0210286
-0.0210286
-0.0430113
-0.0430113
-0.116055
-0.116055
-0.0757842
-0.0757842
0.00757034
0.00757034
-0.129019
-0.129019
-0.0551409
-0.0551409
-0.0649136
-0.0649136
-0.0995512
-0.0995512
-0.126867
-0.126867
-0.0789619
-0.0789619
0.0257738
0.0257738
-0.293068
-0.293068
0.0152521
0.0152521
-0.0743266
-0.0743266
-0.033774
-0.033774
-0.183749
-0.183749
-0.107263
-0.107263
0.0551898
0.0551898
-0.0953392
-0.0953392
-0.139979
-0.139979
-0.0418759
-0.0418759
-0.121479
-0.121479
-0.195777
-0.195777
0.0602581
0.0602581
-0.0446289
-0.0446289
-0.000260714
-0.000260714
-0.0154591
-0.0154591
-0.168647
-0.168647
-0.162275
-0.162275
-0.00825214
-0.00825214
-0.0483588
-0.0483588
0.0309522
0.0309522
-0.11741
-0.11741
-0.00847428
-0.00847428
-0.265594
-0.265594
-0.191817
-0.191817
-0.0290322
-0.0290322
-0.0301275
-0.0301275
-0.160211
-0.160211
-0.0633942
-0.0633942
0.095201
0.095201
-0.136241
-0.136241
0.0887201
0.0887201
-0.036455
-0.036455
-0.0345207
-0.0345207
-0.154971
-0.154971
-0.0208868
-0.0208868
-0.00546372
-0.00546372
-0.0310196
-0.0310196
-0.0449266
-0.0449266
-0.03643
-0.03643
-0.0367301
-0.0367301
0.00161137
0.00161137
-0.0238521
-0.0238521
-0.0976559
-0.0976559
-0.0319953
-0.0319953
-0.0401445
-0.0401445
-0.0280136
-0.0280136
-0.0132488
-0.0132488
-0.0481614
-0.0481614
0.0171438
0.0171438
-0.0327703
-0.0327703
0.0057469
0.0057469
-0.0195366
-0.0195366
-0.213182
-0.213182
-0.0390461
-0.0390461
-0.0626333
-0.0626333
0.0348316
0.0348316
-0.0175996
-0.0175996
0.0124277
0.0124277
-0.0352229
-0.0352229
-0.170412
-0.170412
-0.0125579
-0.0125579
-0.142274
-0.142274
-0.0311768
-0.0311768
-0.00625293
-0.00625293
-0.036936
-0.036936
-0.0367584
-0.0367584
-0.034772
-0.034772
-0.0471839
-0.0471839
-0.0731515
-0.0731515
0.0719517
0.0719517
0.00229935
0.00229935
-0.00578659
-0.00578659
-0.0734795
-0.0734795
0.0440743
0.0440743
-0.0201949
-0.0201949
-0.0112788
-0.0112788
-0.0404915
-0.0404915
-0.0342119
-0.0342119
-0.00565296
-0.00565296
-0.0253068
-0.0253068
-0.00106449
-0.00106449
-0.013777
-0.013777
-0.0493985
-0.0493985
0.0094644
0.0094644
-0.0922091
-0.0922091
-0.0453127
-0.0453127
0.0920426
0.0920426
-0.0121681
-0.0121681
0.0289991
0.0289991
-0.0285494
-0.0285494
-0.251284
-0.251284
-0.212519
-0.212519
-0.0907645
-0.0907645
0.0556696
0.0556696
-0.14053
-0.14053
-0.00344166
-0.00344166
-0.0153356
-0.0153356
-0.0170905
-0.0170905
-0.00472461
-0.00472461
-0.0376805
-0.0376805
-0.0475285
-0.0475285
-0.0141629
-0.0141629
-0.0687212
-0.0687212
-0.314251
-0.314251
-0.0239937
-0.0239937
-0.0370388
-0.0370388
-0.0248642
-0.0248642
-0.0853793
-0.0853793
0.0267224
0.0267224
-0.140757
-0.140757
-0.00677547
-0.00677547
0.0406261
0.0406261
-0.00700032
-0.00700032
-0.0171874
-0.0171874
-0.219192
-0.219192
-0.218899
-0.218899
-0.190627
-0.190627
-0.00348982
-0.00348982
0.00896549
0.00896549
-0.0420886
-0.0420886
-0.00986084
-0.00986084
-0.0145844
-0.0145844
-0.0167428
-0.0167428
-0.00820781
-0.00820781
0.0519484
0.0519484
-0.234924
-0.234924
-0.0142061
-0.0142061
-0.00153579
-0.00153579
-0.00824157
-0.00824157
-0.0203476
-0.0203476
-0.011142
-0.011142
0.0178452
0.0178452
-0.131594
-0.131594
-0.0279064
-0.0279064
-0.0740958
-0.0740958
-0.142646
-0.142646
-0.0484335
-0.0484335
-0.19096
-0.19096
-0.063879
-0.063879
-0.0609043
-0.0609043
-0.00469347
-0.00469347
-0.022575
-0.022575
0.0509272
0.0509272
0.0741547
0.0741547
-0.0154714
-0.0154714
-0.00817174
-0.00817174
0.0163145
0.0163145
-0.0990248
-0.0990248
-0.00933822
-0.00933822
0.037035
0.037035
-0.0361648
-0.0361648
-0.00021287
-0.00021287
-0.013963
-0.013963
-0.0200061
-0.0200061
-0.182739
-0.182739
0.0733372
0.0733372
-0.00989355
-0.00989355
-0.0674842
-0.0674842
-0.100567
-0.100567
-0.110801
-0.110801
-0.0145921
-0.0145921
-0.00850817
-0.00850817
-0.135845
-0.135845
0.0188088
0.0188088
-0.181216
-0.181216
-0.237439
-0.237439
0.0187359
0.0187359
-0.0152591
-0.0152591
-0.16844
-0.16844
-0.0321538
-0.0321538
-0.0425198
-0.0425198
-0.0704369
-0.0704369
-0.0229372
-0.0229372
0.0384321
0.0384321
-0.15794
-0.15794
-0.0615707
-0.0615707
0.024413
0.024413
-0.13779
-0.13779
-0.037427
-0.037427
-0.0318193
-0.0318193
-0.013886
-0.013886
-0.01136
-0.01136
-0.0444136
-0.0444136
-0.0818186
-0.0818186
-0.0157601
-0.0157601
0.0414665
0.0414665
-0.385405
-0.385405
0.00494058
0.00494058
-0.0197525
-0.0197525
-0.0556445
-0.0556445
0.0242605
0.0242605
-0.0535241
-0.0535241
-0.0258501
-0.0258501
-0.036775
-0.036775
-0.00502272
-0.00502272
0.0111749
0.0111749
0.0072871
0.0072871
0.0135524
0.0135524
-0.19348
-0.19348
-0.0533114
-0.0533114
0.00746444
0.00746444
0.0511472
0.0511472
0.0103155
0.0103155
0.0486973
0.0486973
-0.0236046
-0.0236046
0.0117057
0.0117057
-0.0237614
-0.0237614
-0.0268292
-0.0268292
-0.329768
-0.329768
0.0181295
0.0181295
-0.276875
-0.276875
0.0467403
0.0467403
0.00319731
0.00319731
-0.0511924
-0.0511924
-0.0280108
-0.0280108
-0.0885531
-0.0885531
-0.0998616
-0.0998616
-0.0326535
-0.0326535
-0.00408132
-0.00408132
0.0507477
0.0507477
-0.116361
-0.116361
-0.0300757
-0.0300757
-0.0251119
-0.0251119
0.0697221
0.0697221
0.001435
0.001435
-0.00639679
-0.00639679
0.000792642
0.000792642
-0.011302
-0.011302
-0.0734115
-0.0734115
-0.156694
-0.156694
-0.179927
-0.179927
-0.0273992
-0.0273992
0.0374286
0.0374286
-0.182969
-0.182969
-0.0714568
-0.0714568
0.0683777
0.0683777
-0.00856318
-0.00856318
0.00164685
0.00164685
-0.0505186
-0.0505186
-0.0412789
-0.0412789
-0.0116111
-0.0116111
-0.175073
-0.175073
0.10595
0.10595
-0.12521
-0.12521
-0.011582
-0.011582
-0.0536008
-0.0536008
-0.230148
-0.230148
0.00936128
0.00936128
-0.0440026
-0.0440026
-0.201375
-0.201375
0.0757393
0.0757393
-0.00547987
-0.00547987
0.010595
0.010595
-0.0318746
-0.0318746
0.0430052
0.0430052
-0.00280924
-0.00280924
-0.00855993
-0.00855993
-0.0593948
-0.0593948
-0.0968312
-0.0968312
-0.295205
-0.295205
-0.23048
-0.23048
0.0273362
0.0273362
-0.218051
-0.218051
-0.0422569
-0.0422569
-0.0209831
-0.0209831
0.00287286
0.00287286
-0.0686819
-0.0686819
0.016345
0.016345
-0.00865464
-0.00865464
0.014163
0.014163
-0.00761978
-0.00761978
0.000205741
0.000205741
-0.0595674
-0.0595674
-0.0359389
-0.0359389
-0.00773327
-0.00773327
-0.116617
-0.116617
0.00561357
0.00561357
-0.044464
-0.044464
-0.0514825
-0.0514825
0.0374578
0.0374578
-0.0587066
-0.0587066
-0.0272797
-0.0272797
0.0586907
0.0586907
0.015241
0.015241
0.0542704
0.0542704
-0.0711377
-0.0711377
-0.0028248
-0.0028248
-0.147886
-0.147886
-0.0448981
-0.0448981
-0.219596
-0.219596
-0.119729
-0.119729
-0.219912
-0.219912
-0.0175926
-0.0175926
-0.152895
-0.152895
0.0051665
0.0051665
-0.0402677
-0.0402677
-0.193019
-0.193019
-0.219895
-0.219895
0.0328083
0.0328083
-0.0440792
-0.0440792
0.0404877
0.0404877
0.0523014
0.0523014
-0.0808128
-0.0808128
-0.205101
-0.205101
-0.00721605
-0.00721605
0.0184073
0.0184073
0.0133528
0.0133528
0.0396473
0.0396473
-0.109069
-0.109069
-0.0402712
-0.0402712
0.00439225
0.00439225
-0.0406326
-0.0406326
-0.044822
-0.044822
-0.056118
-0.056118
0.0219526
0.0219526
-0.121166
-0.121166
-0.0147149
-0.0147149
-0.0133081
-0.0133081
-0.0272054
-0.0272054
-0.0397764
-0.0397764
-0.0115106
-0.0115106
-0.133202
-0.133202
-0.189394
-0.189394
-0.0288624
-0.0288624
-0.00664836
-0.00664836
-0.0427476
-0.0427476
0.00896033
0.00896033
-0.196255
-0.196255
-0.00284328
-0.00284328
0.0552015
0.0552015
-0.238356
-0.238356
-0.00436887
-0.00436887
-0.0607537
-0.0607537
-0.067108
-0.067108
-0.148176
-0.148176
-0.0335436
-0.0335436
-0.03647
-0.03647
-0.00499832
-0.00499832
-0.168839
-0.168839
-0.0426197
-0.0426197
-0.113253
-0.113253
0.00368585
0.00368585
-0.0164866
-0.0164866
0.0191821
0.0191821
0.0281228
0.0281228
-0.0801253
-0.0801253
0.00536545
0.00536545
0.00585081
0.00585081
0.00423893
0.00423893
0.00115235
0.00115235
-0.0072296
-0.0072296
-0.0463786
-0.0463786
-0.046802
-0.046802
-0.0987843
-0.0987843
-0.0152388
-0.0152388
0.0452489
0.0452489
-0.0513335
-0.0513335
-0.153595
-0.153595
0.0344304
0.0344304
-0.0505402
-0.0505402
-0.0168992
-0.0168992
-0.0468594
-0.0468594
-0.0344054
-0.0344054
-0.02762
-0.02762
-0.0151771
-0.0151771
-0.128165
-0.128165
-0.0173237
-0.0173237
-0.0276082
-0.0276082
-0.026965
-0.026965
-0.159778
-0.159778
-0.258841
-0.258841
-0.033422
-0.033422
-0.0170544
-0.0170544
-0.164557
-0.164557
-0.0373628
-0.0373628
-0.0163571
-0.0163571
-0.10743
-0.10743
-0.115333
-0.115333
-0.0478685
-0.0478685
-0.0109253
-0.0109253
-0.0903762
-0.0903762
0.0152499
0.0152499
0.0310636
0.0310636
0.00303098
0.00303098
-0.0095485
-0.0095485
-0.0317594
-0.0317594
0.03097
0.03097
0.0811634
0.0811634
-0.165445
-0.165445
-0.0232541
-0.0232541
-0.0318179
-0.0318179
-0.0702072
-0.0702072
-0.0507245
-0.0507245
0.0189123
0.0189123
-0.0581039
-0.0581039
0.0309377
0.0309377
-0.134783
-0.134783
-0.192045
-0.192045
0.0910554
0.0910554
-0.154084
-0.154084
-0.186207
-0.186207
-0.123065
-0.123065
-0.065012
-0.065012
-0.0242206
-0.0242206
-0.0241641
-0.0241641
-0.0936116
-0.0936116
-0.0651502
-0.0651502
0.00183587
0.00183587
-0.0217559
-0.0217559
-0.0103359
-0.0103359
0.0208766
0.0208766
-0.0607669
-0.0607669
-0.135248
-0.135248
-0.282435
-0.282435
-0.19499
-0.19499
-0.109495
-0.109495
-0.0753768
-0.0753768
-0.335326
-0.335326
-0.0159053
-0.0159053
-0.145075
-0.145075
0.0343925
0.0343925
-0.0048622
-0.0048622
-0.194968
-0.194968
-0.0644858
-0.0644858
-0.0561695
-0.0561695
-0.149427
-0.149427
-0.0123955
-0.0123955
-0.0202954
-0.0202954
-0.0121656
-0.0121656
-0.0290275
-0.0290275
-0.147029
-0.147029
-0.0185209
-0.0185209
-0.0144687
-0.0144687
-0.0132028
-0.0132028
-0.00286698
-0.00286698
-0.110339
-0.110339
-0.00655717
-0.00655717
-0.201347
-0.201347
-0.331134
-0.331134
-0.0338857
-0.0338857
0.0281156
0.0281156
-0.0607026
-0.0607026
-0.0630018
-0.0630018
-0.0233235
-0.0233235
-0.0833946
-0.0833946
0.0158223
0.0158223
-0.0155943
-0.0155943
-0.0118546
-0.0118546
-0.00963193
-0.00963193
-0.00834535
-0.00834535
-0.00655044
-0.00655044
-0.00516458
-0.00516458
-0.003841
-0.003841
-0.00264391
-0.00264391
-0.00164925
-0.00164925
-0.00065025
-0.00065025
0.000187559
0.000187559
0.000933251
0.000933251
0.00165595
0.00165595
0.00210579
0.00210579
0.0025167
0.0025167
0.00289849
0.00289849
0.00304302
0.00304302
0.00317642
0.00317642
0.00310172
0.00310172
0.00308239
0.00308239
0.00280232
0.00280232
0.00237793
0.00237793
0.00206069
0.00206069
0.00147725
0.00147725
0.00083393
0.00083393
-6.05317e-05
-6.05317e-05
-0.000813385
-0.000813385
-0.00162873
-0.00162873
-0.00292539
-0.00292539
-0.00397295
-0.00397295
-0.00586487
-0.00586487
-0.00694507
-0.00694507
-0.0081227
-0.0081227
-0.0109041
-0.0109041
-0.0130076
-0.0130076
-0.0137597
-0.0137597
-0.0163141
-0.0163141
-0.0211257
-0.0211257
-0.0232278
-0.0232278
-0.0256557
-0.0256557
-0.0317709
-0.0317709
-0.0375675
-0.0375675
-0.0442371
-0.0442371
-0.0536949
-0.0536949
-0.0700025
-0.0700025
-0.0859066
-0.0859066
-0.118617
-0.118617
-0.139954
-0.139954
-0.0679823
-0.0679823
0.00843194
0.00843194
-0.0199543
-0.0199543
-0.0293295
-0.0293295
-0.0235349
-0.0235349
-0.0236461
-0.0236461
-0.0222149
-0.0222149
-0.0301577
-0.0301577
-0.0432457
-0.0432457
-0.0511653
-0.0511653
-0.0595287
-0.0595287
-0.0674581
-0.0674581
-0.0730009
-0.0730009
-0.0743143
-0.0743143
-0.0723344
-0.0723344
-0.0686017
-0.0686017
-0.0629309
-0.0629309
-0.0560211
-0.0560211
-0.0482212
-0.0482212
-0.0410179
-0.0410179
-0.0340566
-0.0340566
-0.0286561
-0.0286561
-0.0262932
-0.0262932
-0.0239639
-0.0239639
-0.0136985
-0.0136985
-0.0127219
-0.0127219
-0.0110078
-0.0110078
-0.008378
-0.008378
-0.00695778
-0.00695778
-0.00599523
-0.00599523
-0.00396155
-0.00396155
-0.00307556
-0.00307556
-0.0016181
-0.0016181
-0.000794749
-0.000794749
-5.65507e-05
-5.65507e-05
0.00086858
0.00086858
0.00147422
0.00147422
0.00204685
0.00204685
0.00234456
0.00234456
0.00286446
0.00286446
0.00298778
0.00298778
0.00309198
0.00309198
0.00301939
0.00301939
0.00311764
0.00311764
0.00285593
0.00285593
0.00248846
0.00248846
0.00216576
0.00216576
0.00155116
0.00155116
0.000957861
0.000957861
0.000212963
0.000212963
-0.00068058
-0.00068058
-0.00159042
-0.00159042
-0.00270848
-0.00270848
-0.00389617
-0.00389617
-0.00528591
-0.00528591
-0.00661281
-0.00661281
-0.00817182
-0.00817182
-0.00982017
-0.00982017
-0.0120315
-0.0120315
-0.0158524
-0.0158524
-0.0235297
-0.0235297
-0.0263683
-0.0263683
-0.0286904
-0.0286904
-0.0341817
-0.0341817
-0.041007
-0.041007
-0.048695
-0.048695
-0.0568078
-0.0568078
-0.0636601
-0.0636601
-0.0694352
-0.0694352
-0.0731532
-0.0731532
-0.0744929
-0.0744929
-0.0729746
-0.0729746
-0.0685894
-0.0685894
-0.058789
-0.058789
-0.0487218
-0.0487218
-0.0384591
-0.0384591
-0.0310111
-0.0310111
-0.0267829
-0.0267829
-0.0207921
-0.0207921
-0.021486
-0.021486
-0.0232161
-0.0232161
-0.018928
-0.018928
-0.00592831
-0.00592831
-0.0566706
-0.0566706
-0.130465
-0.130465
-0.128628
-0.128628
-0.093937
-0.093937
-0.0663729
-0.0663729
-0.0564488
-0.0564488
-0.0422932
-0.0422932
-0.0368072
-0.0368072
-0.0332331
-0.0332331
-0.0264357
-0.0264357
-0.022233
-0.022233
-0.0208253
-0.0208253
-0.0175048
-0.0175048
      </DataArray> 
    </PointData>
    <CellData>
    </CellData>
  </Piece>
  </UnstructuredGrid>
</VTKFile>
