<?xml version="1.0"?>
<VTKFile type="UnstructuredGrid">
  <UnstructuredGrid>
  <Piece NumberOfPoints="3487"  NumberOfCells="1698">
    <Points>
      <DataArray type="Float64" NumberOfComponents="3" format="ascii">
39.9732 48.6657 0
60.0273 48.6649 0
40.6341 48.7966 0
41.2965 48.9186 0
41.9602 49.0315 0
42.6253 49.1355 0
43.2917 49.2305 0
43.9592 49.3164 0
44.6278 49.3933 0
45.2973 49.4612 0
45.9676 49.5201 0
46.6387 49.5698 0
47.3103 49.6106 0
47.9824 49.6423 0
48.6549 49.6649 0
49.3276 49.6785 0
50.0004 49.683 0
50.6733 49.6784 0
51.3459 49.6648 0
52.0184 49.6421 0
52.6905 49.6104 0
53.3621 49.5696 0
54.0332 49.5197 0
54.7035 49.4608 0
55.373 49.3929 0
56.0415 49.3159 0
56.709 49.2299 0
57.3753 49.1349 0
58.0404 49.0309 0
58.7041 48.9179 0
59.3664 48.7958 0
39.9944 49.6818 0
39.9939 49.4278 0
39.9901 49.1738 0
39.9831 48.9197 0
19.909 69.5967 0
39.9917 49.9434 0
39.9855 50.205 0
39.9706 50.5834 0
39.9484 50.9614 0
39.9036 51.5075 0
39.8439 52.0522 0
39.731 52.8371 0
39.5871 53.6169 0
39.3242 54.7338 0
38.9974 55.8339 0
38.722 56.6172 0
38.4141 57.3884 0
38.0745 58.1462 0
37.7036 58.8893 0
37.1131 59.9357 0
36.4608 60.9449 0
35.749 61.9131 0
-0.0473273 49.5528 0
17.2992 69.4175 0
14.7351 68.8999 0
12.2602 68.0527 0
9.91676 66.8903 0
7.74486 65.4324 0
11.5563 31.6185 0
0.160359 46.7343 0
0.765043 43.9738 0
1.75493 41.327 0
0 0 0
0.116992 3.70909 0
0.524842 7.40432 0
1.2161 11.0607 0
2.18568 14.6527 0
3.09362 17.2972 0
49.9997 -0.30364 0
5.1116 0 0
10.2232 0 0
15.3348 0 0
100 0 0
57.4061 -0.294177 0
64.8123 -0.259618 0
72.2118 -0.187137 0
88.4444 31.6178 0
99.8831 3.70909 0
99.4753 7.40414 0
98.7841 11.0605 0
97.8145 14.6524 0
96.9066 17.297 0
100.047 49.5525 0
99.8398 46.7339 0
99.2351 43.9735 0
98.2452 41.3266 0
80.091 69.5961 0
99.8827 52.1629 0
99.3777 54.7294 0
98.5417 57.2078 0
97.389 59.556 0
95.9397 61.7335 0
60.0059 49.681 0
77.58 69.4464 0
75.1075 68.9833 0
72.7125 68.2141 0
70.4327 67.1508 0
68.9438 66.2529 0
67.5383 65.2292 0
66.227 64.0874 0
65.0197 62.8361 0
64.2511 61.9124 0
63.5393 60.9442 0
62.887 59.935 0
62.2965 58.8885 0
61.586 57.3877 0
61.0027 55.8331 0
60.676 54.7331 0
60.4131 53.6161 0
60.2692 52.8363 0
60.0065 49.4269 0
60.0103 49.1729 0
60.0173 48.9189 0
52.8162 29.9399 0
26.5414 36.7634 0
40.3427 24.0711 0
24.9531 22.3656 0
71.9173 22.3863 0
72.7026 43.8106 0
54.798 23.8918 0
15.2897 47.2534 0
38.3584 49.2922 0
23.5632 65.0768 0
7.68505 7.72173 0
91.9564 7.69976 0
29.1445 56.7352 0
37.1765 51.7617 0
28.0863 47.0528 0
29.7244 48.0142 0
71.5165 46.538 0
30.9818 48.9128 0
70.5181 48.0154 0
31.6375 45.5028 0
30.8861 46.9567 0
70.0648 46.5273 0
68.9812 44.853 0
31.2842 50.0074 0
30.8944 51.2294 0
28.1817 49.008 0
45.3102 41.1419 0
53.8423 40.7629 0
56.0249 40.3118 0
73.1311 47.2914 0
70.1202 49.2554 0
68.3271 42.2845 0
32.3162 42.6149 0
26.1358 45.5356 0
27.6784 44.5417 0
30.3085 43.172 0
70.4083 42.4829 0
72.6775 45.8041 0
44.8507 42.9341 0
51.4302 41.8407 0
55.4081 42.4269 0
32.4461 48.9498 0
68.5606 49.4924 0
39.4809 41.9252 0
35.4435 43.2402 0
32.8949 46.401 0
33.575 48.1484 0
67.1064 48.0927 0
67.9825 46.3307 0
65.0688 42.9032 0
60.4153 41.5626 0
32.3587 51.2669 0
28.2063 50.8653 0
41.7829 37.1488 0
46.8252 37.553 0
52.0482 39.7255 0
58.674 39.0952 0
26.5926 51.7601 0
24.2887 50.1937 0
74.2367 49.8018 0
71.1744 50.5054 0
69.1537 52.0861 0
67.9281 52.2206 0
59.7568 36.2159 0
66.4968 40.5317 0
34.1135 40.9083 0
36.0337 35.6485 0
23.1777 47.0265 0
21.6468 43.1341 0
28.3586 41.6562 0
74.317 44.5643 0
76.6453 48.4082 0
43.0562 43.522 0
46.2699 42.8079 0
49.9682 42.8558 0
48.4333 42.6387 0
51.7628 43.8932 0
54.0875 44.0089 0
52.9055 44.3045 0
56.2711 43.5576 0
33.8775 49.2434 0
33.7755 50.7562 0
66.5458 51.5707 0
66.6006 49.5805 0
41.8341 43.7594 0
40.7053 43.4969 0
38.4639 43.1039 0
37.1453 43.7086 0
35.348 45.4153 0
34.3262 46.6939 0
66.023 46.4176 0
65.0167 45.1451 0
63.1866 43.3921 0
61.701 42.9433 0
58.8762 43.3571 0
57.5372 43.6734 0
33.3856 51.9787 0
29.1514 53.585 0
40.8412 30.8737 0
50.8848 35.8671 0
55.6638 34.1498 0
23.5424 53.3032 0
76.9337 51.7725 0
70.2523 53.192 0
66.4189 52.8117 0
65.4633 35.0334 0
30.9641 34.453 0
19.437 47.1449 0
26.1356 39.8948 0
71.99 33.9752 0
72.0473 41.2442 0
77.4876 45.1653 0
43.1685 44.9641 0
45.8104 44.6003 0
48.7651 44.6912 0
51.4432 45.3196 0
53.7684 45.4353 0
56.2169 45.2557 0
34.9046 49.9549 0
65.0913 50.1709 0
40.8172 44.9388 0
38.3696 45.2806 0
36.0287 47.1635 0
64.1399 46.908 0
61.6477 45.187 0
58.8227 45.0551 0
36.0583 52.2295 0
34.9054 52.9912 0
33.4886 53.5014 0
31.8838 55.2913 0
26.0656 58.7523 0
22.9705 57.1542 0
32.4118 22.5885 0
47.0396 26.5595 0
63.1263 22.9266 0
19.9655 54.8619 0
80.2114 54.1275 0
75.8235 55.6387 0
71.9593 55.9945 0
69.1096 55.3184 0
65.7883 53.8206 0
64.1116 53.6668 0
68.1388 28.8816 0
26.7933 29.9731 0
17.2185 51.5935 0
14.5952 42.3025 0
22.4181 33.9469 0
84.9087 46.7153 0
84.7432 51.8625 0
75.1592 37.8085 0
81.2167 43.8005 0
42.4575 46.2945 0
41.4172 46.1027 0
44.9663 46.14 0
43.6801 46.057 0
47.7367 46.0812 0
46.3862 46.0138 0
50.62 46.3944 0
49.2722 46.2984 0
53.0505 46.7895 0
51.7631 46.8058 0
55.5126 46.4018 0
54.2328 46.4939 0
58.0607 46.3554 0
56.7793 46.5177 0
36.3714 48.4856 0
36.0228 49.4866 0
35.9207 51.0001 0
63.3945 51.9341 0
63.8361 50.9211 0
63.8911 48.9299 0
63.8385 48.0275 0
40.288 45.8399 0
39.3723 46.0192 0
38.0531 46.6233 0
37.3936 47.207 0
62.8321 46.7548 0
62.0159 46.4307 0
60.5297 45.9825 0
59.4002 46.0387 0
38.0496 52.4331 0
36.161 53.7531 0
34.0516 56.611 0
29.5664 59.673 0
22.8351 61.2111 0
21.7491 15.3413 0
39.9736 16.1 0
48.9016 11.3762 0
56.9367 16.827 0
76.6327 15.5733 0
15.6016 56.9024 0
84.558 57.337 0
73.4439 59.3339 0
66.5401 55.4793 0
62.4697 53.4397 0
82.941 7.80632 0
79.7267 22.5186 0
16.3064 7.88919 0
18.3616 22.239 0
10.7003 46.6072 0
16.5937 35.8795 0
15.546 30.2986 0
89.4312 49.4795 0
83.2876 31.1392 0
81.5693 39.1674 0
41.9286 47.1959 0
44.2558 47.4706 0
46.893 47.6211 0
49.5918 47.7846 0
52.2273 47.8644 0
54.7948 47.7561 0
57.3565 47.5017 0
37.3878 49.5308 0
37.9121 51.203 0
62.194 50.6931 0
62.5829 48.7772 0
39.972 47.1834 0
38.3964 47.946 0
38.5103 48.7159 0
61.7663 48.4139 0
61.714 47.5508 0
59.768 47.2834 0
38.8825 50.965 0
61.3546 50.8988 0
39.1862 52.7456 0
38.4506 53.304 0
38.1558 54.4124 0
37.003 55.1736 0
36.4946 56.9456 0
34.8427 58.4648 0
33.3309 60.3187 0
30.7093 62.4234 0
27.9442 64.5692 0
27.1773 7.75244 0
38.6592 8.23945 0
59.8738 8.46109 0
71.759 7.82713 0
19.1889 64.515 0
14.894 62.7756 0
10.6971 59.9834 0
6.25219 56.9352 0
5.96847 51.0053 0
94.2667 52.1012 0
93.3573 57.1541 0
89.376 60.5023 0
84.6258 63.0197 0
79.5201 64.6983 0
74.6186 63.7397 0
70.3071 62.4664 0
66.8663 61.0197 0
65.2454 58.3515 0
62.7416 57.0302 0
62.0948 55.5027 0
61.8 54.3943 0
61.0828 52.6611 0
93.5022 14.5149 0
89.7938 20.662 0
86.0963 24.9826 0
6.24413 14.5086 0
13.0209 24.4523 0
9.79065 20.653 0
5.73952 45.4411 0
5.64495 40.5013 0
12.317 34.6053 0
94.2524 46.9859 0
88.1143 36.9417 0
93.3722 42.2637 0
41.0919 47.9613 0
40.4308 47.8349 0
42.133 48.1531 0
43.4641 48.3519 0
42.7972 48.2615 0
44.7507 48.435 0
46.0904 48.5617 0
45.4197 48.5074 0
47.4412 48.6292 0
48.7856 48.6835 0
48.1131 48.6654 0
50.1337 48.7795 0
51.4791 48.7614 0
50.8065 48.7795 0
52.7667 48.7451 0
54.1092 48.6544 0
53.4385 48.7088 0
55.3893 48.5624 0
56.7251 48.3994 0
56.0583 48.4899 0
58.007 48.2371 0
59.3325 48.0022 0
58.6713 48.1286 0
39.3668 51.418 0
39.3146 51.9633 0
60.9545 51.8789 0
60.9022 51.3335 0
38.0094 50.2937 0
39.132 49.4789 0
61.7961 49.8852 0
61.819 49.3168 0
60.9794 49.5222 0
39.5145 48.0139 0
39.1703 48.1323 0
60.9497 48.0902 0
60.4625 47.9457 0
39.4641 50.5083 0
60.5042 50.5256 0
39.4872 49.8685 0
39.4827 50.1301 0
60.4857 50.1474 0
60.4812 49.8858 0
39.6394 49.292 0
39.6286 48.7841 0
39.6372 49.038 0
60.504 49.317 0
60.5062 49.0631 0
60.5148 48.8093 0
61.0023 48.9536 0
39.2841 48.9025 0
60.9566 50.0908 0
38.9798 50.0554 0
60.8978 47.2267 0
39.0559 47.3623 0
62.6357 49.68 0
37.0388 50.532 0
61.7527 51.7066 0
38.7852 51.8746 0
58.6382 47.3393 0
56.0748 47.664 0
53.5148 47.8481 0
50.9397 47.8807 0
48.2438 47.6885 0
45.5422 47.5536 0
42.9693 47.3875 0
40.888 47.004 0
89.168 44.6402 0
10.9185 40.7751 0
13.2804 16.1299 0
85.8804 16.3353 0
63.187 55.1726 0
68.9443 58.3316 0
78.9782 59.7144 0
89.3229 54.758 0
11.7424 52.7092 0
19.1993 59.5393 0
66.7007 15.6598 0
30.7714 15.3862 0
26.3202 61.9888 0
32.1369 57.8485 0
35.0081 54.5146 0
37.3139 52.9916 0
62.5305 47.8746 0
37.7365 48.5295 0
75.9245 28.582 0
20.5296 28.4939 0
47.9166 19.1788 0
60.162 44.7382 0
63.1339 45.6351 0
37.0503 45.8846 0
39.6882 44.676 0
65.1466 48.1804 0
65.0367 52.1619 0
34.8024 51.4681 0
35.0063 48.4419 0
57.4834 45.3715 0
54.9505 45.1397 0
52.5862 45.7309 0
50.3004 44.9083 0
47.2299 44.4741 0
44.3908 44.7265 0
41.9462 45.2014 0
74.3419 42.5717 0
80.277 48.7445 0
17.9935 43.2082 0
21.2972 50.6549 0
34.4538 29.5982 0
59.9774 30.1462 0
67.8013 53.4613 0
73.416 52.8939 0
54.4595 38.6479 0
46.5111 32.8054 0
26.215 55.2613 0
31.9687 52.4892 0
69.7545 39.915 0
30.9868 40.2847 0
57.5911 41.9755 0
63.2398 41.1494 0
66.8996 44.6556 0
33.6456 44.9464 0
37.2397 41.5326 0
41.7219 42.3176 0
68.0551 50.9801 0
32.7485 50.0447 0
53.2247 42.8781 0
49.6361 40.8033 0
74.2922 46.5573 0
25.7282 43.0259 0
71.97 48.0257 0
26.5434 48.0464 0
69.0663 48.0051 0
32.1435 47.8551 0
71.0633 45.0503 0
29.6287 46.0587 0
29.8198 49.9702 0
88.1429 34.2906 0
96.8896 38.8477 0
91.2946 35.6321 0
92.231 38.4882 0
96.0827 37.6871 0
88.5009 40.6686 0
3.1106 38.848 0
11.8879 33.0686 0
10.012 34.9201 0
3.91761 37.6875 0
8.3188 37.4101 0
11.6959 36.9357 0
11.4053 22.5538 0
10.9963 26.4017 0
9.38096 24.5065 0
11.88 28.8742 0
4.15094 19.884 0
5.35428 22.4045 0
8.24281 22.7486 0
11.5346 18.3899 0
13.1489 20.292 0
8.01619 17.5835 0
6.96966 20.2693 0
5.1959 17.1943 0
6.69927 24.85 0
7.80052 26.633 0
4.21434 14.5809 0
9.76089 15.321 0
87.9456 22.8232 0
90.4114 24.5101 0
88.5624 26.6647 0
91.5496 22.7526 0
95.8492 19.8838 0
94.6458 22.4042 0
87.7007 29.1859 0
85.9902 20.6599 0
87.838 18.4971 0
91.6492 17.5913 0
94.6774 17.1971 0
92.8228 20.2737 0
95.659 14.584 0
93.3008 24.8496 0
92.1995 26.6325 0
89.6929 15.4272 0
65.8174 8.13169 0
62.3358 4.09806 0
68.2843 3.77817 0
54.9435 4.07262 0
79.5536 0 0
84.6652 0 0
75.656 3.89321 0
69.2283 11.7398 0
63.2868 12.06 0
32.9175 7.98312 0
31.1838 3.73951 0
36.9297 3.98844 0
23.8124 3.85975 0
20.4464 0 0
27.7888 -0.186473 0
44.3218 3.96015 0
34.7166 11.8124 0
28.9754 11.5669 0
81.6433 34.99 0
85.4141 34.4858 0
85.0495 38.0581 0
86.2749 31.5481 0
85.0307 42.126 0
77.2798 33.9262 0
80.0175 31.1099 0
16.0774 32.8101 0
14.1164 35.2092 0
13.9341 32.7617 0
14.1638 38.4248 0
13.5494 30.9626 0
17.6338 29.9477 0
18.7634 32.9079 0
16.5374 27.2748 0
14.1205 28.2348 0
15.6912 23.344 0
15.8208 19.1838 0
19.4476 25.3641 0
81.6024 27.2063 0
82.9113 23.7494 0
84.8376 28.6182 0
82.8028 19.425 0
77.823 25.5474 0
79.7856 11.6867 0
74.1921 11.7078 0
77.3429 7.82842 0
71.6629 15.6143 0
81.2503 3.89865 0
84.4117 12.0694 0
81.2551 15.9555 0
52.9204 14.0994 0
54.386 9.91266 0
58.403 12.6433 0
49.4499 5.53497 0
61.8179 16.2386 0
52.4261 17.9998 0
48.4091 15.2778 0
44.4366 13.7354 0
39.3184 12.1697 0
43.782 9.80234 0
35.3735 15.7386 0
43.9459 17.6366 0
19.028 11.6138 0
21.7474 7.83453 0
24.4666 11.5549 0
18.3735 3.93972 0
26.2637 15.3631 0
17.5154 15.7366 0
14.7923 12.0081 0
74.6348 33.9507 0
78.753 37.3581 0
78.0957 40.9429 0
74.7504 40.1898 0
21.4763 31.2194 0
19.3792 36.6311 0
17.0702 39.4398 0
19.744 40.2441 0
73.956 31.2771 0
73.5736 35.8925 0
72.4568 38.8612 0
70.8718 36.9441 0
68.7263 34.5038 0
66.8004 31.9563 0
70.0633 31.4295 0
62.7193 32.5905 0
64.0574 29.5126 0
72.0309 28.732 0
67.6076 37.4753 0
32.7098 32.0263 0
35.2442 32.6226 0
33.4991 35.0503 0
33.5116 37.9677 0
36.6369 38.59 0
30.9761 37.3688 0
59.8667 33.1808 0
62.6098 35.6242 0
64.3514 38.0905 0
61.4974 38.6832 0
57.8206 32.1472 0
57.7099 35.1829 0
57.1083 37.4316 0
55.0617 36.3986 0
46.6682 35.1791 0
48.6977 34.336 0
48.8552 36.71 0
50.2607 38.3351 0
52.6719 37.2575 0
48.2304 39.1781 0
38.9084 36.3983 0
38.4383 33.2616 0
41.3122 34.0108 0
37.6478 30.2352 0
43.6761 31.8391 0
44.1476 34.9772 0
39.5122 39.3413 0
44.3041 37.3509 0
46.0679 39.3474 0
43.5163 41.7299 0
47.4733 40.9726 0
43.5463 39.1451 0
41.7526 39.733 0
90.8697 3.84947 0
87.4502 7.75657 0
86.3688 3.91225 0
88.9226 12.0232 0
89.7768 0 0
94.8884 0 0
95.9847 3.85377 0
96.4925 10.9657 0
92.7312 11.1061 0
95.7162 7.55457 0
91.023 28.3634 0
90.4054 29.2075 0
4.10464 7.56551 0
6.96264 11.114 0
3.38085 10.9623 0
10.4788 11.931 0
8.97719 28.3642 0
9.59467 29.2086 0
3.83616 3.86442 0
13.2554 3.95251 0
11.9944 7.80849 0
8.95107 3.86027 0
35.1874 -0.259218 0
42.5935 -0.293879 0
58.9616 23.4071 0
55.8667 20.3592 0
60.0311 19.8771 0
51.3575 21.5342 0
64.9125 19.2917 0
61.5512 26.5356 0
57.3871 27.0196 0
67.5202 22.6548 0
70.0265 25.6321 0
65.6317 25.9056 0
73.9205 25.4858 0
69.308 19.0262 0
78.1806 19.0472 0
75.8202 22.4522 0
74.2731 18.9756 0
23.3523 18.8503 0
21.6587 22.3017 0
20.0542 18.7912 0
22.7411 25.4315 0
27.863 18.88 0
29.6035 26.2833 0
25.8753 26.1676 0
28.6839 22.4764 0
23.6621 29.2333 0
31.5922 18.9867 0
33.4337 26.0926 0
30.6242 29.7854 0
40.5925 27.4726 0
43.6915 25.314 0
43.941 28.7168 0
44.1298 21.6243 0
47.4783 22.8695 0
46.7755 29.6828 0
37.3991 26.8358 0
36.1936 19.3453 0
40.159 20.0859 0
36.3781 23.3276 0
26.6692 33.368 0
24.4797 35.3545 0
24.6069 31.9612 0
22.5988 38.9077 0
28.8793 32.2117 0
28.7534 35.6087 0
28.764 38.5231 0
51.8507 32.9033 0
54.2397 32.0448 0
53.2744 35.0082 0
56.3966 30.0423 0
49.664 31.3723 0
50.9187 25.2242 0
53.807 26.9159 0
49.9277 28.2493 0
6.56178 36.998 0
6.98139 38.9541 0
5.2238 38.5452 0
9.61744 39.0945 0
8.28057 40.6382 0
4.37745 39.6746 0
4.80536 36.5877 0
5.76983 35.5547 0
7.56073 36.0031 0
10.853 35.9296 0
10.0065 37.1729 0
9.16468 36.1634 0
11.3064 38.854 0
8.40843 34.7551 0
11.1636 34.7636 0
12.0058 35.7694 0
11.717 30.2525 0
10.2305 30.0369 0
11.0535 29.4521 0
12.4491 26.6637 0
10.4275 28.6186 0
10.883 30.8444 0
89.7696 30.0356 0
88.0728 30.4065 0
88.7372 29.6066 0
89.3632 28.7734 0
86.9 27.0847 0
89.1178 30.8433 0
85.8437 33.0165 0
87.2047 32.9242 0
86.7778 34.3916 0
87.3594 31.585 0
88.2955 32.9519 0
88.1292 35.6153 0
86.7642 35.7156 0
84.3475 32.8145 0
84.7815 31.3441 0
86.7758 39.3638 0
86.7659 41.3986 0
85.0408 40.0911 0
88.8349 42.6536 0
87.1 43.3831 0
83.3 40.6477 0
83.3092 38.6136 0
86.5819 37.5019 0
88.3083 38.8041 0
79.461 34.4589 0
78.6482 32.5175 0
80.8284 33.0505 0
76.6006 31.2542 0
77.9708 29.8466 0
81.6527 31.1247 0
82.4641 33.064 0
81.6063 37.0785 0
80.1984 36.1737 0
14.1393 36.8161 0
12.9297 37.6816 0
12.9059 36.0735 0
12.5405 39.5999 0
13.2168 34.9084 0
15.3552 35.545 0
15.3791 37.1533 0
12.9121 32.9181 0
12.7244 32.0204 0
13.7434 31.8619 0
11.7218 32.343 0
12.5534 31.2931 0
14.5476 30.6309 0
14.7425 31.5312 0
13.1268 33.6858 0
12.1021 33.8364 0
16.8573 31.3794 0
18.1998 31.4274 0
17.4203 32.8592 0
19.0816 29.2212 0
19.6483 30.7012 0
17.6801 34.3949 0
16.3359 34.3447 0
15.8134 31.554 0
16.5898 30.1233 0
13.8354 29.5991 0
12.717 29.9143 0
13.0004 28.5521 0
13.5702 26.3437 0
14.8347 29.2653 0
16.0421 28.7869 0
17.0868 28.6106 0
18.5345 27.8835 0
17.4488 24.7575 0
86.2687 28.8995 0
86.9838 30.363 0
85.5552 30.0838 0
84.0608 29.8775 0
85.4669 26.7997 0
82.4439 29.173 0
80.8079 29.1571 0
80.6649 24.8628 0
78.7623 27.8933 0
80.1606 38.2635 0
79.8324 40.0552 0
78.4243 39.1502 0
76.6267 39.3764 0
76.2187 41.7572 0
76.9559 37.5834 0
15.6171 38.9332 0
15.8325 40.8714 0
14.3789 40.3628 0
17.5315 41.3234 0
16.2945 42.756 0
12.7566 41.5402 0
16.8315 37.6591 0
19.5615 38.4373 0
18.4072 39.8422 0
18.2252 38.0363 0
18.8687 41.7263 0
17.9865 36.2555 0
20.8997 35.2899 0
20.9888 37.7691 0
20.6952 41.6888 0
21.1718 39.5764 0
24.5709 37.8363 0
22.5092 36.4272 0
19.8204 43.1717 0
22.123 41.021 0
24.1633 40.966 0
23.6878 43.0804 0
79.6559 42.3724 0
79.352 44.4831 0
77.7918 43.0537 0
80.7471 46.2717 0
78.8823 46.9551 0
75.9144 43.869 0
81.3935 41.4833 0
90.367 39.5803 0
92.8022 40.3754 0
90.9375 41.4652 0
94.5605 38.6658 0
95.132 40.5562 0
91.2708 43.4531 0
90.1738 37.7138 0
93.2447 36.1068 0
93.7136 37.5378 0
91.7635 37.0597 0
95.1948 36.5876 0
89.7059 36.2893 0
92.2448 35.1126 0
94.2306 35.5544 0
89.5388 33.6062 0
91.1135 34.273 0
89.72 34.9595 0
93.1943 34.5938 0
92.0912 33.7112 0
93.8128 44.6244 0
96.3041 43.116 0
96.7444 45.4796 0
90.9262 32.9126 0
89.7097 32.2089 0
97.1505 48.267 0
91.7109 45.8118 0
10.4776 32.9904 0
10.9482 33.9907 0
9.53993 33.9182 0
6.80573 34.5941 0
7.90892 33.7113 0
5.69128 42.9714 0
3.25181 44.7068 0
3.20448 42.235 0
2.84536 47.4942 0
9.07302 32.9126 0
10.2914 32.2085 0
8.32766 43.1047 0
66.0559 59.6856 0
65.2027 60.9817 0
64.3922 59.6475 0
65.9429 61.9277 0
60.1563 52.0514 0
60.0966 51.5067 0
63.7708 58.6197 0
67.0947 58.3414 0
67.9052 59.6753 0
68.5867 61.743 0
68.9225 63.8473 0
67.2023 63.1242 0
70.3699 64.8082 0
60.0519 50.9606 0
60.0297 50.5826 0
69.6257 60.3988 0
77.0694 64.2188 0
77.3133 66.8401 0
74.8631 66.361 0
79.8056 67.1467 0
60.0148 50.2042 0
60.0086 49.9426 0
72.5252 65.4446 0
76.7979 61.7264 0
79.2492 62.2058 0
82.0728 63.8588 0
84.9454 65.9588 0
82.3931 66.798 0
87.3552 64.9538 0
94.2185 63.7034 0
92.2551 65.432 0
81.8025 61.3665 0
91.3666 58.8282 0
93.7881 60.4279 0
91.7977 62.1019 0
95.3735 58.3543 0
90.0832 66.8898 0
87.7397 68.0523 0
89.7297 63.6953 0
89.3495 57.6295 0
91.3404 55.9554 0
93.8121 54.6275 0
96.8227 53.4139 0
96.3678 55.9414 0
97.1576 50.8264 0
85.2649 68.8994 0
82.7007 69.417 0
91.795 53.4298 0
6.11011 53.9699 0
3.437 55.8321 0
3.29476 52.8656 0
4.43133 58.245 0
5.78151 63.7038 0
4.06037 61.7339 0
2.96007 50.2783 0
8.85503 51.8575 0
8.99647 54.8207 0
8.47469 58.4593 0
8.23874 61.8425 0
6.01667 60.3187 0
10.3068 63.4359 0
2.61107 59.5564 0
1.45834 57.2082 0
11.2194 56.345 0
17.0416 63.6451 0
16.9614 66.7067 0
14.8145 65.837 0
19.549 67.0553 0
0.622332 54.7297 0
0.117422 52.1632 0
12.4047 64.832 0
17.0462 61.157 0
19.1941 62.0266 0
29.3267 63.4962 0
31.5856 63.8263 0
30.2031 64.8992 0
32.845 62.6297 0
34.9804 62.8368 0
33.773 64.0881 0
28.7558 65.8601 0
27.1323 63.2788 0
28.5149 62.2058 0
34.0868 59.3917 0
35.6519 59.7046 0
34.8959 60.6315 0
36.2733 58.6768 0
32.4617 65.2299 0
31.0562 66.2536 0
34.1557 61.5775 0
32.734 59.0834 0
33.4899 58.1564 0
29.5672 67.1515 0
37.0992 57.9173 0
37.4544 57.1669 0
37.7461 56.3897 0
35.7515 55.7298 0
27.2875 68.2147 0
83.5284 34.7388 0
85.2326 36.2711 0
83.345 36.5264 0
91.8495 50.7893 0
91.8422 48.2333 0
94.2599 49.5433 0
89.2999 47.0592 0
89.3772 52.1182 0
15.0987 34.0115 0
14.0252 33.9852 0
15.0057 32.7862 0
8.33355 48.8044 0
5.85349 48.223 0
8.21932 46.0245 0
10.8087 43.69 0
11.2211 49.6577 0
15.329 27.7546 0
14.7801 25.8613 0
83.2201 27.9124 0
83.8474 26.0915 0
67.7422 56.9055 0
65.8926 56.9151 0
64.2162 56.7621 0
64.8634 55.3258 0
74.0313 61.5365 0
72.4628 63.1029 0
71.8752 60.8996 0
71.194 58.8327 0
76.211 59.524 0
86.9675 58.919 0
87.0007 61.7609 0
84.5919 60.1776 0
81.7678 58.5256 0
86.9404 56.0476 0
15.2476 59.8382 0
12.7957 61.3794 0
13.1489 58.4422 0
13.6722 54.8059 0
17.4006 58.2207 0
31.4488 59.9956 0
32.02 61.371 0
30.1379 61.048 0
27.9432 60.8309 0
30.8516 58.7608 0
35.2732 56.7782 0
35.6687 57.7052 0
34.4472 57.5378 0
33.0942 57.2298 0
34.5298 55.5628 0
78.0156 35.6426 0
76.2194 35.8669 0
84.8262 49.2882 0
87.1705 48.0971 0
87.0873 50.6716 0
87.0385 45.6788 0
87.0335 53.3097 0
82.5104 50.3035 0
82.5927 47.7305 0
19.0719 34.7693 0
20.5906 33.4272 0
69.0269 56.8248 0
67.8248 55.3987 0
67.1706 54.4701 0
68.4555 54.3899 0
73.8913 55.8165 0
74.6335 57.4858 0
72.7017 57.6641 0
77.4011 57.6763 0
70.4516 57.1627 0
72.6875 54.4439 0
74.6198 54.2663 0
82.4771 52.9952 0
84.6507 54.599 0
82.3851 55.732 0
79.5947 56.9202 0
80.2443 51.4352 0
18.5921 53.2275 0
17.7833 55.882 0
16.4097 54.2471 0
19.5822 57.2 0
14.4801 52.1515 0
19.2578 51.1245 0
20.6312 52.758 0
24.5182 57.9531 0
24.4502 59.9816 0
22.9028 59.1823 0
26.1929 60.3703 0
24.5778 61.5998 0
21.0173 60.375 0
21.0847 58.3466 0
24.5927 56.2078 0
26.1403 57.0065 0
32.0104 56.5698 0
32.9678 55.951 0
33.446 54.9029 0
31.9263 53.8901 0
84.9702 44.4198 0
83.0629 45.2582 0
83.1236 42.9639 0
71.1058 54.5932 0
70.5344 55.6564 0
69.6809 54.255 0
69.0268 53.3266 0
71.8341 53.0429 0
78.5726 52.9501 0
78.0172 54.8831 0
76.3785 53.7052 0
75.1747 52.3332 0
78.6052 50.2583 0
23.2564 55.2284 0
21.4682 56.0079 0
21.7539 54.0826 0
22.4199 51.9789 0
24.8789 54.2821 0
78.461 48.5766 0
77.0665 46.7864 0
75.8898 45.8613 0
75.4686 47.4829 0
22.4121 45.0799 0
21.3075 47.0861 0
20.5419 45.1396 0
22.2374 48.8407 0
20.3671 48.8996 0
18.7151 45.176 0
24.4533 45.0266 0
72.2951 51.6997 0
70.7133 51.8485 0
69.6147 50.7426 0
71.5721 49.2654 0
75.4409 49.1049 0
76.7895 50.0901 0
75.5852 50.7873 0
73.8263 51.3476 0
74.2644 48.1794 0
25.4407 50.9768 0
25.0675 52.5318 0
23.9156 51.7483 0
26.4038 53.5105 0
22.793 50.4245 0
25.4161 49.1202 0
26.568 49.903 0
27.6833 54.4232 0
27.8721 52.6723 0
29.4857 51.7775 0
30.5601 53.0371 0
23.7332 48.6098 0
24.8607 47.5365 0
72.7054 50.1535 0
73.1033 48.9139 0
27.605 57.7437 0
29.3555 58.2039 0
27.8161 59.2124 0
30.6408 57.2916 0
27.6799 55.998 0
30.5177 54.4379 0
30.5141 56.0133 0
29.148 55.1599 0
23.1992 63.1436 0
21.3762 64.7957 0
21.0117 62.8627 0
21.7357 67.3363 0
24.9415 63.5326 0
26.418 66.7762 0
24.228 67.03 0
25.7537 64.8228 0
24.8925 68.9839 0
22.42 69.447 0
14.942 44.7771 0
12.9948 46.931 0
12.6468 44.4537 0
13.5153 49.98 0
16.6412 45.2305 0
18.3275 49.3687 0
16.2541 49.4231 0
17.3634 47.1997 0
58.4022 8.16132 0
60.0041 10.0815 0
79.5304 20.209 0
77.0341 20.3976 0
69.2406 13.9009 0
67.5874 15.7615 0
37.193 13.2722 0
34.8473 12.4236 0
72.2296 44.4368 0
70.3939 42.7402 0
36.7149 22.0022 0
37.3129 24.4242 0
46.0453 8.14206 0
45.159 10.48 0
1.83486 10.406 0
4.04104 9.22492 0
16.138 3.98643 0
14.3585 2.25004 0
37.8105 13.342 0
37.7748 10.844 0
72.2857 1.11243 0
69.8203 1.499 0
65.3618 24.9974 0
65.8186 22.5464 0
17.081 0.162638 0
19.0976 1.6203 0
30.7471 0.328032 0
29.0144 2.13435 0
20.1766 28.9035 0
18.0503 27.5993 0
87.2215 22.8463 0
89.7013 23.22 0
80.4423 11.8444 0
79.0279 9.78867 0
53.4947 14.2873 0
52.9683 16.7309 0
79.8655 20.6164 0
77.3616 20.5599 0
95.4313 2.46518 0
96.8419 4.52576 0
40.4123 38.3435 0
38.2051 39.5139 0
34.3804 27.0138 0
35.0409 29.4178 0
88.3572 30.415 0
87.7423 28.0197 0
42.4492 31.8718 0
44.328 30.2266 0
26.0798 12.8298 0
26.9136 10.4766 0
40.5594 37.419 0
42.7886 36.2927 0
65.912 38.5918 0
67.4413 40.5675 0
21.6703 36.4713 0
24.162 36.6709 0
87.2998 17.9688 0
88.9289 16.0902 0
31.3091 9.90881 0
28.8779 10.4962 0
60.276 8.22298 0
61.5758 10.3598 0
62.4163 9.30063 0
60.9654 7.26315 0
18.7629 6.96064 0
18.1838 9.37397 0
63.0423 43.7451 0
62.35 46.1443 0
84.2787 25.785 0
83.5883 28.1666 0
47.3534 44.1907 0
49.2166 42.5254 0
30.7336 4.73976 0
33.1073 5.51041 0
37.1877 2.23576 0
36.8892 -0.244805 0
39.5146 0.475361 0
37.8467 2.33892 0
66.848 34.4508 0
64.5916 35.5147 0
25.248 21.2889 0
23.676 23.2277 0
89.2108 30.1598 0
86.9497 29.078 0
74.2797 10.0236 0
76.6593 9.27753 0
80.3467 12.7703 0
81.7503 14.8324 0
81.0918 16.9027 0
80.1775 19.2087 0
78.4079 10.7173 0
79.7531 12.8182 0
67.6609 27.4184 0
65.1667 27.306 0
62.4239 24.8265 0
59.9966 24.2426 0
61.7151 24.6505 0
62.4851 27.0267 0
69.5066 32.8053 0
67.0212 32.5553 0
82.5777 12.4716 0
85.0231 13.0356 0
51.4574 18.0897 0
53.5359 19.4735 0
66.9806 15.9361 0
65.158 14.2223 0
20.032 22.3565 0
20.4851 19.9141 0
53.0615 23.9845 0
52.9534 21.4874 0
62.0727 33.8751 0
64.0374 35.4184 0
67.9371 28.1806 0
69.9018 26.6476 0
27.3651 19.3233 0
25.436 17.7491 0
43.382 3.90462 0
43.9129 1.46232 0
90.2288 10.2734 0
88.4303 8.53994 0
67.9573 36.7203 0
68.6379 34.3229 0
9.52136 8.19038 0
11.9791 7.70292 0
49.9622 6.49891 0
52.3371 7.28018 0
81.1288 29.1374 0
83.0722 27.577 0
43.1449 19.9452 0
45.5362 20.6548 0
73.0087 25.4911 0
75.2325 24.3613 0
59.3044 18.5 0
57.0602 19.5885 0
94.8346 14.8842 0
92.4135 14.2401 0
8.74617 19.4518 0
11.2081 18.9761 0
17.4617 22.7137 0
15.7987 20.8639 0
16.9498 36.4125 0
18.1609 34.2352 0
59.7798 41.9066 0
57.588 43.1035 0
84.6085 20.379 0
84.6551 22.8578 0
9.90289 20.0633 0
7.80162 21.4271 0
16.8515 29.9913 0
15.2259 31.877 0
46.6515 3.37473 0
48.1055 5.40834 0
57.7826 40.3205 0
55.7452 41.7639 0
67.5131 37.0126 0
69.5865 38.4087 0
68.3594 7.50628 0
70.2477 5.88 0
24.8043 8.52781 0
27.2307 9.10465 0
16.124 15.4962 0
15.2206 17.8128 0
96.9858 4.64428 0
94.5144 5.02988 0
25.2352 33.8138 0
26.0537 31.4592 0
16.8154 15.6939 0
17.9427 17.904 0
86.8947 15.6733 0
88.6038 13.8651 0
26.9841 36.3788 0
28.2581 38.5186 0
45.0593 37.0407 0
42.7642 38.0253 0
25.9899 33.6646 0
28.4671 33.3339 0
70.5437 15.9439 0
72.5139 17.4873 0
49.8257 47.6445 0
50.9704 45.4226 0
82.7633 18.3437 0
81.0829 16.4963 0
12.4086 5.5982 0
9.98274 4.9942 0
18.2983 2.65875 0
20.5317 1.52452 0
98.905 4.26589 0
97.7107 6.45062 0
80.2931 37.394 0
80.8827 34.9809 0
48.536 3.56998 0
48.4428 1.07287 0
46.0835 5.23614 0
43.9281 6.50403 0
61.1056 38.0266 0
59.0194 39.3968 0
81.2034 11.1017 0
81.7887 8.69694 0
79.3169 30.4338 0
76.9905 31.3344 0
52.3967 8.09182 0
50.932 6.06598 0
25.9031 29.954 0
23.7696 28.6641 0
94.5686 17.4488 0
96.8498 16.4329 0
29.5756 32.0882 0
31.8824 33.0375 0
65.8305 4.37397 0
65.8065 6.87283 0
53.2585 1.8739 0
51.4518 3.60321 0
14.5727 9.06117 0
15.1022 6.63711 0
7.21654 18.8394 0
5.01978 17.6557 0
61.2128 40.3103 0
59.8953 42.4311 0
74.2076 7.28672 0
73.7984 4.82416 0
23.584 30.2756 0
23.8247 27.7989 0
78.8032 6.90197 0
76.6445 5.62288 0
79.0402 11.2909 0
81.1577 12.6311 0
7.63463 2.53241 0
5.13427 2.60389 0
76.4478 15.9579 0
74.4646 14.4281 0
47.9018 9.308 0
49.6884 11.0551 0
80.0442 2.03719 0
82.5026 1.58576 0
29.1781 29.9194 0
27.2245 28.3725 0
70.9714 16.35 0
71.5246 13.9252 0
4.51585 13.5638 0
6.47377 12.0071 0
40.5558 0.172353 0
39.5191 2.44663 0
60.4093 12.3464 0
59.8377 14.7777 0
41.2058 3.51292 0
39.1693 4.96544 0
33.6557 29.4258 0
36.1448 29.6089 0
33.1968 20.9408 0
32.9777 18.457 0
79.5992 15.5441 0
80.154 17.9663 0
72.6583 34.6825 0
70.5233 33.383 0
56.7295 8.23681 0
54.3223 7.56451 0
44.5367 8.86398 0
43.2076 10.9819 0
82.5695 16.5116 0
83.6831 14.295 0
11.5877 0.312211 0
10.691 2.63522 0
78.0146 16.1217 0
80.0474 17.5826 0
59.4306 2.97393 0
60.7533 5.09594 0
72.297 1.2403 0
72.1998 3.73578 0
66.8168 2.65463 0
68.1081 0.507441 0
13.3288 3.76337 0
15.1499 2.05556 0
71.9657 26.5166 0
74.422 26.9785 0
16.8438 17.4784 0
15.4329 19.5333 0
72.2109 38.2846 0
72.1345 35.7943 0
43.4826 20.7312 0
41.221 21.7898 0
57.2572 19.2021 0
57.5226 21.687 0
64.6797 28.75 0
67.1612 28.4833 0
24.6599 31.8578 0
27.0653 31.1795 0
50.1167 28.7342 0
49.1086 31.0197 0
59.8069 37.1324 0
58.5419 34.9778 0
22.4522 29.0354 0
24.8669 28.3916 0
39.7002 35.8496 0
37.2508 36.3362 0
5.89729 10.054 0
3.86788 11.5167 0
54.8005 20.7329 0
56.8318 22.186 0
68.5089 19.6063 0
68.8177 17.1338 0
42.0154 42.6325 0
42.7795 45.0112 0
19.0897 24.5259 0
16.94 25.8003 0
69.2669 4.11988 0
66.9215 3.24786 0
18.7322 12.8091 0
19.4348 10.4266 0
97.844 0.548027 0
97.0321 2.89791 0
21.3128 0.597861 0
21.7824 3.01455 0
13.4386 5.96835 0
14.5772 8.17291 0
94.827 5.79949 0
95.3543 3.37036 0
58.6711 11.5555 0
59.4706 13.9245 0
26.7355 39.8886 0
25.2365 41.8862 0
62.4247 18.6937 0
64.5308 17.3604 0
9.51922 7.73808 0
11.9345 7.07336 0
44.2833 18.0275 0
41.8981 18.7648 0
89.0269 10.804 0
91.492 10.3669 0
65.4924 41.5486 0
63.0679 40.9418 0
51.2702 34.334 0
53.6796 33.685 0
12.746 8.56663 0
14.7383 10.064 0
75.0498 18.3945 0
72.5547 18.1991 0
69.1627 26.3704 0
69.6168 28.8223 0
19.5774 11.7826 0
21.8394 12.8383 0
36.8955 39.9729 0
34.4895 39.3043 0
29.3197 28.2272 0
30.9354 30.123 0
12.3806 19.5563 0
13.5812 17.3733 0
42.0375 43.0771 0
39.6444 43.7965 0
34.2177 5.0943 0
33.7275 7.54635 0
94.9619 17.0444 0
93.877 14.798 0
53.7745 26.2071 0
54.3539 28.6375 0
68.2895 36.2351 0
67.5161 38.6048 0
71.2426 36.9529 0
69.3022 38.519 0
30.4721 15.4985 0
32.6281 16.7465 0
62.7511 7.99849 0
65.234 8.2806 0
52.3932 17.2534 0
51.1247 19.4059 0
68.8532 3.58526 0
68.9119 6.08441 0
24.0124 7.71419 0
26.0502 9.13287 0
31.7777 14.6045 0
33.4941 16.409 0
72.4496 5.9711 0
74.7218 4.97588 0
47.224 15.1694 0
45.6831 17.1369 0
36.666 41.7536 0
38.698 40.299 0
22.8177 10.4096 0
24.4586 8.51886 0
22.97 37.679 0
25.352 36.9146 0
79.5502 20.4497 0
81.8037 21.5409 0
80.4408 16.0813 0
78.1636 15.0332 0
68.1761 34.1405 0
68.4235 36.6222 0
32.7839 26.8917 0
35.0125 28.0101 0
49.0964 3.52164 0
47.4567 5.40927 0
34.1853 40.5463 0
32.8226 42.6398 0
47.6804 12.5042 0
48.2012 14.9492 0
50.2584 18.7211 0
51.6304 16.6332 0
33.8315 30.562 0
34.5173 28.1623 0
2.3482 13.8035 0
4.83518 14.0769 0
40.0876 40.1523 0
40.8309 42.5366 0
10.1222 16.1339 0
9.50671 18.5436 0
32.9359 16.0371 0
31.8935 18.3082 0
43.2526 0.877737 0
45.6716 0.229107 0
37.1273 36.7568 0
39.3685 35.6535 0
81.2545 10.0676 0
81.751 7.64379 0
30.443 3.59135 0
28.2955 4.87978 0
49.406 1.2802 0
47.6083 3.01915 0
60.7684 31.1724 0
62.543 32.9305 0
26.1774 37.1751 0
24.5037 35.3312 0
33.9218 3.14568 0
36.4108 3.37475 0
46.8687 28.9882 0
45.8462 31.2676 0
19.4837 36.1007 0
21.2059 37.8977 0
56.1171 28.1851 0
58.6118 28.221 0
92.8334 9.45269 0
95.2521 10.1018 0
22.0879 28.9656 0
24.5587 29.3296 0
48.2795 17.6252 0
50.7279 18.1056 0
28.8118 21.6137 0
27.758 19.3604 0
88.663 17.9993 0
91.0199 18.8546 0
85.3194 15.488 0
82.8157 15.6206 0
59.5438 45.1191 0
60.8277 47.2638 0
89.5311 2.52063 0
89.7422 4.99652 0
95.4685 9.78576 0
93.3733 8.41874 0
64.4588 41.3669 0
62.9741 43.3734 0
56.0153 25.9764 0
58.3346 25.0591 0
71.0324 1.83936 0
71.0309 4.33826 0
51.4184 11.7277 0
50.5039 9.40095 0
58.329 27.7527 0
57.6548 25.347 0
9.32163 7.84181 0
7.77546 5.89246 0
51.6894 13.3368 0
49.2107 13.0412 0
49.7139 24.2717 0
50.1425 26.7336 0
72.5962 28.3182 0
70.1945 27.6276 0
81.2899 36.263 0
78.9776 37.2034 0
80.7628 18.2373 0
81.4157 20.6345 0
63.0482 6.23695 0
60.7631 5.22165 0
49.6094 11.7041 0
47.1184 11.5343 0
44.4775 28.4099 0
42.0251 28.8704 0
88.6414 7.80161 0
88.1103 10.2246 0
72.3064 6.32715 0
71.0134 8.45073 0
87.6962 13.8911 0
88.6415 16.1926 0
36.5649 40.7891 0
38.2847 42.5987 0
62.5586 3.53347 0
63.7393 1.33072 0
39.9524 15.0179 0
40.0969 12.5228 0
19.3815 6.42072 0
21.5257 5.12011 0
36.3625 45.758 0
38.726 46.572 0
34.5803 31.2498 0
32.3482 32.3722 0
58.9095 19.4637 0
60.6996 21.2075 0
78.25 16.1505 0
75.8223 15.5247 0
15.8698 28.8684 0
17.2296 26.7871 0
80.5543 1.66186 0
78.1482 2.31794 0
37.6459 41.5918 0
35.164 41.8833 0
84.0705 21.3505 0
84.5604 23.7831 0
86.5691 7.31325 0
86.2259 4.856 0
44.7632 5.93249 0
46.5619 7.66773 0
84.1576 19.7032 0
84.023 22.1785 0
71.9541 17.4992 0
74.4384 17.2217 0
77.1111 24.9356 0
76.5009 22.5238 0
97.157 15.2663 0
94.692 14.8274 0
38.3478 23.5243 0
40.4309 22.1454 0
40.9142 1.65681 0
39.8523 3.91998 0
60.1696 22.4198 0
57.8379 21.5265 0
23.1243 0.928792 0
24.5953 2.915 0
71.903 32.132 0
69.4388 32.5317 0
44.2072 38.1107 0
42.2617 39.678 0
34.1381 4.29741 0
35.5936 6.32552 0
19.9561 15.5363 0
21.7086 17.3015 0
1.47945 8.35108 0
3.1698 10.185 0
85.6048 24.9386 0
87.7292 23.6318 0
82.684 14.8334 0
80.2525 14.2163 0
60.7682 3.16704 0
60.1667 5.59243 0
17.2974 24.224 0
15.8022 22.2382 0
51.8049 38.7942 0
50.5934 36.6093 0
59.7302 46.7564 0
62.0321 45.7829 0
81.6904 19.1576 0
81.9844 21.6214 0
60.0556 15.0175 0
57.6474 14.3558 0
21.6061 24.4136 0
21.4986 26.8962 0
50.5582 36.5757 0
51.5013 34.2624 0
68.8239 24.0524 0
66.7605 22.6414 0
85.399 31.9637 0
83.0547 32.8107 0
10.0185 12.6993 0
7.95421 14.1145 0
90.6806 3.18164 0
88.5812 1.82381 0
85.5602 8.44359 0
87.7204 7.19396 0
32.9657 40.3638 0
33.1289 42.8529 0
16.5725 0.842548 0
18.9334 1.65265 0
80.4108 27.4752 0
82.3547 25.9146 0
21.4169 11.0207 0
19.7329 9.19641 0
93.5324 17.0878 0
91.2336 16.0913 0
19.4111 35.5917 0
19.2708 33.1108 0
17.988 35.2231 0
20.2406 34.1367 0
76.6221 12.0534 0
75.0523 13.9762 0
20.8974 4.71464 0
18.5492 3.87224 0
26.3335 33.7315 0
24.1792 32.4772 0
55.3269 6.96254 0
57.4761 5.68724 0
69.3486 3.77654 0
70.4258 6.03602 0
22.4188 17.0041 0
21.7234 14.624 0
89.4995 6.14423 0
86.9955 6.1252 0
60.1593 4.1539 0
57.6705 3.90166 0
86.6819 11.3232 0
84.2731 10.6249 0
80.9186 22.4956 0
82.0967 20.3101 0
69.7713 32.3945 0
68.9711 30.0314 0
42.4536 48.8413 0
40.5299 47.2451 0
30.6593 29.3117 0
31.5831 31.6249 0
19.9417 37.4233 0
20.2528 34.9556 0
64.2206 5.54399 0
62.4855 7.33895 0
91.4381 1.97146 0
90.9826 4.41367 0
85.7613 10.1124 0
87.2416 12.1194 0
16.1096 1.27366 0
14.0685 2.7142 0
71.9401 36.5314 0
74.363 35.9272 0
14.8992 16.2254 0
17.3291 16.8266 0
85.8449 30.7983 0
87.534 32.6223 0
8.11837 22.0225 0
10.6198 21.88 0
49.9336 35.4791 0
52.4221 35.2925 0
9.11138 20.5088 0
10.8329 18.6959 0
62.5244 31.8444 0
60.2588 32.8879 0
37.5411 6.70692 0
39.0264 4.69495 0
9.7589 9.18861 0
11.9386 7.95821 0
60.1398 25.8707 0
57.6463 25.9527 0
32.8531 17.0986 0
33.7999 19.4031 0
92.6283 11.4602 0
92.9559 13.9255 0
50.0439 4.2901 0
52.1273 5.67326 0
21.7725 11.7937 0
23.2404 13.7938 0
16.441 4.90169 0
18.7588 3.95516 0
38.9541 33.6577 0
41.0885 32.3608 0
2.03835 4.98187 0
2.95036 2.66232 0
17.4316 17.0651 0
16.4045 19.331 0
81.455 37.464 0
82.4728 35.1988 0
72.8996 12.4805 0
74.735 10.8059 0
66.3113 41.3285 0
63.921 42.0538 0
63.7345 26.3354 0
65.719 24.8271 0
49.8632 5.94054 0
48.325 7.91119 0
60.176 40.5994 0
62.3978 41.7429 0
23.396 10.8285 0
24.5012 13.0476 0
60.0794 31.111 0
61.0255 33.4227 0
85.0475 22.3533 0
87.5534 22.2941 0
74.5664 19.7228 0
72.1394 19.1103 0
56.0459 12.2577 0
58.4864 12.7887 0
61.6845 4.12302 0
60.6419 1.85101 0
60.7162 47.3636 0
58.218 47.4619 0
50.6458 16.6769 0
50.9617 19.1568 0
26.1551 33.0953 0
27.1457 30.8065 0
43.7011 22.464 0
41.6505 21.0441 0
70.235 18.4501 0
72.7081 18.8261 0
72.5566 1.46376 0
72.7248 3.95711 0
33.4245 16.9475 0
35.0599 18.8269 0
55.2451 3.38209 0
57.6887 3.91894 0
62.7245 26.8455 0
60.2292 26.8662 0
59.5589 35.3593 0
59.7034 32.8665 0
41.7443 31.1997 0
39.3645 31.9541 0
65.6989 33.7008 0
63.677 32.2331 0
41.2826 36.0186 0
39.9794 38.1503 0
73.2205 29.6234 0
72.7894 32.075 0
50.7629 40.0145 0
51.8559 42.2617 0
59.8161 9.9194 0
58.3204 7.91532 0
82.5536 19.913 0
84.8579 18.9448 0
66.2674 0.598088 0
68.7645 0.373023 0
72.7652 32.5188 0
74.6397 30.8777 0
66.5145 33.3942 0
65.2397 35.5366 0
67.8022 46.0974 0
68.523 43.7101 0
63.716 22.8786 0
64.8134 20.6403 0
80.4277 11.2265 0
82.0369 13.1365 0
31.0069 20.3305 0
30.057 18.0297 0
25.3192 20.58 0
26.8926 22.5077 0
53.9832 28.5489 0
56.4646 28.2936 0
85.7125 28.2062 0
85.1888 25.7849 0
37.8977 1.67861 0
40.3807 1.99928 0
42.1074 29.3937 0
43.0917 27.0974 0
19.9678 35.242 0
22.4539 35.4942 0
84.4666 11.4885 0
86.9734 11.4396 0
30.5106 1.17081 0
32.9776 0.743734 0
61.9887 42.3107 0
59.8243 41.0617 0
40.0311 13.3144 0
38.0394 14.8252 0
71.9007 29.0269 0
70.0555 27.343 0
60.3544 30.139 0
59.5931 27.7601 0
6.59121 10.6453 0
5.72157 12.98 0
33.6209 6.71714 0
32.0011 4.82039 0
57.2866 24.6088 0
59.7193 24.0586 0
61.7394 27.9023 0
59.2562 28.1434 0
12.9837 2.03035 0
15.139 3.28178 0
72.4137 4.88946 0
69.9294 4.62583 0
30.5153 6.13563 0
28.1221 6.86526 0
80.7945 3.72394 0
78.2907 3.81245 0
54.3815 35.8243 0
52.3725 37.3061 0
30.6001 14.1815 0
33.0212 14.782 0
80.5784 9.15415 0
82.8685 8.15712 0
12.0257 31.4563 0
13.0072 29.1927 0
46.3776 5.2184 0
48.8278 5.71971 0
2.72753 5.31407 0
5.22909 5.21523 0
10.21 9.53731 0
11.2138 11.808 0
4.33593 17.8364 0
6.5853 16.7358 0
29.3891 8.38313 0
26.8919 8.35832 0
43.6885 1.89702 0
45.9982 2.8597 0
77.3461 2.77519 0
75.5738 4.49574 0
55.2088 26.6334 0
57.4556 27.7213 0
24.818 19.2461 0
27.0052 18.0284 0
12.8097 30.7886 0
14.0558 28.646 0
13.7569 17.8063 0
15.6193 19.459 0
31.5515 35.9236 0
33.6535 37.2667 0
85.1094 18.8891 0
85.4407 16.4328 0
54.959 42.2465 0
56.1333 40.0418 0
56.8595 42.9013 0
54.3719 42.6737 0
69.352 40.9734 0
68.4323 43.2905 0
81.6158 5.20245 0
81.1826 7.63441 0
67.2989 28.6359 0
69.3897 27.2789 0
23.3888 28.153 0
20.8955 28.3236 0
76.559 32.9823 0
74.6648 31.3543 0
40.3955 1.70184 0
41.9441 -0.261492 0
21.4842 3.45715 0
19.2757 2.3177 0
32.7268 27.9088 0
34.531 29.6281 0
39.7548 2.14991 0
37.9697 3.90194 0
68.5842 6.16634 0
66.5195 7.56409 0
7.18288 2.10607 0
8.72585 0.142365 0
59.0733 33.299 0
57.1177 31.7454 0
22.663 35.2864 0
24.1929 37.2495 0
76.694 24.8363 0
76.1426 22.4103 0
8.87154 16.6865 0
9.71698 19.0207 0
27.0335 16.5851 0
28.4574 14.5306 0
31.9494 36.8512 0
32.7803 34.4975 0
22.2132 34.8029 0
19.9756 33.7031 0
73.3188 36.9682 0
71.9917 34.8539 0
15.0313 2.08194 0
16.9729 0.513815 0
52.2279 12.0424 0
52.0958 9.54545 0
33.828 8.65193 0
32.6884 6.43334 0
24.9752 41.6595 0
27.3672 40.9247 0
57.5735 12.4159 0
59.7947 11.278 0
84.181 35.0401 0
82.3734 33.318 0
40.399 47.0173 0
38.8884 45.027 0
18.0774 12.119 0
20.5386 12.5808 0
92.7119 8.15765 0
94.3947 6.32154 0
81.3532 32.8881 0
80.6371 30.5055 0
38.8363 14.7315 0
38.7013 17.2266 0
28.5904 11.4872 0
29.9769 13.5509 0
51.9101 39.405 0
54.3981 39.6142 0
86.5416 27.9814 0
85.8781 25.5933 0
22.163 2.31573 0
23.567 4.34093 0
49.3544 3.07191 0
47.2333 1.7448 0
18.8658 19.6252 0
21.3504 19.9364 0
2.09526 9.01481 0
4.27976 7.79478 0
20.2606 3.57678 0
18.8558 5.63447 0
62.9389 44.2931 0
65.1596 45.4415 0
34.4991 21.0895 0
36.5847 19.7118 0
94.5958 1.03198 0
93.9592 3.43442 0
49.7446 42.2778 0
49.3589 39.8087 0
58.6739 10.6943 0
56.324 9.84436 0
36.6148 10.616 0
34.3316 11.6358 0
56.8236 43.7376 0
56.7504 46.2358 0
2.43075 12.5959 0
1.76839 10.1941 0
82.4254 4.94959 0
83.3188 2.64006 0
37.6747 47.1801 0
35.4178 46.1059 0
65.9688 39.4105 0
68.2979 40.3186 0
24.6637 33.9634 0
27.1389 34.2963 0
68.4576 39.3209 0
70.8583 38.6327 0
13.8294 30.5199 0
12.207 28.6413 0
58.8606 44.3045 0
61.2949 44.8699 0
24.3297 5.58236 0
24.2001 8.06543 0
81.1168 20.829 0
78.7334 21.5858 0
29.8789 39.6121 0
29.5144 42.079 0
23.7194 16.9667 0
21.4591 15.9085 0
2.73132 8.21533 0
4.95777 7.0729 0
48.0282 30.7374 0
49.9852 29.1875 0
87.0498 23.0746 0
84.6628 23.8224 0
34.6694 10.8266 0
32.3362 11.7279 0
47.5598 25.9152 0
46.1043 23.8867 0
67.4184 24.1941 0
65.4284 22.682 0
58.2074 30.0376 0
56.8655 32.1415 0
32.3324 34.7818 0
34.6226 35.7718 0
57.4075 36.2393 0
56.0472 34.1437 0
26.6811 3.3091 0
28.7851 1.95134 0
11.1853 26.568 0
12.72 24.5992 0
63.5038 32.9868 0
61.9089 34.9043 0
28.4971 11.3235 0
26.0498 11.8533 0
44.5055 45.6754 0
42.0073 45.742 0
30.8504 14.3808 0
31.98 16.5992 0
13.2048 1.82293 0
15.332 0.510389 0
76.1207 14.9386 0
73.8618 15.9938 0
12.6727 6.51345 0
13.3214 8.90674 0
35.481 4.84996 0
36.3471 7.19232 0
53.9934 17.585 0
51.5375 18.0251 0
31.319 8.4115 0
29.0153 7.46358 0
24.2929 6.58699 0
21.7976 6.81753 0
48.6118 3.5257 0
51.0492 4.09171 0
32.1692 13.7018 0
32.1018 11.2077 0
1.57834 3.45461 0
4.05895 3.77729 0
62.812 44.1838 0
60.4938 43.2495 0
42.6442 24.3585 0
40.1549 24.1975 0
48.3471 30.672 0
50.523 31.8935 0
58.8728 35.2158 0
56.3865 35.4317 0
50.0161 46.4918 0
52.0704 45.069 0
26.9526 5.63834 0
26.3267 8.05875 0
43.5183 35.9564 0
42.101 33.9018 0
52.8745 27.867 0
50.9803 29.4921 0
60.9478 39.8723 0
62.0846 42.0973 0
46.9364 23.5698 0
45.6715 21.4167 0
19.2537 2.94132 0
18.5402 0.576105 0
48.2299 41.8129 0
49.1918 39.5064 0
47.8198 39.4027 0
45.3696 38.9245 0
73.2099 11.4711 0
72.6823 9.03203 0
52.5234 17.7486 0
50.782 15.9575 0
25.0141 41.7105 0
27.4994 41.4208 0
51.968 24.0076 0
50.5566 26.0679 0
25.8566 30.2421 0
28.2819 30.8306 0
5.35533 7.99597 0
2.87285 7.68401 0
20.8899 35.1579 0
18.7687 36.4823 0
31.9038 19.1037 0
34.1772 20.1269 0
30.1141 19.1922 0
27.7648 18.3528 0
78.7208 17.4592 0
79.4573 19.8343 0
41.9214 32.0563 0
42.4676 29.6189 0
44.794 12.4599 0
45.2523 10.0017 0
44.2024 19.9981 0
46.0487 18.3151 0
36.1221 2.37179 0
35.7789 4.84675 0
94.4817 4.85445 0
95.2951 7.20994 0
41.9177 21.7091 0
40.3689 23.6703 0
57.7728 26.0799 0
55.7346 24.637 0
62.6874 26.8761 0
65.0941 27.5431 0
8.55061 15.6159 0
8.4726 18.0995 0
70.8123 30.8592 0
68.3697 30.3342 0
45.8848 35.5968 0
46.1311 33.1107 0
87.0784 2.73965 0
88.7703 4.57471 0
22.5206 38.4058 0
22.8864 40.8662 0
66.2387 43.0626 0
64.206 41.6078 0
77.337 11.9194 0
77.8729 14.3468 0
50.8449 46.9122 0
49.1603 48.7587 0
14.9014 13.3538 0
15.4069 10.9241 0
75.604 18.8884 0
75.3933 21.3643 0
59.0477 45.4997 0
61.1001 46.927 0
83.7413 9.42329 0
86.1918 8.90983 0
6.96359 1.79865 0
4.46415 1.89244 0
80.7334 18.9144 0
82.5396 17.2021 0
13.6041 0.198809 0
11.1062 0.105254 0
14.9244 32.0682 0
17.3016 31.305 0
14.2042 12.8158 0
15.5772 14.8843 0
66.7258 0.858766 0
64.2572 1.28291 0
72.245 24.3731 0
71.2885 26.6709 0
52.0176 31.3263 0
50.0645 29.772 0
29.3318 29.0777 0
28.0652 26.9342 0
76.0462 25.2763 0
76.2822 22.8019 0
88.1042 17.2003 0
90.3467 18.3195 0
56.5879 8.94795 0
54.2988 9.94742 0
30.606 42.2043 0
32.0898 44.2092 0
49.5612 38.1443 0
50.1525 35.7165 0
33.5868 30.5346 0
35.8203 31.644 0
51.2942 20.0771 0
50.162 22.3044 0
48.0088 20.0831 0
46.7642 17.9172 0
56.3061 36.6296 0
54.2158 37.9939 0
27.9364 27.9193 0
28.5164 30.3402 0
32.5812 34.3701 0
33.2127 36.7818 0
91.745 14.6832 0
93.5784 16.3839 0
6.68285 6.15532 0
6.35706 8.62215 0
30.6014 35.689 0
31.2714 33.2857 0
65.1949 34.7923 0
64.2615 37.1051 0
70.8991 2.14721 0
72.4983 0.237433 0
72.1919 24.9713 0
72.6711 22.5294 0
12.9601 14.5879 0
14.963 16.0719 0
48.3606 3.34165 0
50.7928 3.92968 0
17.3671 5.84302 0
17.5675 8.30817 0
6.48096 18.5519 0
3.99262 18.2968 0
31.8473 33.7991 0
32.0282 36.2857 0
59.3176 32.7659 0
59.0217 35.2452 0
80.5721 24.3711 0
80.9543 26.8248 0
96.0406 18.373 0
96.4574 15.918 0
81.6377 13.1133 0
84.1085 12.7009 0
31.4229 34.3265 0
30.3455 32.0802 0
95.0646 8.63697 0
94.1931 10.9665 0
92.6778 17.8674 0
94.8981 16.7267 0
25.3292 37.8042 0
25.0413 35.332 0
11.1249 27.1205 0
12.9388 28.8149 0
25.2133 17.0285 0
22.7514 17.4936 0
33.0612 22.1579 0
35.5506 22.3398 0
75.0837 22.9767 0
72.584 23.0153 0
50.0606 27.4849 0
49.6802 29.9543 0
20.9957 18.6157 0
20.4841 21.0471 0
93.0784 7.21393 0
92.2551 9.5588 0
49.1252 48.011 0
47.6825 45.9702 0
60.295 38.9573 0
62.172 37.3127 0
68.4954 12.5331 0
66.4383 11.1073 0
74.7483 11.431 0
72.5785 12.6512 0
59.6079 41.7931 0
61.2434 43.6829 0
83.0186 11.9948 0
83.7013 9.61499 0
12.31 9.7406 0
11.226 7.50725 0
46.2378 42.9316 0
44.2355 41.4391 0
78.094 4.1698 0
75.6295 4.57312 0
79.2342 34.5229 0
79.6933 32.0802 0
50.3182 26.204 0
47.8576 25.7954 0
15.9008 14.8923 0
18.3781 14.4969 0
24.6502 1.79028 0
27.1313 1.97064 0
21.7861 5.89686 0
23.7435 4.32876 0
38.4493 26.6653 0
36.0073 27.1852 0
39.6048 37.851 0
37.1121 37.7064 0
20.4521 23.1859 0
19.052 21.1318 0
55.8209 8.57321 0
53.5432 9.59933 0
30.804 38.6299 0
33.2512 38.1209 0
56.7797 41.6787 0
59.2489 41.3061 0
59.0528 12.2997 0
61.5015 11.8167 0
84.7898 1.94256 0
82.4314 2.76207 0
54.6838 35.6092 0
52.9161 37.3723 0
27.9114 39.2627 0
30.4061 39.0985 0
56.9077 32.4936 0
56.6197 30.0124 0
77.6072 21.198 0
75.7242 22.8289 0
36.6873 36.4513 0
36.0502 38.8658 0
70.6579 32.2939 0
68.1922 32.684 0
48.9436 32.3209 0
50.2821 30.2124 0
64.3718 19.2877 0
65.3782 21.5748 0
36.9276 30.4652 0
39.4229 30.5092 0
52.1009 2.93651 0
54.21 4.28175 0
16.1233 26.8662 0
13.913 25.7045 0
28.8351 37.5653 0
26.3658 37.9596 0
66.3025 34.7104 0
64.7134 32.7828 0
86.8447 13.7354 0
85.7546 15.9636 0
79.8959 37.3596 0
77.5957 38.3299 0
1.07288 9.63743 0
2.76003 11.4746 0
22.3157 6.98489 0
19.8249 6.73599 0
28.0247 24.0934 0
25.5504 23.7471 0
48.7818 5.37025 0
46.4106 4.57442 0
39.415 8.28556 0
37.1209 7.30019 0
13.1967 16.1445 0
11.761 14.1168 0
35.2039 37.7708 0
33.3887 39.4881 0
76.1288 7.96231 0
78.1985 6.5834 0
38.8926 43.7594 0
38.0802 41.3981 0
46.1944 9.40568 0
48.2304 7.95592 0
39.906 30.8752 0
37.4849 31.4845 0
37.3307 29.1182 0
36.6639 31.5242 0
36.7213 26.8532 0
34.2482 27.197 0
30.668 4.42137 0
33.0168 5.26489 0
71.8285 31.849 0
74.0037 30.6303 0
24.1711 12.3335 0
26.5619 11.5807 0
33.2206 43.5787 0
35.5084 42.5702 0
26.093 22.4043 0
24.072 23.8751 0
5.6316 2.55958 0
6.55623 0.244055 0
94.3926 5.88414 0
96.8034 6.5612 0
53.4074 18.8594 0
51.7028 17.0332 0
53.8041 45.3493 0
52.3225 47.3617 0
94.7359 5.22928 0
93.3315 3.16547 0
30.2395 21.0834 0
27.7929 20.5847 0
57.5035 2.07207 0
58.1142 4.49583 0
94.617 11.4656 0
92.9754 9.58315 0
43.7258 7.14001 0
46.1876 6.70538 0
49.3932 42.2875 0
47.4351 43.8399 0
42.4265 27.2331 0
44.8364 26.585 0
24.2555 22.5585 0
21.7817 22.1919 0
69.9864 34.0828 0
70.1537 31.5968 0
18.3842 13.4686 0
20.6066 14.6046 0
9.40572 28.6975 0
11.6898 27.6609 0
62.026 24.4379 0
60.7955 22.2629 0
81.7279 25.094 0
79.2263 25.0226 0
22.8397 29.2053 0
20.7202 30.5262 0
14.2398 29.5574 0
14.3523 32.0319 0
12.6289 12.9857 0
13.6599 15.2419 0
67.3628 22.7305 0
67.8096 20.2792 0
79.3224 21.7902 0
81.7347 22.4658 0
15.268 21.6422 0
14.1986 23.8878 0
21.2573 13.5332 0
18.9039 12.6906 0
44.907 44.9388 0
42.411 44.8242 0
62.232 37.9963 0
60.8142 35.9391 0
59.6103 47.1944 0
61.9411 46.2916 0
39.9758 37.7234 0
42.4719 37.6741 0
55.7258 30.2192 0
53.3877 29.3465 0
67.6202 40.6965 0
65.134 40.9466 0
71.0757 5.62493 0
73.5689 5.67761 0
80.9144 3.27852 0
80.8436 0.808199 0
59.6887 7.0388 0
57.947 8.82924 0
32.3773 19.4837 0
31.5748 21.8478 0
43.9523 32.4131 0
44.0639 34.9084 0
97.814 14.1207 0
97.9661 11.6331 0
74.1084 18.5192 0
72.1572 16.9523 0
77.0686 31.4941 0
76.3575 33.8774 0
55.9599 48.5927 0
56.3197 46.1193 0
40.1774 1.17351 0
37.7601 1.8255 0
72.0377 20.0175 0
74.5134 19.6744 0
41.836 44.6455 0
44.315 44.9562 0
87.0939 2.74689 0
86.5218 5.16005 0
19.3754 21.921 0
18.9318 19.4809 0
17.5277 36.2381 0
16.2931 34.0842 0
26.076 37.9831 0
24.1923 39.6262 0
61.6705 6.28177 0
59.6997 4.74229 0
39.7329 30.0526 0
40.0485 32.5287 0
63.2623 5.50515 0
60.7919 5.88286 0
60.5817 6.63245 0
61.433 4.28326 0
79.3153 36.8838 0
76.8792 37.4387 0
46.8259 23.3658 0
47.7829 21.0571 0
81.9583 12.3248 0
79.4778 12.6721 0
17.6951 12.9546 0
18.5127 15.2944 0
48.2094 40.5898 0
46.3963 42.3092 0
65.3707 19.7748 0
64.1428 17.5973 0
42.9271 40.0013 0
41.7504 42.2062 0
54.5054 16.9395 0
53.4338 19.1961 0
22.9207 29.351 0
25.3111 28.6221 0
23.242 14.9041 0
20.8002 14.3603 0
92.335 7.79081 0
90.8158 9.76119 0
32.1448 32.0488 0
33.6101 30.0263 0
68.7191 28.5321 0
68.9542 31.0142 0
97.6765 2.4144 0
96.1901 4.40836 0
67.3583 14.9935 0
69.8198 14.5824 0
78.3503 23.3196 0
78.8103 20.88 0
37.5736 16.0118 0
35.1941 15.2641 0
68.9075 9.3099 0
69.4626 6.87799 0
32.9462 20.2271 0
34.2915 18.1204 0
33.279 31.6168 0
34.9285 29.741 0
87.8899 25.9541 0
89.8639 27.4956 0
84.2657 23.638 0
86.6903 24.2742 0
38.5199 11.1978 0
36.0927 11.791 0
65.6829 40.3415 0
63.5133 39.101 0
37.7057 1.57253 0
35.5301 2.80718 0
75.4744 39.9104 0
75.9028 42.3643 0
67.3484 2.19412 0
67.1279 4.68353 0
71.9833 15.1844 0
70.1393 13.4914 0
63.3671 31.8926 0
65.8589 32.0488 0
39.5852 3.17677 0
38.8502 5.56628 0
46.2261 18.7005 0
47.7936 16.7547 0
37.5182 38.7283 0
36.3097 40.9147 0
90.1787 7.31074 0
90.9033 4.93544 0
92.5939 20.0398 0
90.1888 19.3335 0
55.8933 19.2231 0
56.1458 16.7368 0
22.8679 18.7858 0
21.4875 20.8629 0
32.7381 16.0367 0
34.5201 17.7771 0
72.9705 38.3331 0
73.3286 35.869 0
61.7417 40.7078 0
63.1727 42.7561 0
27.4598 32.8531 0
29.7543 31.8624 0
27.6453 16.6043 0
25.8024 14.9333 0
39.4945 2.38032 0
37.466 3.84449 0
18.6214 28.4382 0
17.7922 26.0973 0
73.4892 2.65795 0
75.2198 0.883885 0
75.7701 42.0172 0
73.2721 42.1533 0
57.3533 43.8749 0
54.9326 43.2557 0
27.252 9.02727 0
28.882 10.9025 0
24.2062 7.79814 0
23.0429 10.0077 0
76.6129 41.5032 0
74.5027 42.8366 0
30.3806 38.5161 0
32.0654 40.3544 0
47.7304 27.4326 0
48.5127 29.8048 0
78.4329 6.97006 0
80.9146 6.64014 0
76.0095 10.3676 0
76.2755 12.839 0
69.5284 34.0389 0
68.9159 31.6209 0
77.7249 17.0599 0
79.7095 18.5837 0
84.4817 32.481 0
85.6485 34.6778 0
64.9027 34.3849 0
64.2198 31.9835 0
32.411 10.1415 0
29.9143 10.0939 0
29.5288 44.37 0
31.8229 45.3604 0
20.065 28.9971 0
22.5266 28.5661 0
45.1501 28.2751 0
47.3599 27.1146 0
19.2901 33.7728 0
20.5637 31.6303 0
66.1286 9.32145 0
66.1531 6.82301 0
61.7031 1.62698 0
64.0578 0.776011 0
80.9517 1.39025 0
79.8131 3.57632 0
40.5927 47.4409 0
38.0954 47.3157 0
58.8005 25.9959 0
59.6186 28.3563 0
14.8114 23.3666 0
16.9106 24.7149 0
4.10194 14.4215 0
6.15012 12.9841 0
84.2718 21.6221 0
82.6437 19.7314 0
8.18234 0.606423 0
5.72119 0.180982 0
75.437 20.0315 0
73.0869 20.8744 0
52.4323 9.80163 0
50.7794 7.92662 0
43.313 5.69447 0
45.7114 4.98574 0
39.2711 2.72324 0
37.8591 4.7871 0
3.32478 8.63896 0
0.886717 8.08038 0
87.8932 12.0909 0
88.2179 14.552 0
39.6997 11.257 0
37.4348 10.21 0
57.9431 7.24615 0
56.0201 5.64753 0
16.2613 26.7673 0
13.7733 27.0556 0
52.5472 5.26737 0
55.0205 5.63805 0
89.8352 6.9572 0
92.2181 7.728 0
93.5029 4.63962 0
91.8543 2.76305 0
95.097 0.409212 0
96.8615 2.18171 0
16.0525 29.2771 0
18.4202 28.4812 0
62.4866 9.47879 0
61.7792 11.874 0
18.5814 7.15179 0
17.9423 4.76597 0
70.1852 45.002 0
67.8057 44.2298 0
79.6824 8.33262 0
80.5724 6.02342 0
91.8982 15.6377 0
89.7397 14.368 0
59.5373 8.66269 0
59.3379 6.17035 0
21.3989 28.4281 0
23.7021 29.3881 0
24.8647 41.913 0
26.3663 39.9173 0
22.3765 13.2119 0
24.5756 14.384 0
9.85852 12.0598 0
11.0386 9.86614 0
33.5168 45.2746 0
34.4758 42.9691 0
67.6194 35.7391 0
69.883 36.7994 0
25.3399 10.6319 0
26.8538 8.63659 0
84.0203 24.4361 0
82.6801 22.3383 0
87.5755 2.0369 0
89.3574 3.78652 0
51.109 40.8258 0
53.4443 41.7118 0
82.2009 9.39012 0
80.113 8.00369 0
65.1125 14.4475 0
66.1173 16.7368 0
42.9474 6.63012 0
42.7637 4.13746 0
53.5119 5.34937 0
55.4258 3.74091 0
44.345 38.7415 0
42.8776 40.7642 0
90.5849 10.8175 0
92.5595 9.29507 0
23.2621 16.8087 0
24.7961 18.7646 0
23.7714 10.0136 0
23.8121 7.5303 0
60.7135 35.5668 0
60.9521 38.0529 0
44.6478 1.05725 0
42.292 1.90412 0
78.2927 24.1706 0
79.0269 21.7983 0
68.8629 37.7424 0
68.7585 35.2511 0
27.5534 6.3827 0
29.4606 4.75679 0
58.9296 13.102 0
59.0219 15.5995 0
57.7186 9.3763 0
59.6486 10.9656 0
51.7594 19.3651 0
54.1705 20.0081 0
50.6769 38.0187 0
48.1806 38.0174 0
47.4656 22.6751 0
46.4155 24.9427 0
22.6298 21.0119 0
22.8366 23.4873 0
81.0258 2.10507 0
78.5678 1.59882 0
95.2719 4.86172 0
95.4203 7.34588 0
48.3793 40.9736 0
46.784 42.8971 0
26.3723 16.5586 0
25.2326 18.7783 0
89.3211 21.4253 0
88.3565 23.709 0
43.8448 3.43378 0
46.1155 4.48186 0
53.2827 27.6887 0
55.5177 28.7999 0
78.2829 8.29177 0
79.9485 6.45206 0
13.6836 13.9667 0
16.1816 14.1772 0
54.0795 47.3356 0
53.9837 44.838 0
52.4095 5.84536 0
49.9861 5.22761 0
54.1076 40.3891 0
51.8111 41.3697 0
8.32759 21.8696 0
6.37364 23.4354 0
11.1256 27.5601 0
8.63291 27.3723 0
49.7342 47.0196 0
47.2352 47.0477 0
43.5631 18.2108 0
45.908 19.0619 0
28.4276 43.2846 0
27.7417 40.8897 0
87.1308 31.3441 0
86.4145 28.977 0
85.7941 22.3657 0
86.6582 20.0422 0
85.977 0.788352 0
88.4119 1.36587 0
83.5081 35.5121 0
84.5369 33.2554 0
24.158 32.5037 0
25.7236 30.5596 0
45.6014 42.0951 0
47.1179 44.0802 0
21.4056 34.7799 0
23.6839 33.75 0
6.27025 12.0641 0
4.35658 10.4651 0
34.5446 14.5503 0
36.1579 12.6386 0
31.279 45.7529 0
33.0058 43.9462 0
18.2883 22.8671 0
20.7064 23.5068 0
10.2896 22.4586 0
11.9911 20.628 0
50.2245 7.44143 0
47.8896 6.54793 0
47.4985 30.616 0
45.1679 29.7265 0
38.8698 20.8317 0
41.2789 20.1758 0
43.5974 9.7856 0
41.3922 10.9617 0
77.4845 36.7655 0
79.2556 35.0161 0
39.9113 8.75994 0
39.0822 11.119 0
74.8635 40.1927 0
73.6094 38.0347 0
60.7837 11.6777 0
58.9133 13.3294 0
96.2579 12.4969 0
94.0336 11.3483 0
43.771 25.1761 0
41.2763 25.1912 0
54.2776 42.6894 0
56.7508 42.3413 0
84.5718 23.4269 0
82.0706 23.5703 0
2.50667 9.58565 0
4.57244 8.17514 0
82.1238 4.91584 0
84.6132 5.19469 0
36.5667 16.2772 0
38.6866 17.5901 0
44.0126 9.22186 0
42.0259 10.739 0
21.2102 26.3464 0
22.2129 28.6218 0
43.0614 27.046 0
45.3744 26.1082 0
15.0535 19.5371 0
14.8806 22.0111 0
20.1596 8.5316 0
21.0251 6.19779 0
12.2421 24.7216 0
10.9786 22.5877 0
49.8771 41.3387 0
48.6862 39.1424 0
9.60045 24.3478 0
9.40826 26.8264 0
35.0975 43.8578 0
32.8858 45.0241 0
13.4088 18.233 0
11.2191 17.0344 0
12.2707 23.7002 0
12.7052 21.2561 0
84.2146 17.3425 0
84.0558 14.8676 0
97.114 15.4144 0
94.9086 14.2307 0
76.1741 36.562 0
77.5632 38.6357 0
4.7184 2.93544 0
2.26206 3.41994 0
13.9124 26.6847 0
11.4222 26.4155 0
9.90266 5.16672 0
8.63384 7.31227 0
87.0121 9.94055 0
86.7039 7.47845 0
50.8087 18.7855 0
49.8851 16.4631 0
22.8286 2.92408 0
23.505 0.515552 0
24.063 40.2524 0
21.5822 39.9331 0
4.30013 10.4945 0
1.88992 11.172 0
73.9912 27.9677 0
72.4225 29.9015 0
51.6079 16.4338 0
49.4403 17.6721 0
94.6917 5.50414 0
96.5687 7.15612 0
92.4072 0.897563 0
90.0085 1.58884 0
54.6789 27.8877 0
57.004 28.7952 0
3.92791 2.10523 0
2.80393 4.33259 0
25.6218 41.8997 0
28.1068 41.6081 0
24.3152 33.0615 0
25.7827 35.0718 0
64.8569 37.7078 0
63.0433 35.9891 0
45.7857 38.8372 0
46.3318 36.3989 0
59.138 39.2739 0
58.3352 41.6388 0
42.8445 19.3046 0
41.6445 17.1155 0
48.5264 16.7812 0
47.4681 14.5174 0
92.8769 4.84958 0
91.3544 6.81726 0
17.6598 6.58138 0
16.0845 4.66237 0
31.5691 30.5863 0
33.0842 28.601 0
49.5583 45.027 0
50.5155 47.3359 0
51.6925 13.7047 0
49.2484 14.2116 0
35.2075 5.45595 0
34.5566 7.87058 0
90.6965 7.73355 0
90.2635 10.1776 0
55.2538 45.6512 0
54.0039 43.4863 0
16.7272 18.136 0
18.9156 16.917 0
14.6141 7.04195 0
14.2751 4.58697 0
24.3086 34.246 0
21.8165 34.4397 0
62.6116 33.4917 0
60.6455 35.027 0
11.5577 19.624 0
13.6646 20.9584 0
76.8281 0.373913 0
74.3442 0.260312 0
59.9085 25.9611 0
57.6574 24.8806 0
70.4479 26.9563 0
67.9628 27.1967 0
46.233 22.722 0
46.9782 20.3362 0
76.5756 3.82382 0
74.1795 4.48116 0
47.8515 15.0343 0
50.1329 16.047 0
88.1789 13.5419 0
89.9548 11.797 0
71.0218 0.0541472 0
73.3297 1.01596 0
56.2766 45.5845 0
57.2062 43.2653 0
68.174 3.23146 0
65.9516 2.08276 0
22.862 17.61 0
24.781 16.0036 0
81.1762 38.5984 0
83.1536 37.0807 0
49.4123 2.89225 0
51.1128 4.72544 0
66.0222 3.29301 0
63.6904 2.39005 0
53.2971 12.0823 0
53.064 9.59279 0
12.603 15.3841 0
10.7837 17.0989 0
43.1752 4.59767 0
43.6217 7.0568 0
56.1542 20.5077 0
58.601 20.9995 0
60.8271 22.3114 0
58.3505 22.0025 0
28.841 27.1215 0
27.0246 25.4169 0
40.7081 6.87443 0
38.2325 7.21287 0
17.3996 2.34375 0
19.8821 2.01551 0
42.8492 25.7719 0
40.3759 26.1028 0
7.01908 17.6721 0
8.34931 19.7723 0
20.3055 11.9535 0
22.1501 10.2614 0
67.3853 39.9566 0
65.4776 41.5654 0
45.1299 41.4431 0
45.9848 43.7907 0
70.7879 17.1898 0
73.1703 16.4462 0
88.289 4.86413 0
90.0303 6.65361 0
49.8863 20.1065 0
48.1652 21.9162 0
56.3488 37.6335 0
56.3504 40.1321 0
82.3464 25.9652 0
80.8238 27.9333 0
39.5764 4.37524 0
41.5656 5.88695 0
55.1613 43.5017 0
57.0021 41.8138 0
55.3749 43.3866 0
57.055 41.5387 0
25.0671 15.3423 0
23.2469 13.6498 0
14.3804 27.7521 0
13.5491 30.0849 0
52.9975 16.9788 0
51.1952 18.707 0
32.5392 42.7581 0
34.8902 43.6039 0
19.7177 10.8351 0
21.4767 12.5905 0
61.5099 41.0665 0
63.7445 39.9531 0
32.9806 27.3967 0
31.0344 28.9635 0
31.0294 21.1484 0
32.0012 23.4411 0
72.0381 27.3901 0
71.2072 29.7368 0
38.0961 13.0448 0
40.5678 13.3899 0
47.3035 47.8991 0
45.484 46.1861 0
70.5994 11.4875 0
70.4624 13.9755 0
98.6727 10.1852 0
96.6094 8.77114 0
96.4761 15.9046 0
93.9741 15.9655 0
58.9431 10.1701 0
59.6774 12.5602 0
54.9888 18.3221 0
56.4685 20.3361 0
53.9049 41.5834 0
56.3672 41.1682 0
5.03809 4.4253 0
7.51982 4.10108 0
84.4974 18.7771 0
86.824 19.7118 0
19.3107 30.1816 0
19.5374 32.6562 0
64.3962 35.7602 0
63.1488 33.5962 0
66.4611 23.4567 0
68.957 23.3772 0
60.3734 25.4119 0
62.6666 24.4324 0
55.9082 21.1098 0
57.5988 19.2744 0
21.5951 36.3009 0
19.1011 36.497 0
55.9411 32.2733 0
58.3711 31.7085 0
67.9471 1.65777 0
70.1334 2.87603 0
16.2183 6.25369 0
17.6155 4.19535 0
91.8087 24.2034 0
91.132 26.5919 0
89.1994 19.1232 0
86.7271 18.7005 0
88.0913 12.5733 0
86.5297 14.5076 0
76.3942 18.8392 0
77.589 16.6625 0
70.9877 20.9576 0
70.0762 23.2734 0
26.6474 25.4618 0
25.4298 27.6385 0
55.7945 26.2961 0
55.5475 28.7817 0
59.1603 43.036 0
57.519 44.9188 0
66.2034 18.7267 0
68.2469 17.3012 0
81.2415 33.526 0
79.7048 31.5615 0
50.428 8.96387 0
49.7704 11.376 0
26.0891 27.4649 0
24.057 28.9178 0
49.6501 27.2573 0
49.8899 24.7697 0
89.2929 25.4544 0
91.7938 25.3822 0
78.952 32.0623 0
76.6216 32.9521 0
76.1817 37.378 0
76.6202 34.9292 0
22.6829 1.46277 0
23.5178 3.79192 0
17.2426 11.9366 0
15.7619 9.94437 0
76.5149 35.731 0
78.3775 34.0783 0
25.5419 42.7411 0
23.7587 40.9986 0
24.9574 3.53799 0
23.1374 1.86908 0
86.8862 24.4231 0
85.0306 22.75 0
84.0491 33.4426 0
83.1623 31.1193 0
67.9941 9.12379 0
65.8945 7.76108 0
6.42091 3.78542 0
4.64862 5.54803 0
88.4866 7.25731 0
89.3697 4.93746 0
68.0706 40.7929 0
69.906 39.1041 0
33.6032 18.8264 0
33.5044 21.3193 0
18.4062 18.3392 0
20.0088 20.2402 0
51.0052 20.6184 0
51.9929 18.3231 0
81.1822 27.1967 0
78.9846 26.0087 0
33.6672 33.6427 0
31.4875 34.8647 0
42.0865 36.6189 0
44.2742 35.4143 0
9.48387 8.08693 0
8.11087 6.01375 0
46.3965 9.01179 0
43.9213 9.35108 0
38.9244 45.762 0
36.7419 44.5454 0
56.6688 44.7405 0
57.0809 42.276 0
50.8192 7.74848 0
52.1408 9.8703 0
69.2987 9.56127 0
68.1862 11.7889 0
52.7854 10.6306 0
53.9925 8.44202 0
87.9572 0.590021 0
87.44 3.01717 0
87.5566 29.6465 0
88.4848 27.3578 0
27.797 27.7882 0
29.3514 25.8341 0
41.1419 3.16827 0
43.5645 2.54087 0
47.3866 29.2381 0
44.8933 29.1603 0
44.9069 23.1307 0
42.4349 22.798 0
57.5461 36.1583 0
55.6851 34.4921 0
79.9238 4.7657 0
81.3138 6.83453 0
32.986 1.47102 0
31.3271 3.34323 0
37.994 49.6754 0
37.9195 51.243 0
37.9195 51.243 0
37.7081 52.7983 0
37.7081 52.7983 0
37.3617 54.3293 0
37.3617 54.3293 0
36.8829 55.8244 0
36.8829 55.8244 0
36.2755 57.272 0
36.2755 57.272 0
35.5441 58.6612 0
35.5441 58.6612 0
34.6943 59.9814 0
34.6943 59.9814 0
33.7326 61.2226 0
33.7326 61.2226 0
32.6665 62.3754 0
32.6665 62.3754 0
31.5039 63.4309 0
31.5039 63.4309 0
30.2539 64.3813 0
30.2539 64.3813 0
28.9258 65.2193 0
28.9258 65.2193 0
27.5298 65.9385 0
27.5298 65.9385 0
26.0765 66.5336 0
26.0765 66.5336 0
24.5769 67 0
24.5769 67 0
23.0424 67.3342 0
23.0424 67.3342 0
21.4847 67.5337 0
21.4847 67.5337 0
19.9155 67.597 0
19.9155 67.597 0
18.3467 67.5235 0
18.3467 67.5235 0
16.7903 67.3139 0
16.7903 67.3139 0
15.258 66.9697 0
15.258 66.9697 0
13.7615 66.4936 0
13.7615 66.4936 0
12.3121 65.8891 0
12.3121 65.8891 0
10.9208 65.1608 0
10.9208 65.1608 0
9.5982 64.3142 0
9.5982 64.3142 0
8.35434 63.3558 0
8.35434 63.3558 0
7.19866 62.2927 0
7.19866 62.2927 0
6.14 61.1331 0
6.14 61.1331 0
5.18643 59.8857 0
5.18643 59.8857 0
4.34518 58.56 0
4.34518 58.56 0
3.62274 57.1661 0
3.62274 57.1661 0
3.02465 55.7146 0
3.02465 55.7146 0
2.5555 54.2165 0
2.5555 54.2165 0
2.21888 52.6834 0
2.21888 52.6834 0
2.0175 51.1268 0
2.0175 51.1268 0
1.95291 49.5586 0
1.95291 49.5586 0
2.02565 47.991 0
2.02565 47.991 0
2.23526 46.4359 0
2.23526 46.4359 0
2.58021 44.9054 0
2.58021 44.9054 0
3.0579 43.411 0
3.0579 43.411 0
3.66476 41.9647 0
3.66476 41.9647 0
4.39617 40.5776 0
4.39617 40.5776 0
5.24657 39.2605 0
5.24657 39.2605 0
6.20961 38.0241 0
6.20961 38.0241 0
7.27767 36.8784 0
7.27767 36.8784 0
8.4428 35.833 0
8.4428 35.833 0
9.69605 34.8982 0
9.69605 34.8982 0
11.0282 34.082 0
11.0282 34.082 0
12.4319 33.3868 0
12.4319 33.3868 0
13.889 32.8003 0
13.889 32.8003 0
15.3871 32.3333 0
15.3871 32.3333 0
16.9189 31.9954 0
16.9189 31.9954 0
18.4744 31.7905 0
18.4744 31.7905 0
20.0419 31.7207 0
20.0419 31.7207 0
21.6095 31.787 0
21.6095 31.787 0
23.165 31.989 0
23.165 31.989 0
24.6964 32.3253 0
24.6964 32.3253 0
26.1923 32.7934 0
26.1923 32.7934 0
27.6411 33.3901 0
27.6411 33.3901 0
29.0317 34.1112 0
29.0317 34.1112 0
30.3535 34.9512 0
30.3535 34.9512 0
31.5966 35.9037 0
31.5966 35.9037 0
32.7516 36.9615 0
32.7516 36.9615 0
33.8096 38.1166 0
33.8096 38.1166 0
34.7626 39.3601 0
34.7626 39.3601 0
35.6034 40.6825 0
35.6034 40.6825 0
36.3256 42.0738 0
36.3256 42.0738 0
36.9236 43.5233 0
36.9236 43.5233 0
37.3928 45.0198 0
37.3928 45.0198 0
37.7295 46.5519 0
37.7295 46.5519 0
37.9306 48.1077 0
37.9306 48.1077 0
37.994 49.6754 0
98.0472 49.5582 0
97.9826 51.1264 0
97.9826 51.1264 0
97.7812 52.683 0
97.7812 52.683 0
97.4446 54.2162 0
97.4446 54.2162 0
96.9754 55.7142 0
96.9754 55.7142 0
96.3773 57.1657 0
96.3773 57.1657 0
95.6549 58.5596 0
95.6549 58.5596 0
94.8136 59.8853 0
94.8136 59.8853 0
93.86 61.1326 0
93.86 61.1326 0
92.8014 62.2923 0
92.8014 62.2923 0
91.6457 63.3553 0
91.6457 63.3553 0
90.4018 64.3138 0
90.4018 64.3138 0
89.0792 65.1603 0
89.0792 65.1603 0
87.6879 65.8886 0
87.6879 65.8886 0
86.2385 66.4931 0
86.2385 66.4931 0
84.742 66.9692 0
84.742 66.9692 0
83.2097 67.3134 0
83.2097 67.3134 0
81.6533 67.523 0
81.6533 67.523 0
80.0845 67.5964 0
80.0845 67.5964 0
78.5153 67.5331 0
78.5153 67.5331 0
76.9576 67.3336 0
76.9576 67.3336 0
75.4231 66.9994 0
75.4231 66.9994 0
73.9235 66.533 0
73.9235 66.533 0
72.4702 65.9379 0
72.4702 65.9379 0
71.0742 65.2186 0
71.0742 65.2186 0
69.7462 64.3806 0
69.7462 64.3806 0
68.4961 63.4303 0
68.4961 63.4303 0
67.3336 62.3747 0
67.3336 62.3747 0
66.2674 61.2219 0
66.2674 61.2219 0
65.3058 59.9807 0
65.3058 59.9807 0
64.456 58.6605 0
64.456 58.6605 0
63.7246 57.2713 0
63.7246 57.2713 0
63.1172 55.8236 0
63.1172 55.8236 0
62.6384 54.3286 0
62.6384 54.3286 0
62.2921 52.7975 0
62.2921 52.7975 0
62.0808 51.2422 0
62.0808 51.2422 0
62.0063 49.6746 0
62.0063 49.6746 0
62.0697 48.1069 0
62.0697 48.1069 0
62.2709 46.5511 0
62.2709 46.5511 0
62.6076 45.019 0
62.6076 45.019 0
63.0767 43.5225 0
63.0767 43.5225 0
63.6747 42.073 0
63.6747 42.073 0
64.3968 40.6818 0
64.3968 40.6818 0
65.2376 39.3593 0
65.2376 39.3593 0
66.1906 38.1159 0
66.1906 38.1159 0
67.2485 36.9608 0
67.2485 36.9608 0
68.4035 35.9031 0
68.4035 35.9031 0
69.6466 34.9507 0
69.6466 34.9507 0
70.9685 34.1108 0
70.9685 34.1108 0
72.3591 33.3898 0
72.3591 33.3898 0
73.8078 32.7927 0
73.8078 32.7927 0
75.3037 32.3242 0
75.3037 32.3242 0
76.8353 31.9878 0
76.8353 31.9878 0
78.3908 31.7859 0
78.3908 31.7859 0
79.9582 31.7198 0
79.9582 31.7198 0
81.5258 31.7897 0
81.5258 31.7897 0
83.0815 31.9947 0
83.0815 31.9947 0
84.6136 32.3326 0
84.6136 32.3326 0
86.1117 32.7998 0
86.1117 32.7998 0
87.5678 33.3867 0
87.5678 33.3867 0
88.9723 34.0818 0
88.9723 34.0818 0
90.3047 34.8986 0
90.3047 34.8986 0
91.5574 35.8331 0
91.5574 35.8331 0
92.7225 36.878 0
92.7225 36.878 0
93.7907 38.0238 0
93.7907 38.0238 0
94.7536 39.2601 0
94.7536 39.2601 0
95.604 40.5773 0
95.604 40.5773 0
96.3355 41.9644 0
96.3355 41.9644 0
96.9423 43.4107 0
96.9423 43.4107 0
97.4199 44.905 0
97.4199 44.905 0
97.7649 46.4356 0
97.7649 46.4356 0
97.9745 47.9906 0
97.9745 47.9906 0
98.0472 49.5582 0
      </DataArray>
    </Points>
    <Cells>
      <DataArray type="Int32" Name="connectivity" format="ascii">
247 120 114 753 754 755 
213 114 214 748 749 750 
487 220 257 647 745 730 
257 115 260 741 742 743 
246 300 116 738 739 740 
212 116 247 731 732 733 
246 257 117 724 725 726 
299 117 312 719 720 721 
303 310 118 716 717 718 
248 118 256 711 712 713 
513 495 483 150 224 119 
507 513 483 151 119 184 
248 120 302 704 705 706 
221 258 121 1196 1197 1198 
259 121 313 1191 1192 1193 
464 430 432 332 409 122 
436 464 432 326 122 408 
346 1189 123 1186 1187 1188 
298 123 351 1181 1182 1183 
71 311 124 699 700 701 
65 124 372 692 693 694 
79 369 125 687 688 689 
684 125 309 680 681 682 
211 243 126 1178 1179 1180 
244 126 297 1173 1174 1175 
462 474 436 240 281 127 
438 462 436 294 127 327 
512 515 514 131 129 134 
513 509 511 130 132 135 
514 515 510 129 139 128 
508 514 510 148 128 147 
496 500 514 146 133 149 
513 499 495 136 145 150 
507 509 513 143 130 151 
505 491 497 141 142 154 
504 515 512 137 131 155 
174 503 511 1151 156 144 
512 514 500 134 133 159 
499 513 511 136 135 162 
494 515 504 138 137 165 
171 510 515 1164 139 166 
140 167 168 678 674 675 
167 492 168 672 661 674 
491 505 506 141 153 169 
177 498 497 656 164 170 
173 490 174 1156 1149 1171 
217 489 503 1126 176 175 
495 499 498 145 163 178 
501 500 496 158 146 179 
172 486 181 1162 1145 1169 
496 514 508 149 148 183 
480 481 140 227 152 187 
479 506 505 188 153 190 
477 505 497 191 154 193 
504 512 475 155 160 194 
472 511 503 161 156 197 
501 502 471 157 199 200 
500 501 470 158 201 202 
475 512 500 160 159 203 
499 511 472 162 161 204 
498 499 469 163 205 206 
497 498 468 164 207 208 
494 504 474 165 195 210 
211 493 171 1165 1161 1166 
167 180 212 667 668 669 
168 492 213 661 662 663 
214 488 177 657 653 658 
172 171 215 1158 1159 1160 
173 185 216 1153 1154 1155 
174 490 217 1149 1127 1150 
473 503 489 196 176 218 
177 488 219 653 643 654 
220 487 180 647 648 649 
182 181 221 1142 1143 1144 
496 508 115 183 222 747 
225 484 185 886 1138 1139 
482 502 481 198 186 226 
506 480 140 189 187 677 
480 506 479 189 188 228 
479 505 478 190 192 229 
478 505 477 192 191 230 
477 497 476 193 209 231 
474 504 475 195 194 232 
472 503 473 197 196 233 
471 502 482 199 198 234 
470 501 471 201 200 235 
475 500 470 203 202 236 
469 499 472 205 204 237 
468 498 469 207 206 238 
476 497 468 209 208 239 
494 474 461 210 241 242 
215 245 249 1133 1134 1135 
216 250 251 1128 1129 1130 
217 252 253 1123 1124 1125 
307 451 473 1047 255 254 
223 219 256 640 641 642 
583 263 223 1074 637 628 
582 261 264 1120 1121 1122 
445 482 481 265 226 268 
444 481 480 267 227 270 
443 480 479 269 228 272 
442 479 478 271 229 274 
441 478 477 273 230 276 
440 477 476 275 231 278 
474 475 436 232 280 281 
472 473 435 233 283 284 
471 482 446 234 266 286 
470 471 434 235 287 288 
464 475 470 279 236 289 
469 472 463 237 285 290 
468 469 433 238 291 292 
439 476 468 277 239 293 
461 474 462 241 240 295 
296 460 243 1071 1116 1117 
245 244 298 1107 1108 1109 
258 249 304 1100 1101 1102 
250 262 305 1095 1096 1097 
252 251 306 1088 1089 1090 
253 452 307 1084 1044 1085 
437 473 451 282 255 308 
633 314 591 871 832 1082 
262 261 316 1075 1076 1077 
318 629 578 854 810 809 
446 482 445 266 265 319 
445 481 444 268 267 320 
444 480 443 270 269 321 
443 479 442 272 271 322 
442 478 441 274 273 323 
441 477 440 276 275 324 
440 476 439 278 277 325 
436 475 464 280 279 326 
435 473 437 283 282 328 
463 472 435 285 284 329 
434 471 446 287 286 330 
464 470 434 289 288 331 
433 469 463 291 290 334 
439 468 433 293 292 335 
462 438 43 294 338 339 
461 462 45 295 340 341 
296 342 343 1068 1069 1070 
297 344 345 1063 1064 1065 
299 311 347 621 622 623 
301 300 348 616 617 618 
302 301 349 609 610 611 
309 303 350 602 603 604 
304 352 353 1058 1059 1060 
305 358 359 1053 1054 1055 
306 361 362 1048 1049 1050 
307 452 364 1044 934 1045 
437 451 109 308 367 368 
599 317 597 848 850 1042 
592 315 593 841 840 1040 
313 355 375 1035 1036 1037 
585 586 587 1032 1033 1034 
356 316 378 1027 1028 1029 
578 579 580 1024 1025 1026 
3 446 445 381 319 383 
7 445 444 384 320 386 
11 444 443 387 321 389 
15 443 442 390 322 392 
19 442 441 393 323 395 
23 441 440 396 324 398 
27 440 439 399 325 401 
432 438 436 336 327 408 
435 437 431 328 337 410 
429 463 435 333 329 411 
434 446 0 330 382 413 
430 464 434 332 331 414 
433 463 429 334 333 415 
1 439 433 402 335 416 
39 438 432 404 336 417 
431 437 940 337 407 418 
43 438 41 338 405 42 
45 462 43 340 339 44 
47 49 342 48 1019 1020 
344 343 51 1009 1010 1011 
346 345 1013 1000 1001 1002 
348 347 702 569 570 571 
350 349 75 560 561 562 
352 351 55 991 992 993 
354 353 979 984 985 986 
355 354 995 975 976 977 
357 356 89 968 969 970 
358 357 956 959 960 961 
360 359 972 952 953 954 
361 360 95 943 944 945 
363 362 99 936 937 938 
364 363 103 927 928 929 
107 451 105 366 365 106 
109 451 107 367 366 108 
931 437 109 406 368 110 
370 369 548 553 554 555 
371 370 690 544 545 546 
372 374 532 537 538 539 
374 373 696 528 529 530 
376 375 61 920 921 922 
924 523 524 915 916 917 
378 380 85 908 909 910 
516 911 518 903 904 905 
0 446 3 382 381 2 
3 445 5 383 385 4 
5 445 7 385 384 6 
7 444 9 386 388 8 
9 444 11 388 387 10 
11 443 13 389 391 12 
13 443 15 391 390 14 
15 442 17 392 394 16 
17 442 19 394 393 18 
19 441 21 395 397 20 
21 441 23 397 396 22 
23 440 25 398 400 24 
25 440 27 400 399 26 
27 439 29 401 403 28 
29 439 1 403 402 30 
41 438 39 405 404 40 
940 437 931 407 406 932 
432 430 31 409 423 419 
429 435 431 411 410 412 
93 429 431 426 412 422 
430 434 0 414 413 424 
1 433 429 416 415 428 
39 432 37 417 420 38 
947 431 940 421 418 941 
37 432 31 420 419 36 
93 431 947 422 421 948 
31 430 33 423 425 32 
33 430 0 425 424 34 
112 429 93 427 426 111 
1 429 112 428 427 113 
220 115 257 746 741 745 
518 899 519 896 897 898 
521 519 380 889 890 891 
630 264 225 882 883 884 
491 177 497 659 170 142 
481 502 140 186 676 152 
744 182 635 879 874 875 
120 247 467 753 735 707 
247 114 492 755 752 736 
114 120 488 754 710 751 
114 213 492 748 662 752 
213 214 491 750 660 665 
214 114 488 749 751 657 
115 220 496 746 652 747 
257 260 466 743 632 727 
182 485 635 878 870 874 
300 246 458 738 728 619 
246 116 487 740 737 729 
116 300 467 739 620 734 
116 212 487 731 670 737 
212 247 492 733 736 671 
247 116 467 732 734 735 
257 246 487 724 729 730 
246 117 458 726 723 728 
117 257 466 725 727 722 
117 299 458 719 625 723 
299 312 449 721 595 626 
312 117 466 720 722 596 
310 303 450 716 608 600 
303 118 457 718 715 605 
118 310 465 717 601 714 
118 248 457 711 708 715 
248 256 488 713 644 709 
256 118 465 712 714 645 
120 248 488 704 709 710 
248 302 457 706 613 708 
302 120 467 705 707 614 
311 71 573 699 72 624 
71 124 63 701 698 70 
124 311 449 700 627 695 
124 65 63 692 64 698 
65 372 67 694 542 66 
372 124 449 693 695 543 
369 79 81 687 80 556 
79 125 73 689 686 78 
125 369 450 688 559 683 
125 684 73 680 685 686 
684 309 564 682 606 565 
309 125 450 681 683 607 
167 140 502 678 676 679 
501 167 502 673 679 157 
140 168 506 675 666 677 
180 167 501 667 673 651 
167 212 492 669 671 672 
212 180 487 668 648 670 
506 168 213 666 663 664 
491 506 213 169 664 665 
491 214 177 660 658 659 
498 177 219 656 654 655 
495 498 219 178 655 646 
496 220 180 652 649 650 
501 496 180 179 650 651 
219 223 495 640 639 646 
223 256 465 642 645 636 
256 219 488 641 643 644 
495 223 263 639 637 638 
483 495 263 224 638 631 
633 635 634 867 868 869 
588 634 259 860 861 862 
629 318 630 854 855 856 
311 299 449 621 626 627 
299 347 458 623 577 625 
347 311 573 622 624 572 
300 301 467 616 615 620 
301 348 69 618 575 612 
348 300 458 617 619 576 
301 302 467 609 614 615 
302 349 457 611 568 613 
349 301 69 610 612 563 
303 309 450 602 607 608 
309 350 564 604 566 606 
350 303 457 603 605 567 
597 317 584 850 807 851 
599 550 581 845 846 847 
371 310 450 598 600 551 
590 315 592 835 841 842 
312 373 449 594 536 595 
593 589 531 836 837 838 
585 590 591 827 828 829 
587 523 589 818 819 820 
586 588 527 811 812 813 
578 583 584 802 803 804 
580 521 582 793 794 795 
579 581 516 784 785 786 
347 348 458 569 576 577 
348 702 69 571 703 575 
702 347 573 570 572 574 
349 350 457 560 567 568 
350 75 564 562 76 566 
75 349 69 561 563 74 
369 370 450 553 552 559 
370 548 557 555 549 547 
548 369 81 554 556 82 
370 371 450 544 551 552 
778 77 550 783 779 780 
690 370 557 545 547 558 
374 372 449 537 543 535 
372 532 67 539 68 542 
532 374 540 538 534 533 
373 374 449 528 535 536 
374 696 540 530 541 534 
531 59 773 772 777 774 
524 527 526 765 766 767 
762 526 376 756 757 758 
744 635 633 875 867 873 
260 744 633 877 873 872 
211 171 515 1166 166 1167 
494 211 515 1168 1167 138 
509 174 511 1152 144 132 
174 217 503 1150 175 1151 
629 583 578 1073 802 810 
465 583 223 805 628 636 
489 307 473 1086 254 218 
258 221 486 1196 1146 1105 
221 121 485 1198 1195 1147 
121 258 455 1197 1104 1194 
121 259 485 1191 864 1195 
259 313 448 1193 1038 865 
313 121 455 1192 1194 1039 
1189 346 1018 1186 1006 1023 
346 123 459 1188 1185 1007 
123 1189 35 1187 1190 1184 
123 298 459 1181 1111 1185 
298 351 456 1183 999 1112 
351 123 35 1182 1184 994 
243 211 494 1178 1168 1119 
211 126 493 1180 1177 1165 
126 243 460 1179 1116 1176 
126 244 493 1173 1115 1177 
244 297 459 1175 1066 1110 
297 126 460 1174 1176 1067 
173 174 509 1171 1152 1172 
507 173 509 1157 1172 143 
510 172 181 1163 1169 1170 
508 510 181 147 1170 1148 
171 172 510 1158 1163 1164 
172 215 486 1160 1136 1162 
215 171 493 1159 1161 1137 
185 173 507 1153 1157 1141 
173 216 490 1155 1131 1156 
216 185 484 1154 1138 1132 
181 182 508 1142 881 1148 
182 221 485 1144 1147 878 
221 181 486 1143 1145 1146 
225 185 507 1139 1141 1140 
483 225 507 887 1140 184 
245 215 493 1133 1137 1114 
215 249 486 1135 1106 1136 
249 245 456 1134 1113 1103 
250 216 484 1128 1132 1099 
216 251 490 1130 1094 1131 
251 250 453 1129 1098 1091 
252 217 490 1123 1127 1093 
217 253 489 1125 1087 1126 
253 252 452 1124 1092 1084 
261 582 447 1120 797 1078 
582 264 318 1122 888 798 
264 261 484 1121 1081 885 
461 296 243 1072 1117 1118 
494 461 243 242 1118 1119 
244 245 493 1107 1114 1115 
245 298 456 1109 1112 1113 
298 244 459 1108 1110 1111 
249 258 486 1100 1105 1106 
258 304 455 1102 1061 1104 
304 249 456 1101 1103 1062 
262 250 484 1095 1099 1080 
250 305 453 1097 1056 1098 
305 262 454 1096 1079 1057 
251 252 490 1088 1093 1094 
252 306 452 1090 1051 1092 
306 251 453 1089 1091 1052 
489 253 307 1087 1085 1086 
260 633 591 872 1082 1083 
466 260 591 632 1083 831 
261 262 484 1075 1080 1081 
262 316 454 1077 1031 1079 
316 261 447 1076 1078 1030 
583 629 263 1073 859 1074 
342 296 461 1068 1072 1022 
296 343 460 1070 1017 1071 
343 342 49 1069 1019 1012 
344 297 460 1063 1067 1016 
297 345 459 1065 1008 1066 
345 344 1004 1064 1015 1003 
352 304 456 1058 1062 998 
304 353 455 1060 990 1061 
353 352 57 1059 997 987 
358 305 454 1053 1057 966 
305 359 453 1055 958 1056 
359 358 963 1054 965 955 
361 306 453 1048 1052 950 
306 362 452 1050 942 1051 
362 361 97 1049 949 939 
451 307 364 1047 1045 1046 
105 451 364 365 1046 933 
371 599 597 849 1042 1043 
310 371 597 598 1043 852 
592 593 373 1040 839 1041 
312 592 373 844 1041 594 
355 313 455 1035 1039 982 
313 375 448 1037 926 1038 
375 355 53 1036 981 923 
586 585 314 1032 833 816 
585 587 315 1034 824 834 
587 586 377 1033 815 825 
316 356 454 1027 974 1031 
356 378 83 1029 913 971 
378 316 447 1028 1030 914 
579 578 317 1024 808 791 
578 580 318 1026 799 809 
580 579 379 1025 790 800 
45 47 342 46 1020 1021 
461 45 342 341 1021 1022 
343 344 460 1009 1016 1017 
344 51 1004 1011 52 1015 
51 343 49 1010 1012 50 
345 346 459 1000 1007 1008 
346 1013 1018 1002 1014 1006 
1013 345 1004 1001 1003 1005 
351 352 456 991 998 999 
352 55 57 993 56 997 
55 351 35 992 994 54 
353 354 455 984 983 990 
354 979 988 986 980 978 
979 353 57 985 987 58 
354 355 455 975 982 983 
355 995 53 977 996 981 
995 354 988 976 978 989 
356 357 454 968 967 974 
357 89 91 970 90 962 
89 356 83 969 971 88 
357 358 454 959 966 967 
358 956 963 961 957 965 
956 357 91 960 962 92 
359 360 453 952 951 958 
360 972 87 954 973 946 
972 359 963 953 955 964 
360 361 453 943 950 951 
361 95 97 945 96 949 
95 360 87 944 946 94 
362 363 452 936 935 942 
363 99 101 938 100 930 
99 362 97 937 939 98 
363 364 452 927 934 935 
364 103 105 929 104 933 
103 363 101 928 930 102 
375 376 448 920 760 926 
376 61 522 922 62 761 
61 375 53 921 923 60 
523 924 59 915 925 821 
924 524 918 917 769 919 
524 523 377 916 826 770 
380 378 447 908 914 894 
378 85 83 910 84 913 
85 380 517 909 893 86 
911 516 77 903 788 912 
516 518 379 905 900 789 
518 911 906 904 907 901 
899 518 906 896 901 902 
518 519 379 898 895 900 
519 899 517 897 520 892 
519 521 379 889 801 895 
521 380 447 891 894 796 
380 519 517 890 892 893 
264 630 318 882 855 888 
630 225 483 884 887 858 
225 264 484 883 885 886 
508 182 744 881 879 880 
115 508 744 222 880 876 
115 744 260 876 877 742 
633 634 314 869 866 871 
634 635 485 868 870 863 
634 588 314 860 817 866 
588 259 448 862 865 814 
259 634 485 861 863 864 
263 629 630 859 856 857 
483 263 630 631 857 858 
597 584 465 851 806 853 
310 597 465 852 853 601 
550 599 371 845 849 782 
599 581 317 847 792 848 
581 550 77 846 779 787 
466 590 592 830 842 843 
312 466 592 596 843 844 
589 593 315 836 840 823 
593 531 373 838 775 839 
531 589 59 837 822 772 
590 585 315 827 834 835 
585 591 314 829 832 833 
591 590 466 828 830 831 
523 587 377 818 825 826 
587 589 315 820 823 824 
589 523 59 819 821 822 
588 586 314 811 816 817 
586 527 377 813 771 815 
527 588 448 812 814 768 
578 584 317 804 807 808 
584 583 465 803 805 806 
521 580 379 793 800 801 
580 582 318 795 798 799 
582 521 447 794 796 797 
581 579 317 784 791 792 
579 516 379 786 789 790 
516 581 77 785 787 788 
690 778 550 691 780 781 
371 690 550 546 781 782 
531 773 696 774 697 776 
373 531 696 775 776 529 
527 524 377 765 770 771 
524 526 918 767 764 769 
526 527 448 766 768 759 
526 762 918 756 763 764 
762 376 522 758 761 525 
376 526 448 757 759 760 
1199 1200
1201 1202
1203 1204
1205 1206
1207 1208
1209 1210
1211 1212
1213 1214
1215 1216
1217 1218
1219 1220
1221 1222
1223 1224
1225 1226
1227 1228
1229 1230
1231 1232
1233 1234
1235 1236
1237 1238
1239 1240
1241 1242
1243 1244
1245 1246
1247 1248
1249 1250
1251 1252
1253 1254
1255 1256
1257 1258
1259 1260
1261 1262
1263 1264
1265 1266
1267 1268
1269 1270
1271 1272
1273 1274
1275 1276
1277 1278
1279 1280
1281 1282
1283 1284
1285 1286
1287 1288
1289 1290
1291 1292
1293 1294
1295 1296
1297 1298
1299 1300
1301 1302
1303 1304
1305 1306
1307 1308
1309 1310
1311 1312
1313 1314
1315 1316
1317 1318
1319 1320
1321 1322
1323 1324
1325 1326
1327 1328
1329 1330
1331 1332
1333 1334
1335 1336
1337 1338
1339 1340
1341 1342
1343 1344
1345 1346
1347 1348
1349 1350
1351 1352
1353 1354
1355 1356
1357 1358
1359 1360
1361 1362
1363 1364
1365 1366
1367 1368
1369 1370
1371 1372
1373 1374
1375 1376
1377 1378
1379 1380
1381 1382
1383 1384
1385 1386
1387 1388
1389 1390
1391 1392
1393 1394
1395 1396
1397 1398
1399 1400
1401 1402
1403 1404
1405 1406
1407 1408
1409 1410
1411 1412
1413 1414
1415 1416
1417 1418
1419 1420
1421 1422
1423 1424
1425 1426
1427 1428
1429 1430
1431 1432
1433 1434
1435 1436
1437 1438
1439 1440
1441 1442
1443 1444
1445 1446
1447 1448
1449 1450
1451 1452
1453 1454
1455 1456
1457 1458
1459 1460
1461 1462
1463 1464
1465 1466
1467 1468
1469 1470
1471 1472
1473 1474
1475 1476
1477 1478
1479 1480
1481 1482
1483 1484
1485 1486
1487 1488
1489 1490
1491 1492
1493 1494
1495 1496
1497 1498
1499 1500
1501 1502
1503 1504
1505 1506
1507 1508
1509 1510
1511 1512
1513 1514
1515 1516
1517 1518
1519 1520
1521 1522
1523 1524
1525 1526
1527 1528
1529 1530
1531 1532
1533 1534
1535 1536
1537 1538
1539 1540
1541 1542
1543 1544
1545 1546
1547 1548
1549 1550
1551 1552
1553 1554
1555 1556
1557 1558
1559 1560
1561 1562
1563 1564
1565 1566
1567 1568
1569 1570
1571 1572
1573 1574
1575 1576
1577 1578
1579 1580
1581 1582
1583 1584
1585 1586
1587 1588
1589 1590
1591 1592
1593 1594
1595 1596
1597 1598
1599 1600
1601 1602
1603 1604
1605 1606
1607 1608
1609 1610
1611 1612
1613 1614
1615 1616
1617 1618
1619 1620
1621 1622
1623 1624
1625 1626
1627 1628
1629 1630
1631 1632
1633 1634
1635 1636
1637 1638
1639 1640
1641 1642
1643 1644
1645 1646
1647 1648
1649 1650
1651 1652
1653 1654
1655 1656
1657 1658
1659 1660
1661 1662
1663 1664
1665 1666
1667 1668
1669 1670
1671 1672
1673 1674
1675 1676
1677 1678
1679 1680
1681 1682
1683 1684
1685 1686
1687 1688
1689 1690
1691 1692
1693 1694
1695 1696
1697 1698
1699 1700
1701 1702
1703 1704
1705 1706
1707 1708
1709 1710
1711 1712
1713 1714
1715 1716
1717 1718
1719 1720
1721 1722
1723 1724
1725 1726
1727 1728
1729 1730
1731 1732
1733 1734
1735 1736
1737 1738
1739 1740
1741 1742
1743 1744
1745 1746
1747 1748
1749 1750
1751 1752
1753 1754
1755 1756
1757 1758
1759 1760
1761 1762
1763 1764
1765 1766
1767 1768
1769 1770
1771 1772
1773 1774
1775 1776
1777 1778
1779 1780
1781 1782
1783 1784
1785 1786
1787 1788
1789 1790
1791 1792
1793 1794
1795 1796
1797 1798
1799 1800
1801 1802
1803 1804
1805 1806
1807 1808
1809 1810
1811 1812
1813 1814
1815 1816
1817 1818
1819 1820
1821 1822
1823 1824
1825 1826
1827 1828
1829 1830
1831 1832
1833 1834
1835 1836
1837 1838
1839 1840
1841 1842
1843 1844
1845 1846
1847 1848
1849 1850
1851 1852
1853 1854
1855 1856
1857 1858
1859 1860
1861 1862
1863 1864
1865 1866
1867 1868
1869 1870
1871 1872
1873 1874
1875 1876
1877 1878
1879 1880
1881 1882
1883 1884
1885 1886
1887 1888
1889 1890
1891 1892
1893 1894
1895 1896
1897 1898
1899 1900
1901 1902
1903 1904
1905 1906
1907 1908
1909 1910
1911 1912
1913 1914
1915 1916
1917 1918
1919 1920
1921 1922
1923 1924
1925 1926
1927 1928
1929 1930
1931 1932
1933 1934
1935 1936
1937 1938
1939 1940
1941 1942
1943 1944
1945 1946
1947 1948
1949 1950
1951 1952
1953 1954
1955 1956
1957 1958
1959 1960
1961 1962
1963 1964
1965 1966
1967 1968
1969 1970
1971 1972
1973 1974
1975 1976
1977 1978
1979 1980
1981 1982
1983 1984
1985 1986
1987 1988
1989 1990
1991 1992
1993 1994
1995 1996
1997 1998
1999 2000
2001 2002
2003 2004
2005 2006
2007 2008
2009 2010
2011 2012
2013 2014
2015 2016
2017 2018
2019 2020
2021 2022
2023 2024
2025 2026
2027 2028
2029 2030
2031 2032
2033 2034
2035 2036
2037 2038
2039 2040
2041 2042
2043 2044
2045 2046
2047 2048
2049 2050
2051 2052
2053 2054
2055 2056
2057 2058
2059 2060
2061 2062
2063 2064
2065 2066
2067 2068
2069 2070
2071 2072
2073 2074
2075 2076
2077 2078
2079 2080
2081 2082
2083 2084
2085 2086
2087 2088
2089 2090
2091 2092
2093 2094
2095 2096
2097 2098
2099 2100
2101 2102
2103 2104
2105 2106
2107 2108
2109 2110
2111 2112
2113 2114
2115 2116
2117 2118
2119 2120
2121 2122
2123 2124
2125 2126
2127 2128
2129 2130
2131 2132
2133 2134
2135 2136
2137 2138
2139 2140
2141 2142
2143 2144
2145 2146
2147 2148
2149 2150
2151 2152
2153 2154
2155 2156
2157 2158
2159 2160
2161 2162
2163 2164
2165 2166
2167 2168
2169 2170
2171 2172
2173 2174
2175 2176
2177 2178
2179 2180
2181 2182
2183 2184
2185 2186
2187 2188
2189 2190
2191 2192
2193 2194
2195 2196
2197 2198
2199 2200
2201 2202
2203 2204
2205 2206
2207 2208
2209 2210
2211 2212
2213 2214
2215 2216
2217 2218
2219 2220
2221 2222
2223 2224
2225 2226
2227 2228
2229 2230
2231 2232
2233 2234
2235 2236
2237 2238
2239 2240
2241 2242
2243 2244
2245 2246
2247 2248
2249 2250
2251 2252
2253 2254
2255 2256
2257 2258
2259 2260
2261 2262
2263 2264
2265 2266
2267 2268
2269 2270
2271 2272
2273 2274
2275 2276
2277 2278
2279 2280
2281 2282
2283 2284
2285 2286
2287 2288
2289 2290
2291 2292
2293 2294
2295 2296
2297 2298
2299 2300
2301 2302
2303 2304
2305 2306
2307 2308
2309 2310
2311 2312
2313 2314
2315 2316
2317 2318
2319 2320
2321 2322
2323 2324
2325 2326
2327 2328
2329 2330
2331 2332
2333 2334
2335 2336
2337 2338
2339 2340
2341 2342
2343 2344
2345 2346
2347 2348
2349 2350
2351 2352
2353 2354
2355 2356
2357 2358
2359 2360
2361 2362
2363 2364
2365 2366
2367 2368
2369 2370
2371 2372
2373 2374
2375 2376
2377 2378
2379 2380
2381 2382
2383 2384
2385 2386
2387 2388
2389 2390
2391 2392
2393 2394
2395 2396
2397 2398
2399 2400
2401 2402
2403 2404
2405 2406
2407 2408
2409 2410
2411 2412
2413 2414
2415 2416
2417 2418
2419 2420
2421 2422
2423 2424
2425 2426
2427 2428
2429 2430
2431 2432
2433 2434
2435 2436
2437 2438
2439 2440
2441 2442
2443 2444
2445 2446
2447 2448
2449 2450
2451 2452
2453 2454
2455 2456
2457 2458
2459 2460
2461 2462
2463 2464
2465 2466
2467 2468
2469 2470
2471 2472
2473 2474
2475 2476
2477 2478
2479 2480
2481 2482
2483 2484
2485 2486
2487 2488
2489 2490
2491 2492
2493 2494
2495 2496
2497 2498
2499 2500
2501 2502
2503 2504
2505 2506
2507 2508
2509 2510
2511 2512
2513 2514
2515 2516
2517 2518
2519 2520
2521 2522
2523 2524
2525 2526
2527 2528
2529 2530
2531 2532
2533 2534
2535 2536
2537 2538
2539 2540
2541 2542
2543 2544
2545 2546
2547 2548
2549 2550
2551 2552
2553 2554
2555 2556
2557 2558
2559 2560
2561 2562
2563 2564
2565 2566
2567 2568
2569 2570
2571 2572
2573 2574
2575 2576
2577 2578
2579 2580
2581 2582
2583 2584
2585 2586
2587 2588
2589 2590
2591 2592
2593 2594
2595 2596
2597 2598
2599 2600
2601 2602
2603 2604
2605 2606
2607 2608
2609 2610
2611 2612
2613 2614
2615 2616
2617 2618
2619 2620
2621 2622
2623 2624
2625 2626
2627 2628
2629 2630
2631 2632
2633 2634
2635 2636
2637 2638
2639 2640
2641 2642
2643 2644
2645 2646
2647 2648
2649 2650
2651 2652
2653 2654
2655 2656
2657 2658
2659 2660
2661 2662
2663 2664
2665 2666
2667 2668
2669 2670
2671 2672
2673 2674
2675 2676
2677 2678
2679 2680
2681 2682
2683 2684
2685 2686
2687 2688
2689 2690
2691 2692
2693 2694
2695 2696
2697 2698
2699 2700
2701 2702
2703 2704
2705 2706
2707 2708
2709 2710
2711 2712
2713 2714
2715 2716
2717 2718
2719 2720
2721 2722
2723 2724
2725 2726
2727 2728
2729 2730
2731 2732
2733 2734
2735 2736
2737 2738
2739 2740
2741 2742
2743 2744
2745 2746
2747 2748
2749 2750
2751 2752
2753 2754
2755 2756
2757 2758
2759 2760
2761 2762
2763 2764
2765 2766
2767 2768
2769 2770
2771 2772
2773 2774
2775 2776
2777 2778
2779 2780
2781 2782
2783 2784
2785 2786
2787 2788
2789 2790
2791 2792
2793 2794
2795 2796
2797 2798
2799 2800
2801 2802
2803 2804
2805 2806
2807 2808
2809 2810
2811 2812
2813 2814
2815 2816
2817 2818
2819 2820
2821 2822
2823 2824
2825 2826
2827 2828
2829 2830
2831 2832
2833 2834
2835 2836
2837 2838
2839 2840
2841 2842
2843 2844
2845 2846
2847 2848
2849 2850
2851 2852
2853 2854
2855 2856
2857 2858
2859 2860
2861 2862
2863 2864
2865 2866
2867 2868
2869 2870
2871 2872
2873 2874
2875 2876
2877 2878
2879 2880
2881 2882
2883 2884
2885 2886
2887 2888
2889 2890
2891 2892
2893 2894
2895 2896
2897 2898
2899 2900
2901 2902
2903 2904
2905 2906
2907 2908
2909 2910
2911 2912
2913 2914
2915 2916
2917 2918
2919 2920
2921 2922
2923 2924
2925 2926
2927 2928
2929 2930
2931 2932
2933 2934
2935 2936
2937 2938
2939 2940
2941 2942
2943 2944
2945 2946
2947 2948
2949 2950
2951 2952
2953 2954
2955 2956
2957 2958
2959 2960
2961 2962
2963 2964
2965 2966
2967 2968
2969 2970
2971 2972
2973 2974
2975 2976
2977 2978
2979 2980
2981 2982
2983 2984
2985 2986
2987 2988
2989 2990
2991 2992
2993 2994
2995 2996
2997 2998
2999 3000
3001 3002
3003 3004
3005 3006
3007 3008
3009 3010
3011 3012
3013 3014
3015 3016
3017 3018
3019 3020
3021 3022
3023 3024
3025 3026
3027 3028
3029 3030
3031 3032
3033 3034
3035 3036
3037 3038
3039 3040
3041 3042
3043 3044
3045 3046
3047 3048
3049 3050
3051 3052
3053 3054
3055 3056
3057 3058
3059 3060
3061 3062
3063 3064
3065 3066
3067 3068
3069 3070
3071 3072
3073 3074
3075 3076
3077 3078
3079 3080
3081 3082
3083 3084
3085 3086
3087 3088
3089 3090
3091 3092
3093 3094
3095 3096
3097 3098
3099 3100
3101 3102
3103 3104
3105 3106
3107 3108
3109 3110
3111 3112
3113 3114
3115 3116
3117 3118
3119 3120
3121 3122
3123 3124
3125 3126
3127 3128
3129 3130
3131 3132
3133 3134
3135 3136
3137 3138
3139 3140
3141 3142
3143 3144
3145 3146
3147 3148
3149 3150
3151 3152
3153 3154
3155 3156
3157 3158
3159 3160
3161 3162
3163 3164
3165 3166
3167 3168
3169 3170
3171 3172
3173 3174
3175 3176
3177 3178
3179 3180
3181 3182
3183 3184
3185 3186
3187 3188
3189 3190
3191 3192
3193 3194
3195 3196
3197 3198
3199 3200
3201 3202
3203 3204
3205 3206
3207 3208
3209 3210
3211 3212
3213 3214
3215 3216
3217 3218
3219 3220
3221 3222
3223 3224
3225 3226
3227 3228
3229 3230
3231 3232
3233 3234
3235 3236
3237 3238
3239 3240
3241 3242
3243 3244
3245 3246
3247 3248
3249 3250
3251 3252
3253 3254
3255 3256
3257 3258
3259 3260
3261 3262
3263 3264
3265 3266
3267 3268
3269 3270
3271 3272
3273 3274
3275 3276
3277 3278
3279 3280
3281 3282
3283 3284
3285 3286
3287 3288
3289 3290
3291 3292
3293 3294
3295 3296
3297 3298
3299 3300
3301 3302
3303 3304
3305 3306
3307 3308
3309 3310
3311 3312
3313 3314
3315 3316
3317 3318
3319 3320
3321 3322
3323 3324
3325 3326
3327 3328
3329 3330
3331 3332
3333 3334
3335 3336
3337 3338
3339 3340
3341 3342
3343 3344
3345 3346
3347 3348
3349 3350
3351 3352
3353 3354
3355 3356
3357 3358
3359 3360
3361 3362
3363 3364
3365 3366
3367 3368
3369 3370
3371 3372
3373 3374
3375 3376
3377 3378
3379 3380
3381 3382
3383 3384
3385 3386
3387 3388
3389 3390
3391 3392
3393 3394
3395 3396
3397 3398
3399 3400
3401 3402
3403 3404
3405 3406
3407 3408
3409 3410
3411 3412
3413 3414
3415 3416
3417 3418
3419 3420
3421 3422
3423 3424
3425 3426
3427 3428
3429 3430
3431 3432
3433 3434
3435 3436
3437 3438
3439 3440
3441 3442
3443 3444
3445 3446
3447 3448
3449 3450
3451 3452
3453 3454
3455 3456
3457 3458
3459 3460
3461 3462
3463 3464
3465 3466
3467 3468
3469 3470
3471 3472
3473 3474
3475 3476
3477 3478
3479 3480
3481 3482
3483 3484
3485 3486
      </DataArray>
      <DataArray type="Int32" Name="offsets" format="ascii">
6
12
18
24
30
36
42
48
54
60
66
72
78
84
90
96
102
108
114
120
126
132
138
144
150
156
162
168
174
180
186
192
198
204
210
216
222
228
234
240
246
252
258
264
270
276
282
288
294
300
306
312
318
324
330
336
342
348
354
360
366
372
378
384
390
396
402
408
414
420
426
432
438
444
450
456
462
468
474
480
486
492
498
504
510
516
522
528
534
540
546
552
558
564
570
576
582
588
594
600
606
612
618
624
630
636
642
648
654
660
666
672
678
684
690
696
702
708
714
720
726
732
738
744
750
756
762
768
774
780
786
792
798
804
810
816
822
828
834
840
846
852
858
864
870
876
882
888
894
900
906
912
918
924
930
936
942
948
954
960
966
972
978
984
990
996
1002
1008
1014
1020
1026
1032
1038
1044
1050
1056
1062
1068
1074
1080
1086
1092
1098
1104
1110
1116
1122
1128
1134
1140
1146
1152
1158
1164
1170
1176
1182
1188
1194
1200
1206
1212
1218
1224
1230
1236
1242
1248
1254
1260
1266
1272
1278
1284
1290
1296
1302
1308
1314
1320
1326
1332
1338
1344
1350
1356
1362
1368
1374
1380
1386
1392
1398
1404
1410
1416
1422
1428
1434
1440
1446
1452
1458
1464
1470
1476
1482
1488
1494
1500
1506
1512
1518
1524
1530
1536
1542
1548
1554
1560
1566
1572
1578
1584
1590
1596
1602
1608
1614
1620
1626
1632
1638
1644
1650
1656
1662
1668
1674
1680
1686
1692
1698
1704
1710
1716
1722
1728
1734
1740
1746
1752
1758
1764
1770
1776
1782
1788
1794
1800
1806
1812
1818
1824
1830
1836
1842
1848
1854
1860
1866
1872
1878
1884
1890
1896
1902
1908
1914
1920
1926
1932
1938
1944
1950
1956
1962
1968
1974
1980
1986
1992
1998
2004
2010
2016
2022
2028
2034
2040
2046
2052
2058
2064
2070
2076
2082
2088
2094
2100
2106
2112
2118
2124
2130
2136
2142
2148
2154
2160
2166
2172
2178
2184
2190
2196
2202
2208
2214
2220
2226
2232
2238
2244
2250
2256
2262
2268
2274
2280
2286
2292
2298
2304
2310
2316
2322
2328
2334
2340
2346
2352
2358
2364
2370
2376
2382
2388
2394
2400
2406
2412
2418
2424
2430
2436
2442
2448
2454
2460
2466
2472
2478
2484
2490
2496
2502
2508
2514
2520
2526
2532
2538
2544
2550
2556
2562
2568
2574
2580
2586
2592
2598
2604
2610
2616
2622
2628
2634
2640
2646
2652
2658
2664
2670
2676
2682
2688
2694
2700
2706
2712
2718
2724
2730
2736
2742
2748
2754
2760
2766
2772
2778
2784
2790
2796
2802
2808
2814
2820
2826
2832
2838
2844
2850
2856
2862
2868
2874
2880
2886
2892
2898
2904
2910
2916
2922
2928
2934
2940
2946
2952
2958
2964
2970
2976
2982
2988
2994
3000
3006
3012
3018
3024
3030
3036
3042
3048
3054
3060
3066
3072
3078
3084
3090
3096
3102
3108
3114
3120
3126
3132
3138
3144
3150
3156
3162
3168
3174
3180
3186
3192
3198
3204
3210
3216
3222
3228
3234
3240
3246
3252
3258
3264
3270
3276
3282
3288
3294
3300
3306
3312
3318
3324
3326
3328
3330
3332
3334
3336
3338
3340
3342
3344
3346
3348
3350
3352
3354
3356
3358
3360
3362
3364
3366
3368
3370
3372
3374
3376
3378
3380
3382
3384
3386
3388
3390
3392
3394
3396
3398
3400
3402
3404
3406
3408
3410
3412
3414
3416
3418
3420
3422
3424
3426
3428
3430
3432
3434
3436
3438
3440
3442
3444
3446
3448
3450
3452
3454
3456
3458
3460
3462
3464
3466
3468
3470
3472
3474
3476
3478
3480
3482
3484
3486
3488
3490
3492
3494
3496
3498
3500
3502
3504
3506
3508
3510
3512
3514
3516
3518
3520
3522
3524
3526
3528
3530
3532
3534
3536
3538
3540
3542
3544
3546
3548
3550
3552
3554
3556
3558
3560
3562
3564
3566
3568
3570
3572
3574
3576
3578
3580
3582
3584
3586
3588
3590
3592
3594
3596
3598
3600
3602
3604
3606
3608
3610
3612
3614
3616
3618
3620
3622
3624
3626
3628
3630
3632
3634
3636
3638
3640
3642
3644
3646
3648
3650
3652
3654
3656
3658
3660
3662
3664
3666
3668
3670
3672
3674
3676
3678
3680
3682
3684
3686
3688
3690
3692
3694
3696
3698
3700
3702
3704
3706
3708
3710
3712
3714
3716
3718
3720
3722
3724
3726
3728
3730
3732
3734
3736
3738
3740
3742
3744
3746
3748
3750
3752
3754
3756
3758
3760
3762
3764
3766
3768
3770
3772
3774
3776
3778
3780
3782
3784
3786
3788
3790
3792
3794
3796
3798
3800
3802
3804
3806
3808
3810
3812
3814
3816
3818
3820
3822
3824
3826
3828
3830
3832
3834
3836
3838
3840
3842
3844
3846
3848
3850
3852
3854
3856
3858
3860
3862
3864
3866
3868
3870
3872
3874
3876
3878
3880
3882
3884
3886
3888
3890
3892
3894
3896
3898
3900
3902
3904
3906
3908
3910
3912
3914
3916
3918
3920
3922
3924
3926
3928
3930
3932
3934
3936
3938
3940
3942
3944
3946
3948
3950
3952
3954
3956
3958
3960
3962
3964
3966
3968
3970
3972
3974
3976
3978
3980
3982
3984
3986
3988
3990
3992
3994
3996
3998
4000
4002
4004
4006
4008
4010
4012
4014
4016
4018
4020
4022
4024
4026
4028
4030
4032
4034
4036
4038
4040
4042
4044
4046
4048
4050
4052
4054
4056
4058
4060
4062
4064
4066
4068
4070
4072
4074
4076
4078
4080
4082
4084
4086
4088
4090
4092
4094
4096
4098
4100
4102
4104
4106
4108
4110
4112
4114
4116
4118
4120
4122
4124
4126
4128
4130
4132
4134
4136
4138
4140
4142
4144
4146
4148
4150
4152
4154
4156
4158
4160
4162
4164
4166
4168
4170
4172
4174
4176
4178
4180
4182
4184
4186
4188
4190
4192
4194
4196
4198
4200
4202
4204
4206
4208
4210
4212
4214
4216
4218
4220
4222
4224
4226
4228
4230
4232
4234
4236
4238
4240
4242
4244
4246
4248
4250
4252
4254
4256
4258
4260
4262
4264
4266
4268
4270
4272
4274
4276
4278
4280
4282
4284
4286
4288
4290
4292
4294
4296
4298
4300
4302
4304
4306
4308
4310
4312
4314
4316
4318
4320
4322
4324
4326
4328
4330
4332
4334
4336
4338
4340
4342
4344
4346
4348
4350
4352
4354
4356
4358
4360
4362
4364
4366
4368
4370
4372
4374
4376
4378
4380
4382
4384
4386
4388
4390
4392
4394
4396
4398
4400
4402
4404
4406
4408
4410
4412
4414
4416
4418
4420
4422
4424
4426
4428
4430
4432
4434
4436
4438
4440
4442
4444
4446
4448
4450
4452
4454
4456
4458
4460
4462
4464
4466
4468
4470
4472
4474
4476
4478
4480
4482
4484
4486
4488
4490
4492
4494
4496
4498
4500
4502
4504
4506
4508
4510
4512
4514
4516
4518
4520
4522
4524
4526
4528
4530
4532
4534
4536
4538
4540
4542
4544
4546
4548
4550
4552
4554
4556
4558
4560
4562
4564
4566
4568
4570
4572
4574
4576
4578
4580
4582
4584
4586
4588
4590
4592
4594
4596
4598
4600
4602
4604
4606
4608
4610
4612
4614
4616
4618
4620
4622
4624
4626
4628
4630
4632
4634
4636
4638
4640
4642
4644
4646
4648
4650
4652
4654
4656
4658
4660
4662
4664
4666
4668
4670
4672
4674
4676
4678
4680
4682
4684
4686
4688
4690
4692
4694
4696
4698
4700
4702
4704
4706
4708
4710
4712
4714
4716
4718
4720
4722
4724
4726
4728
4730
4732
4734
4736
4738
4740
4742
4744
4746
4748
4750
4752
4754
4756
4758
4760
4762
4764
4766
4768
4770
4772
4774
4776
4778
4780
4782
4784
4786
4788
4790
4792
4794
4796
4798
4800
4802
4804
4806
4808
4810
4812
4814
4816
4818
4820
4822
4824
4826
4828
4830
4832
4834
4836
4838
4840
4842
4844
4846
4848
4850
4852
4854
4856
4858
4860
4862
4864
4866
4868
4870
4872
4874
4876
4878
4880
4882
4884
4886
4888
4890
4892
4894
4896
4898
4900
4902
4904
4906
4908
4910
4912
4914
4916
4918
4920
4922
4924
4926
4928
4930
4932
4934
4936
4938
4940
4942
4944
4946
4948
4950
4952
4954
4956
4958
4960
4962
4964
4966
4968
4970
4972
4974
4976
4978
4980
4982
4984
4986
4988
4990
4992
4994
4996
4998
5000
5002
5004
5006
5008
5010
5012
5014
5016
5018
5020
5022
5024
5026
5028
5030
5032
5034
5036
5038
5040
5042
5044
5046
5048
5050
5052
5054
5056
5058
5060
5062
5064
5066
5068
5070
5072
5074
5076
5078
5080
5082
5084
5086
5088
5090
5092
5094
5096
5098
5100
5102
5104
5106
5108
5110
5112
5114
5116
5118
5120
5122
5124
5126
5128
5130
5132
5134
5136
5138
5140
5142
5144
5146
5148
5150
5152
5154
5156
5158
5160
5162
5164
5166
5168
5170
5172
5174
5176
5178
5180
5182
5184
5186
5188
5190
5192
5194
5196
5198
5200
5202
5204
5206
5208
5210
5212
5214
5216
5218
5220
5222
5224
5226
5228
5230
5232
5234
5236
5238
5240
5242
5244
5246
5248
5250
5252
5254
5256
5258
5260
5262
5264
5266
5268
5270
5272
5274
5276
5278
5280
5282
5284
5286
5288
5290
5292
5294
5296
5298
5300
5302
5304
5306
5308
5310
5312
5314
5316
5318
5320
5322
5324
5326
5328
5330
5332
5334
5336
5338
5340
5342
5344
5346
5348
5350
5352
5354
5356
5358
5360
5362
5364
5366
5368
5370
5372
5374
5376
5378
5380
5382
5384
5386
5388
5390
5392
5394
5396
5398
5400
5402
5404
5406
5408
5410
5412
5414
5416
5418
5420
5422
5424
5426
5428
5430
5432
5434
5436
5438
5440
5442
5444
5446
5448
5450
5452
5454
5456
5458
5460
5462
5464
5466
5468
5470
5472
5474
5476
5478
5480
5482
5484
5486
5488
5490
5492
5494
5496
5498
5500
5502
5504
5506
5508
5510
5512
5514
5516
5518
5520
5522
5524
5526
5528
5530
5532
5534
5536
5538
5540
5542
5544
5546
5548
5550
5552
5554
5556
5558
5560
5562
5564
5566
5568
5570
5572
5574
5576
5578
5580
5582
5584
5586
5588
5590
5592
5594
5596
5598
5600
5602
5604
5606
5608
5610
5612
      </DataArray>
      <DataArray type="UInt8" Name="types" format="ascii">
69
69
69
69
69
69
69
69
69
69
69
69
69
69
69
69
69
69
69
69
69
69
69
69
69
69
69
69
69
69
69
69
69
69
69
69
69
69
69
69
69
69
69
69
69
69
69
69
69
69
69
69
69
69
69
69
69
69
69
69
69
69
69
69
69
69
69
69
69
69
69
69
69
69
69
69
69
69
69
69
69
69
69
69
69
69
69
69
69
69
69
69
69
69
69
69
69
69
69
69
69
69
69
69
69
69
69
69
69
69
69
69
69
69
69
69
69
69
69
69
69
69
69
69
69
69
69
69
69
69
69
69
69
69
69
69
69
69
69
69
69
69
69
69
69
69
69
69
69
69
69
69
69
69
69
69
69
69
69
69
69
69
69
69
69
69
69
69
69
69
69
69
69
69
69
69
69
69
69
69
69
69
69
69
69
69
69
69
69
69
69
69
69
69
69
69
69
69
69
69
69
69
69
69
69
69
69
69
69
69
69
69
69
69
69
69
69
69
69
69
69
69
69
69
69
69
69
69
69
69
69
69
69
69
69
69
69
69
69
69
69
69
69
69
69
69
69
69
69
69
69
69
69
69
69
69
69
69
69
69
69
69
69
69
69
69
69
69
69
69
69
69
69
69
69
69
69
69
69
69
69
69
69
69
69
69
69
69
69
69
69
69
69
69
69
69
69
69
69
69
69
69
69
69
69
69
69
69
69
69
69
69
69
69
69
69
69
69
69
69
69
69
69
69
69
69
69
69
69
69
69
69
69
69
69
69
69
69
69
69
69
69
69
69
69
69
69
69
69
69
69
69
69
69
69
69
69
69
69
69
69
69
69
69
69
69
69
69
69
69
69
69
69
69
69
69
69
69
69
69
69
69
69
69
69
69
69
69
69
69
69
69
69
69
69
69
69
69
69
69
69
69
69
69
69
69
69
69
69
69
69
69
69
69
69
69
69
69
69
69
69
69
69
69
69
69
69
69
69
69
69
69
69
69
69
69
69
69
69
69
69
69
69
69
69
69
69
69
69
69
69
69
69
69
69
69
69
69
69
69
69
69
69
69
69
69
69
69
69
69
69
69
69
69
69
69
69
69
69
69
69
69
69
69
69
69
69
69
69
69
69
69
69
69
69
69
69
69
69
69
69
69
69
69
69
69
69
69
69
69
69
69
69
69
69
69
69
69
69
69
69
69
69
69
69
69
69
69
69
69
69
69
69
69
69
69
69
69
69
69
69
69
69
69
69
69
69
69
69
69
69
69
69
69
3
3
3
3
3
3
3
3
3
3
3
3
3
3
3
3
3
3
3
3
3
3
3
3
3
3
3
3
3
3
3
3
3
3
3
3
3
3
3
3
3
3
3
3
3
3
3
3
3
3
3
3
3
3
3
3
3
3
3
3
3
3
3
3
3
3
3
3
3
3
3
3
3
3
3
3
3
3
3
3
3
3
3
3
3
3
3
3
3
3
3
3
3
3
3
3
3
3
3
3
3
3
3
3
3
3
3
3
3
3
3
3
3
3
3
3
3
3
3
3
3
3
3
3
3
3
3
3
3
3
3
3
3
3
3
3
3
3
3
3
3
3
3
3
3
3
3
3
3
3
3
3
3
3
3
3
3
3
3
3
3
3
3
3
3
3
3
3
3
3
3
3
3
3
3
3
3
3
3
3
3
3
3
3
3
3
3
3
3
3
3
3
3
3
3
3
3
3
3
3
3
3
3
3
3
3
3
3
3
3
3
3
3
3
3
3
3
3
3
3
3
3
3
3
3
3
3
3
3
3
3
3
3
3
3
3
3
3
3
3
3
3
3
3
3
3
3
3
3
3
3
3
3
3
3
3
3
3
3
3
3
3
3
3
3
3
3
3
3
3
3
3
3
3
3
3
3
3
3
3
3
3
3
3
3
3
3
3
3
3
3
3
3
3
3
3
3
3
3
3
3
3
3
3
3
3
3
3
3
3
3
3
3
3
3
3
3
3
3
3
3
3
3
3
3
3
3
3
3
3
3
3
3
3
3
3
3
3
3
3
3
3
3
3
3
3
3
3
3
3
3
3
3
3
3
3
3
3
3
3
3
3
3
3
3
3
3
3
3
3
3
3
3
3
3
3
3
3
3
3
3
3
3
3
3
3
3
3
3
3
3
3
3
3
3
3
3
3
3
3
3
3
3
3
3
3
3
3
3
3
3
3
3
3
3
3
3
3
3
3
3
3
3
3
3
3
3
3
3
3
3
3
3
3
3
3
3
3
3
3
3
3
3
3
3
3
3
3
3
3
3
3
3
3
3
3
3
3
3
3
3
3
3
3
3
3
3
3
3
3
3
3
3
3
3
3
3
3
3
3
3
3
3
3
3
3
3
3
3
3
3
3
3
3
3
3
3
3
3
3
3
3
3
3
3
3
3
3
3
3
3
3
3
3
3
3
3
3
3
3
3
3
3
3
3
3
3
3
3
3
3
3
3
3
3
3
3
3
3
3
3
3
3
3
3
3
3
3
3
3
3
3
3
3
3
3
3
3
3
3
3
3
3
3
3
3
3
3
3
3
3
3
3
3
3
3
3
3
3
3
3
3
3
3
3
3
3
3
3
3
3
3
3
3
3
3
3
3
3
3
3
3
3
3
3
3
3
3
3
3
3
3
3
3
3
3
3
3
3
3
3
3
3
3
3
3
3
3
3
3
3
3
3
3
3
3
3
3
3
3
3
3
3
3
3
3
3
3
3
3
3
3
3
3
3
3
3
3
3
3
3
3
3
3
3
3
3
3
3
3
3
3
3
3
3
3
3
3
3
3
3
3
3
3
3
3
3
3
3
3
3
3
3
3
3
3
3
3
3
3
3
3
3
3
3
3
3
3
3
3
3
3
3
3
3
3
3
3
3
3
3
3
3
3
3
3
3
3
3
3
3
3
3
3
3
3
3
3
3
3
3
3
3
3
3
3
3
3
3
3
3
3
3
3
3
3
3
3
3
3
3
3
3
3
3
3
3
3
3
3
3
3
3
3
3
3
3
3
3
3
3
3
3
3
3
3
3
3
3
3
3
3
3
3
3
3
3
3
3
3
3
3
3
3
3
3
3
3
3
3
3
3
3
3
3
3
3
3
3
3
3
3
3
3
3
3
3
3
3
3
3
3
3
3
3
3
3
3
3
3
3
3
3
3
3
3
3
3
3
3
3
3
3
3
3
3
3
3
3
3
3
3
3
3
3
3
3
3
3
3
3
3
3
3
3
3
3
3
3
3
3
3
3
3
3
3
3
3
3
3
3
3
3
3
3
3
3
3
3
3
3
3
3
3
3
3
3
3
3
3
3
3
3
3
3
3
3
3
3
3
3
3
3
3
3
3
3
3
3
3
3
3
3
3
3
3
3
3
3
3
3
3
3
3
3
3
3
3
3
3
3
3
3
3
3
3
3
3
3
3
3
3
3
3
3
3
3
3
3
3
3
3
3
3
3
3
3
3
3
3
3
3
3
3
3
3
3
3
3
3
3
3
3
3
3
3
3
3
3
3
3
3
3
3
3
3
3
3
3
3
3
3
3
3
3
3
3
3
3
3
3
3
3
3
3
3
3
3
3
3
3
3
3
3
3
3
3
3
3
3
3
3
3
3
3
3
3
3
3
3
3
3
3
3
3
3
3
3
3
3
3
3
3
3
3
3
3
3
3
3
3
3
3
3
3
3
3
3
3
3
3
3
3
3
3
3
3
3
3
3
3
3
3
3
3
3
3
3
3
3
3
3
3
3
3
3
3
3
3
3
3
3
3
3
3
3
3
3
3
3
3
3
3
3
3
3
3
3
3
3
3
3
3
3
3
3
3
3
3
3
3
3
3
3
      </DataArray>
    </Cells>
    <PointData>
      <DataArray type="Float64" NumberOfComponents="2" Name="Displacement" format="ascii">
-0.00100924 -0.318833
0.00149485 -0.319622
-0.000255122 -0.318453
0.000273483 -0.318043
0.000553475 -0.31776
0.000747815 -0.317522
0.000866536 -0.317346
0.000942218 -0.317224
0.000971367 -0.31712
0.000971557 -0.317047
0.000943141 -0.317003
0.000894394 -0.316983
0.000824896 -0.316966
0.00074161 -0.316964
0.000645829 -0.316977
0.000542843 -0.317002
0.000433454 -0.317024
0.000322723 -0.317056
0.000213287 -0.317098
0.000108771 -0.317151
1.31129e-05 -0.317204
-7.14679e-05 -0.317272
-0.000140658 -0.317357
-0.000191306 -0.317462
-0.000214794 -0.317575
-0.000212006 -0.317722
-0.000173625 -0.317906
-9.58989e-05 -0.318135
7.03944e-05 -0.318383
0.000308608 -0.318717
0.000756288 -0.319178
-0.00556097 -0.318216
-0.00450564 -0.318258
-0.00345671 -0.318337
-0.00236875 -0.318517
-0.0910294 -0.403301
-0.00658396 -0.318221
-0.00760971 -0.318247
-0.00910621 -0.318315
-0.0106172 -0.318419
-0.0128106 -0.318631
-0.0150327 -0.318914
-0.0182945 -0.319449
-0.0215995 -0.320131
-0.0264332 -0.321384
-0.0313011 -0.322945
-0.0348127 -0.32426
-0.0383084 -0.325735
-0.0417694 -0.327378
-0.0451813 -0.329171
-0.0499991 -0.332024
-0.0546577 -0.335165
-0.0591091 -0.33858
-0.0473273 -0.447168
-0.0902514 -0.411385
-0.0885594 -0.4186
-0.0861757 -0.424868
-0.0832408 -0.430203
-0.0799557 -0.434674
0.0598815 -0.279369
-0.0394006 -0.446073
-0.0300064 -0.44318
-0.0190429 -0.438196
0 0
-0.0222776 -0.0201894
-0.0314595 -0.0334685
-0.032668 -0.0441806
-0.0271081 -0.0573016
-0.0195105 -0.0700525
-0.000268628 -0.30364
0 0
0 0
0 0
0 0
0.0176558 -0.294177
0.0355456 -0.259618
0.0466555 -0.187137
-0.0592585 -0.280054
0.0223657 -0.0201592
0.0315974 -0.0335862
0.0328288 -0.044364
0.0272863 -0.0575425
0.0196889 -0.0703007
0.0474621 -0.447519
0.039534 -0.446416
0.030194 -0.443512
0.0191978 -0.438592
0.0909787 -0.403856
0.0537684 -0.447673
0.0592264 -0.446975
0.0640977 -0.445781
0.0684684 -0.443968
0.0725537 -0.441701
0.00588846 -0.319026
0.090694 -0.395367
0.0892134 -0.386326
0.0864035 -0.376927
0.0822115 -0.367428
0.0784706 -0.360952
0.0740711 -0.354645
0.0690185 -0.348624
0.0633838 -0.342959
0.0591637 -0.339314
0.0547253 -0.335912
0.0500803 -0.33278
0.0452764 -0.329935
0.0384331 -0.326525
0.0314508 -0.323718
0.0266019 -0.322175
0.0217997 -0.320938
0.0185084 -0.320257
0.00486459 -0.31908
0.00384512 -0.319169
0.00276524 -0.31935
-0.00615796 -0.309196
0.0271823 -0.307873
0.021316 -0.296942
0.0360565 -0.240778
-0.0363912 -0.255062
-0.00561451 -0.333389
-0.0110259 -0.304486
-0.0256209 -0.377523
-0.00442469 -0.323368
-0.0750128 -0.389473
-0.0236279 -0.0429875
0.0232208 -0.0438101
-0.0394821 -0.360691
-0.01433 -0.328577
-0.00435479 -0.341582
-0.00605799 -0.340977
0.00244 -0.340032
-0.00801476 -0.340467
0.0065254 -0.34217
0.00345995 -0.331288
-0.00155042 -0.336074
0.00114781 -0.337417
-0.00478809 -0.331367
-0.0116084 -0.342152
-0.0164378 -0.345646
-0.0111006 -0.346901
0.00539503 -0.314986
-0.00423731 -0.315325
-0.00712714 -0.315274
0.00671574 -0.345368
0.0104565 -0.344413
-0.0121288 -0.324239
0.0115854 -0.3237
-0.00117856 -0.340321
0.00373548 -0.334565
0.00962486 -0.32716
-0.0111033 -0.326661
0.0010717 -0.339842
0.00462257 -0.315678
-0.00120323 -0.315583
-0.0047934 -0.316071
-0.00694005 -0.337284
0.00988212 -0.3414
0.0102742 -0.31669
0.0100069 -0.321646
0.00149492 -0.331167
-0.00347068 -0.333262
0.00402086 -0.335321
-0.000925025 -0.333288
-0.0105427 -0.322414
-0.0104 -0.317139
-0.0153217 -0.341882
-0.01781 -0.351669
0.0129478 -0.312394
0.00514198 -0.313414
-0.00243177 -0.314849
-0.0115302 -0.314785
-0.0229982 -0.358121
-0.0203103 -0.359761
0.0170617 -0.355484
0.0160167 -0.34992
0.0199122 -0.348153
0.0193882 -0.345024
-0.0158635 -0.312167
-0.0160232 -0.319028
0.015223 -0.318696
0.0223511 -0.309095
-0.0104628 -0.351708
0.00182025 -0.33875
0.0133335 -0.324507
-0.00151941 -0.338347
0.0153921 -0.356925
0.00551969 -0.316102
0.00349987 -0.31563
0.000286013 -0.315822
0.00166196 -0.315664
-0.00100523 -0.316229
-0.00261292 -0.316418
-0.00165718 -0.316412
-0.00455411 -0.316599
-0.00688813 -0.334536
-0.0123436 -0.337283
0.0158638 -0.340126
0.00865714 -0.33697
0.00611861 -0.316544
0.00722198 -0.31699
0.00919806 -0.318372
0.00869232 -0.320332
0.0050993 -0.32518
0.00137341 -0.329112
-0.00169349 -0.329997
-0.00538529 -0.32608
-0.00908804 -0.321112
-0.00923771 -0.319153
-0.00674113 -0.317433
-0.00536824 -0.316972
-0.0172498 -0.340236
-0.0270735 -0.355168
0.0188651 -0.305251
-0.00133125 -0.313031
-0.0104752 -0.311588
-0.0325816 -0.370748
0.027905 -0.368499
0.0251549 -0.353357
0.0205895 -0.341566
-0.0248417 -0.307938
0.0294911 -0.303137
-0.0172284 -0.362172
0.0179107 -0.319744
-0.0324018 -0.299144
-0.0141669 -0.324163
0.00476059 -0.34653
0.00398838 -0.31653
0.00283467 -0.316177
0.00103587 -0.316284
-0.000467326 -0.31658
-0.00161213 -0.316766
-0.00292372 -0.317069
-0.00866767 -0.333144
0.00971494 -0.334163
0.00517369 -0.317535
0.00547564 -0.320324
0.000836371 -0.326526
-0.00112378 -0.327253
-0.00528773 -0.321057
-0.00441553 -0.318058
-0.0166594 -0.332555
-0.0203011 -0.33699
-0.0231999 -0.342068
-0.0315621 -0.349599
-0.0499396 -0.37403
-0.0470457 -0.381373
0.0337988 -0.272381
0.00669998 -0.306377
-0.0275542 -0.288329
-0.0428514 -0.385851
0.0407485 -0.385124
0.0403442 -0.375044
0.0376463 -0.363707
0.0325519 -0.353543
0.0242533 -0.340861
0.0228047 -0.335111
-0.0339701 -0.289128
0.0385521 -0.281823
-0.0363243 -0.385788
-0.0088853 -0.357145
0.0357027 -0.293105
0.0242926 -0.376666
0.0403841 -0.39423
-0.0239173 -0.312488
0.00595499 -0.349582
0.00284905 -0.317046
0.00333812 -0.31746
0.00228791 -0.3166
0.00275214 -0.31671
0.00127471 -0.316578
0.00183981 -0.316537
6.99623e-05 -0.31677
0.000613244 -0.316684
-0.000727002 -0.316996
-0.00029224 -0.31691
-0.00169674 -0.317198
-0.00124011 -0.317048
-0.0024087 -0.317927
-0.00193851 -0.317496
-0.00282643 -0.327544
-0.00634083 -0.329663
-0.0119104 -0.331724
0.0154766 -0.331289
0.0117436 -0.331674
0.00472064 -0.329477
0.00187193 -0.32817
0.00404899 -0.318256
0.00397827 -0.319382
0.00282189 -0.321913
0.00127017 -0.323779
-0.00194741 -0.324502
-0.00284443 -0.322644
-0.00361243 -0.320011
-0.00321289 -0.318765
-0.0168133 -0.325952
-0.0228601 -0.333501
-0.0358676 -0.343471
-0.0511063 -0.362968
-0.0615604 -0.388378
0.0212218 -0.176684
0.0180052 -0.289921
0.00116459 -0.306528
-0.013246 -0.298878
-0.0249001 -0.190692
-0.0546305 -0.404836
0.0561397 -0.406721
0.0518679 -0.373835
0.0315165 -0.345216
0.0213239 -0.329097
0.00273659 -0.0778204
-0.0316804 -0.221505
-0.00459672 -0.0744413
0.0273949 -0.209438
-0.0317845 -0.396797
0.0274806 -0.3058
0.0474718 -0.264587
0.0404736 -0.406418
-0.0459161 -0.272766
-0.0133416 -0.324818
0.00190764 -0.31742
0.00162033 -0.316945
0.00114533 -0.316844
0.00046701 -0.316937
-0.000197249 -0.317094
-0.000736417 -0.317341
-0.00108092 -0.31787
-0.00573923 -0.326168
-0.011869 -0.32582
0.0101811 -0.326607
0.00352687 -0.326114
0.00188628 -0.318915
-0.000194091 -0.322275
-0.00235518 -0.32258
0.0019759 -0.323791
-0.000371532 -0.322973
-0.00127636 -0.319366
-0.0107068 -0.322437
0.0107586 -0.324009
-0.0179447 -0.32169
-0.0203749 -0.324758
-0.0251465 -0.326289
-0.0286564 -0.331216
-0.0365413 -0.334081
-0.0436661 -0.341636
-0.0522563 -0.348854
-0.0621062 -0.360727
-0.0717547 -0.372852
0.0158725 -0.187288
0.00598328 -0.281601
-0.00562727 -0.288355
-0.0151548 -0.201658
-0.0748222 -0.4038
-0.0717604 -0.415469
-0.0669547 -0.424796
-0.0624044 -0.434254
-0.0489522 -0.428429
0.0518844 -0.431171
0.0627603 -0.433791
0.0682731 -0.425972
0.0722154 -0.41479
0.0748783 -0.400313
0.069392 -0.382642
0.0626575 -0.365473
0.0554619 -0.350719
0.043302 -0.342663
0.0369213 -0.331623
0.0300866 -0.328426
0.025237 -0.326873
0.0178412 -0.323531
0.0220712 -0.0778768
-0.000886102 -0.14116
-0.0251954 -0.207598
-0.0223716 -0.0762912
0.0208375 -0.195205
3.78157e-05 -0.137086
-0.0335847 -0.42079
-0.014775 -0.4137
0.027146 -0.315615
0.0384845 -0.423725
-0.00987216 -0.341481
0.0220347 -0.409958
0.000886882 -0.317956
0.000791859 -0.318367
0.00105508 -0.317543
0.00116842 -0.317218
0.00112933 -0.317361
0.00117998 -0.317042
0.00106076 -0.316965
0.00113031 -0.316997
0.000872832 -0.316952
0.000631731 -0.31698
0.000756851 -0.316965
0.000369621 -0.317038
0.00010415 -0.317111
0.000236401 -0.317074
-0.000125837 -0.317208
-0.000330763 -0.317347
-0.000234394 -0.317274
-0.00045091 -0.317537
-0.000492757 -0.317834
-0.000485121 -0.317675
-0.000376006 -0.318254
-0.000132885 -0.318919
-0.00027559 -0.318554
-0.0124774 -0.320744
-0.0146984 -0.321038
0.0146244 -0.32285
0.0124205 -0.322528
-0.00828262 -0.32499
-0.00479971 -0.321256
0.00698972 -0.324921
0.00493101 -0.324621
0.00535499 -0.322359
0.000196206 -0.319768
-0.000276794 -0.320605
0.000649325 -0.321629
7.56296e-05 -0.320469
-0.00882607 -0.320254
0.00919209 -0.320932
-0.00629712 -0.320123
-0.00733529 -0.320152
0.00771675 -0.32083
0.00669196 -0.320798
-0.00395163 -0.319615
-0.00180912 -0.319719
-0.00292111 -0.319652
0.00445004 -0.320869
0.00344513 -0.320867
0.00242445 -0.320879
0.00326776 -0.322213
-0.0025332 -0.320656
0.00753743 -0.322445
-0.00709055 -0.321866
-0.00130374 -0.321119
0.00143497 -0.320496
0.00660497 -0.32711
-0.00957748 -0.328039
0.0140532 -0.325696
-0.0143912 -0.323039
-0.00120245 -0.318408
-0.000923988 -0.317553
-0.000485116 -0.317201
0.000124842 -0.317014
0.000820562 -0.316877
0.00142378 -0.31686
0.00173433 -0.317146
0.00216044 -0.317965
0.0253778 -0.389636
-0.0107585 -0.372218
-0.00182761 -0.128422
-0.00119066 -0.135839
0.0288672 -0.332714
0.0447985 -0.35681
0.0579293 -0.392834
0.0542482 -0.417883
-0.047657 -0.409261
-0.0589572 -0.397907
-0.0274268 -0.260921
0.029198 -0.24402
-0.062203 -0.37713
-0.0420671 -0.351686
-0.0265336 -0.338173
-0.0193041 -0.328891
0.000806926 -0.325074
-0.00220954 -0.324346
-0.0408876 -0.270696
0.0424432 -0.261449
0.00432098 -0.305188
-0.00555296 -0.319034
-0.00447572 -0.32376
0.00428582 -0.322972
0.00609621 -0.318372
0.00305634 -0.331285
0.0171782 -0.336584
-0.0143499 -0.335484
-0.00349442 -0.330624
-0.00339444 -0.317469
-0.00238207 -0.316816
-0.000920913 -0.316741
0.000112383 -0.316416
0.00203428 -0.316161
0.00355326 -0.316275
0.0043101 -0.316982
-0.00844311 -0.331012
0.0225475 -0.368196
-0.00501939 -0.348362
-0.026496 -0.369554
0.0303663 -0.295248
-0.0206422 -0.304686
0.0241291 -0.346663
0.027384 -0.361613
-0.00617415 -0.314436
0.00706939 -0.310115
-0.0365377 -0.367332
-0.0203033 -0.345074
-0.0182035 -0.318879
0.0174236 -0.318914
-0.00729189 -0.316294
-0.0132008 -0.318263
-0.00619091 -0.327955
0.00585146 -0.327008
0.0124993 -0.317633
0.0079029 -0.31593
0.0148145 -0.343142
-0.0105243 -0.338675
-0.00254654 -0.316022
0.000661316 -0.315111
0.00548768 -0.345278
0.00715858 -0.331928
0.00801597 -0.345179
-0.0095525 -0.34771
0.005217 -0.339184
-0.00352452 -0.335668
-0.00284054 -0.334945
0.000360491 -0.335983
-0.012843 -0.345561
-0.0281196 -0.31825
0.00653681 -0.430148
-0.0141855 -0.374068
0.00424619 -0.392124
-0.000471334 -0.4245
0.00930585 -0.367764
-0.00638683 -0.429837
0.0406965 -0.301106
0.0202427 -0.351852
0.000702973 -0.424123
0.00222731 -0.383339
0.00965058 -0.34291
0.0099532 -0.165038
0.0236735 -0.191859
0.0130397 -0.158388
0.0382744 -0.228325
-0.0101221 -0.0857419
0.000972946 -0.104893
0.00441992 -0.135559
-0.00181446 -0.134333
0.00776703 -0.160927
-0.0123629 -0.103971
-0.00617091 -0.110635
-0.0178808 -0.0830545
0.013113 -0.128216
0.0224623 -0.149612
-0.0253038 -0.0665481
-0.0134749 -0.100542
-0.0125293 -0.173514
-0.0133084 -0.16128
-0.0257243 -0.200214
-0.00463519 -0.138131
0.0102643 -0.0859993
-0.000905122 -0.10523
-0.0413178 -0.238303
-0.0113005 -0.170748
-0.000156329 -0.140064
0.0118282 -0.106687
0.0178958 -0.0841707
0.00600318 -0.112799
0.0253116 -0.0674187
-0.0130727 -0.128659
-0.022378 -0.150183
0.0120315 -0.104807
-0.00935815 -0.257425
0.00768869 -0.276659
0.00880845 -0.23622
0.00378926 -0.302103
0 0
0 0
-0.00793017 -0.121179
-0.02289 -0.234954
-0.0169802 -0.275101
0.0101396 -0.247271
-0.00852655 -0.230357
-0.00854375 -0.272079
0.00846414 -0.110119
0 0
-0.04606 -0.186473
-0.00477468 -0.300371
0.0188802 -0.263234
0.0236205 -0.218137
-0.0329243 -0.29855
-0.0335894 -0.299915
-0.0118679 -0.32847
-0.0513119 -0.273959
0.00740718 -0.35488
-0.0355407 -0.294374
-0.0424979 -0.27668
0.0431285 -0.283511
0.0276301 -0.30808
0.0456713 -0.284743
0.00797342 -0.334774
0.0519798 -0.267881
0.0450507 -0.265239
0.0405769 -0.284971
0.0392036 -0.242396
0.0400083 -0.240894
0.024104 -0.204016
0.0126437 -0.169619
0.0368752 -0.237791
-0.0401153 -0.248429
-0.0286019 -0.215806
-0.0428052 -0.249765
-0.0171563 -0.180696
-0.038869 -0.249035
-0.0123043 -0.137434
-0.0238438 -0.188582
-0.0133429 -0.128043
-0.0299675 -0.228043
0.00437289 -0.0434252
0.00182306 -0.108239
-0.0144901 -0.162045
-0.00480503 -0.304947
-0.00387305 -0.303445
-0.0116938 -0.294308
-0.000335515 -0.306416
-0.0211293 -0.284687
-0.00502564 -0.305152
0.00272809 -0.305616
0.00860117 -0.300934
0.0139609 -0.285783
0.00519934 -0.299566
0.0246187 -0.271479
0.0119623 -0.300355
0.00858005 -0.126991
0.0111403 -0.117148
0.0220133 -0.173944
-0.00519415 -0.0421
0.0287343 -0.211026
0.0104007 -0.151589
-0.00431576 -0.102916
-0.0340845 -0.29673
-0.0242159 -0.311209
-0.010603 -0.328662
-0.0162826 -0.322111
0.0414769 -0.278279
0.0262823 -0.307327
0.00964877 -0.329414
0.0107365 -0.327766
-0.0379317 -0.286369
-0.0291199 -0.305157
-0.0210942 -0.316237
-0.0257059 -0.309976
-0.0289957 -0.304095
-0.0300748 -0.299744
-0.034325 -0.293053
-0.0237228 -0.30566
-0.0280148 -0.298259
-0.0381827 -0.279772
-0.0228363 -0.312367
0.0307546 -0.298573
0.0268114 -0.302887
0.0260821 -0.306552
0.0212783 -0.312909
0.0176246 -0.313872
0.0240594 -0.311155
-0.018598 -0.308722
-0.020523 -0.310488
-0.0191577 -0.313958
-0.0153831 -0.314659
-0.0155576 -0.308896
-0.0134774 -0.311786
-0.0108598 -0.313637
-0.00830265 -0.313206
0.00616043 -0.311937
0.00264891 -0.311884
0.00211362 -0.313261
-0.000153763 -0.314173
-0.00404458 -0.313786
0.00264518 -0.314356
0.0177364 -0.311106
0.0214283 -0.306694
0.0160899 -0.309248
0.0249352 -0.301095
0.0129497 -0.308165
0.0106205 -0.311158
0.0136412 -0.314361
0.00904892 -0.312919
0.00548023 -0.314231
0.00682412 -0.315307
0.00309121 -0.315026
0.00892032 -0.313963
0.0106424 -0.314366
0.0147619 -0.0223146
0.0144463 -0.0572921
0.0112945 -0.0298217
0.0151909 -0.0841609
0 0
0 0
0.0180721 -0.0180171
0.0305555 -0.0495683
0.0245316 -0.0620447
0.0277333 -0.0360792
-0.0318301 -0.17612
-0.0383977 -0.19149
-0.0278521 -0.0357468
-0.0249532 -0.0608051
-0.0305548 -0.0490142
-0.0166874 -0.0804994
0.0319649 -0.175354
0.0384237 -0.190466
-0.0181843 -0.0179361
-0.0117194 -0.0293051
-0.0154913 -0.0556852
-0.014871 -0.0220936
-0.0358995 -0.259218
-0.0181175 -0.293879
-0.0198105 -0.298521
-0.0127508 -0.301816
-0.0207963 -0.293245
-0.00315438 -0.305904
-0.0285094 -0.276159
-0.0247903 -0.297309
-0.0164571 -0.30396
-0.0335529 -0.273351
-0.0366866 -0.274017
-0.0316096 -0.2872
-0.0390071 -0.261218
-0.0329145 -0.254899
-0.0273569 -0.204882
-0.035796 -0.238555
-0.0325682 -0.227112
0.0298197 -0.211876
0.0331308 -0.225708
0.0232455 -0.192045
0.0390274 -0.249398
0.0334439 -0.238295
0.0371819 -0.274567
0.0393708 -0.263042
0.0363551 -0.257224
0.04115 -0.271879
0.0321286 -0.258887
0.0330066 -0.284561
0.0351287 -0.288746
0.0206015 -0.300895
0.0142934 -0.302985
0.0133831 -0.305568
0.0129722 -0.301744
0.0056723 -0.30537
0.00705955 -0.307919
0.02672 -0.29497
0.026858 -0.280074
0.0205297 -0.293118
0.0284292 -0.286898
0.0346676 -0.295046
0.0314322 -0.301133
0.0383024 -0.286266
0.0193465 -0.317378
0.0345836 -0.293863
0.0290076 -0.304958
0.0221706 -0.31432
-0.00353742 -0.311343
-0.00857879 -0.310433
-0.00577203 -0.312564
-0.0136323 -0.307701
0.000775118 -0.310079
-0.00222593 -0.306886
-0.00872178 -0.306769
6.8093e-05 -0.308181
0.00486977 -0.401162
-0.0067609 -0.400113
-0.00468781 -0.414621
-0.00546508 -0.375884
-0.01391 -0.392993
-0.0109108 -0.421857
0.00810933 -0.417016
0.0162176 -0.40815
0.0118407 -0.389222
0.0139991 -0.345666
0.00506057 -0.363127
0.010543 -0.36926
-0.00140515 -0.35894
0.0219772 -0.376464
0.0228134 -0.332843
0.0177709 -0.330332
0.0479313 -0.2477
0.0451162 -0.20871
0.0399822 -0.221935
0.0282006 -0.211317
0.0340207 -0.20248
0.0508394 -0.2342
-0.0450367 -0.209883
-0.0499968 -0.254534
-0.041203 -0.228269
-0.035207 -0.20841
-0.0317961 -0.222473
-0.0500275 -0.235308
-0.0432167 -0.287416
-0.0438438 -0.29127
-0.0314946 -0.305639
-0.0554625 -0.274956
-0.0418236 -0.301402
-0.0184148 -0.330758
-0.0217199 -0.318868
-0.0431138 -0.284319
-0.0483177 -0.272881
-0.000665562 -0.347675
0.00847808 -0.360042
-0.00155934 -0.342579
0.0177818 -0.379498
0.0170021 -0.372279
-0.00303577 -0.338886
-0.0128156 -0.325784
-0.0108522 -0.332944
0.0004019 -0.355679
-0.0347765 -0.295713
-0.0394303 -0.286076
-0.0396977 -0.287036
-0.0398189 -0.282465
-0.0418513 -0.27304
-0.044046 -0.274547
-0.0407583 -0.286235
-0.0231517 -0.311933
-0.0283074 -0.30526
0.0170329 -0.322287
0.00864297 -0.337483
0.0183557 -0.324446
-0.00209824 -0.35353
0.0275203 -0.310698
0.0277089 -0.306272
0.0180081 -0.319159
0.0442614 -0.290018
0.0521319 -0.279698
0.0504883 -0.276505
0.0500153 -0.290797
0.0564458 -0.271038
0.049547 -0.265883
0.0490411 -0.273624
0.0376399 -0.297844
0.0336207 -0.308908
0.0457319 -0.273865
0.0440304 -0.275505
0.0417675 -0.284066
0.0436313 -0.262944
0.0433073 -0.27292
0.0355637 -0.294225
0.035682 -0.29477
0.0470398 -0.274333
0.0461586 -0.264745
0.046445 -0.254012
0.0474524 -0.252157
0.0393163 -0.23699
0.0299151 -0.217856
0.0452038 -0.254104
0.0437579 -0.253305
0.0432634 -0.254489
0.0417922 -0.252802
0.0326238 -0.225346
-0.0425313 -0.246575
-0.0503142 -0.260093
-0.0480724 -0.261213
-0.0462101 -0.262448
-0.0340586 -0.229423
-0.0441136 -0.260347
-0.0432979 -0.263491
-0.0355203 -0.23462
-0.0415904 -0.260388
-0.0193434 -0.317246
-0.0120074 -0.326723
-0.0173887 -0.320192
-0.0179528 -0.319853
-0.00958374 -0.329966
-0.0242013 -0.311739
0.00893381 -0.331241
0.00016539 -0.343023
-0.00105067 -0.346758
0.00192081 -0.339477
-0.00685104 -0.35204
-0.0100474 -0.363298
0.0181129 -0.318129
0.0183917 -0.317839
0.0102983 -0.328288
0.0184646 -0.31754
0.00283328 -0.337904
0.0269323 -0.306349
0.0320425 -0.299357
0.0226474 -0.312679
0.00612836 -0.333603
0.0154084 -0.322036
0.0240186 -0.311859
0.0283124 -0.305375
-0.00136649 -0.342995
0.0107584 -0.328013
0.0130531 -0.325447
0.00480572 -0.334983
-0.0025986 -0.338467
0.00520765 -0.34783
-0.00276397 -0.338028
0.0145205 -0.359645
0.0136944 -0.357204
-0.00218061 -0.338277
-0.00322337 -0.337912
0.00785693 -0.378036
0.0137602 -0.401627
0.0165973 -0.389831
0.00562743 -0.413344
0.0153628 -0.419598
0.0244171 -0.398659
-0.00168182 -0.367947
-0.0110453 -0.398734
-0.00115401 -0.404819
-0.00424134 -0.383616
-0.00802003 -0.417262
-0.0106035 -0.355426
-0.0189568 -0.386067
-0.0159332 -0.408616
-0.0321235 -0.336968
-0.026274 -0.368862
-0.0199149 -0.348044
-0.0244717 -0.397409
-0.0340191 -0.383508
0.0307963 -0.417302
0.0265497 -0.429362
0.035011 -0.433726
-0.0446082 -0.36488
-0.0519323 -0.335074
0.0435106 -0.437763
0.0326708 -0.407924
0.0394084 -0.333205
0.0288147 -0.330084
0.0294686 -0.356491
0.0245244 -0.397089
0.0340233 -0.383246
-0.0251338 -0.417079
-0.0322659 -0.432678
-0.0229125 -0.430991
-0.0411962 -0.436788
0.0438024 -0.364883
0.0530447 -0.335507
-0.0235139 -0.399939
0.0493926 -0.346696
0.0549926 -0.343534
0.0488865 -0.339587
0.0593216 -0.347057
0.0152664 -0.319722
0.0130608 -0.319444
0.0441759 -0.336557
0.0439144 -0.349943
0.0499664 -0.354116
0.0590548 -0.358181
0.0681391 -0.360488
0.0647714 -0.352893
0.0724203 -0.366825
0.0108912 -0.319238
0.00939818 -0.319131
0.0537738 -0.361314
0.0722009 -0.391699
0.0815355 -0.394015
0.0793524 -0.38499
0.0830108 -0.40258
0.00791894 -0.31906
0.00690301 -0.319032
0.0753762 -0.375708
0.0631892 -0.388362
0.0664855 -0.397101
0.0733748 -0.407793
0.0804739 -0.417666
0.082373 -0.41056
0.0783732 -0.423726
0.0763576 -0.438745
0.0799492 -0.435118
0.0655842 -0.404306
0.0654478 -0.429882
0.0697777 -0.437091
0.0728279 -0.433321
0.0659451 -0.439705
0.0832258 -0.430672
0.0861507 -0.42535
0.0758901 -0.429147
0.0613507 -0.422567
0.0588653 -0.426496
0.0574261 -0.432626
0.056029 -0.440493
0.0612837 -0.440807
0.0501338 -0.439729
0.088525 -0.419112
0.0902067 -0.411906
0.0532449 -0.424289
-0.0559031 -0.431718
-0.061036 -0.440823
-0.0546792 -0.439409
-0.0657171 -0.439683
-0.0763507 -0.438316
-0.0725313 -0.441294
-0.0486412 -0.438553
-0.0486843 -0.418645
-0.0558354 -0.423303
-0.0646517 -0.429511
-0.0722311 -0.432659
-0.0695619 -0.437054
-0.0752685 -0.428468
-0.0684246 -0.443581
-0.0640374 -0.445395
-0.057634 -0.418331
-0.0731485 -0.409809
-0.0822311 -0.411936
-0.0801999 -0.417774
-0.0828365 -0.404068
-0.0591383 -0.446596
-0.0536778 -0.447307
-0.0781219 -0.423812
-0.0657612 -0.407133
-0.0669071 -0.401385
-0.0670016 -0.366852
-0.0679465 -0.357636
-0.0727067 -0.363791
-0.0625398 -0.351852
-0.0633395 -0.34224
-0.0689887 -0.347909
-0.0768732 -0.370049
-0.0668623 -0.375218
-0.0619909 -0.369191
-0.0479682 -0.345241
-0.0490488 -0.338673
-0.053333 -0.342277
-0.0443232 -0.335638
-0.0740608 -0.35395
-0.0784729 -0.360264
-0.0576832 -0.345812
-0.0470758 -0.350481
-0.042767 -0.346844
-0.0822324 -0.366764
-0.0407938 -0.33179
-0.0373757 -0.33004
-0.0338683 -0.32857
-0.0314168 -0.336405
-0.0864285 -0.37629
-0.0335226 -0.298274
-0.0218716 -0.314995
-0.0237509 -0.311173
0.0467449 -0.419831
0.0399132 -0.41446
0.0455066 -0.427686
0.0332459 -0.398673
0.0475218 -0.412699
0.0371372 -0.293959
0.0365417 -0.296597
0.0443915 -0.283783
-0.0411932 -0.414478
-0.0417733 -0.424765
-0.0332724 -0.408467
-0.021995 -0.385605
-0.0399547 -0.403538
0.0396685 -0.241868
0.0309871 -0.221069
-0.0413154 -0.248938
-0.0345538 -0.230962
0.0381554 -0.350972
0.0372842 -0.344229
0.0360399 -0.337629
0.030072 -0.339135
0.0607196 -0.378556
0.066042 -0.374211
0.056975 -0.370148
0.0482613 -0.365396
0.0548185 -0.383435
0.0627174 -0.417024
0.070102 -0.420511
0.0642197 -0.411454
0.0567713 -0.399872
0.0551208 -0.412157
-0.0633529 -0.41096
-0.0692051 -0.420226
-0.0613167 -0.415472
-0.0509767 -0.406995
-0.056614 -0.401459
-0.0515161 -0.356184
-0.0572148 -0.354816
-0.0565187 -0.362074
-0.0567364 -0.370093
-0.0466011 -0.357323
-0.0361259 -0.338932
-0.0400925 -0.337849
-0.0397187 -0.342668
-0.0389571 -0.347571
-0.031179 -0.340813
-0.0306798 -0.302333
-0.0298375 -0.303941
0.0325711 -0.386207
0.0329494 -0.391912
0.0404754 -0.399773
0.0249786 -0.382146
0.0478117 -0.406576
0.0317924 -0.381178
0.0232698 -0.37188
0.0340319 -0.296316
0.0380279 -0.289218
0.0386165 -0.355347
0.0319625 -0.34947
0.0277364 -0.346125
0.0283222 -0.350081
0.0388701 -0.369417
0.0458848 -0.374896
0.0448015 -0.36888
0.0493844 -0.384176
0.0410047 -0.360631
0.0324031 -0.362971
0.0339049 -0.368317
0.0404057 -0.389486
0.0483521 -0.401187
0.0488237 -0.396201
0.0492358 -0.38972
0.0318033 -0.377417
-0.0394359 -0.385996
-0.0489898 -0.39544
-0.0457933 -0.396131
-0.0510208 -0.392396
-0.042311 -0.397418
-0.0314195 -0.377412
-0.0348096 -0.378074
-0.0483421 -0.377856
-0.0558815 -0.381276
-0.0543176 -0.38523
-0.0560421 -0.375805
-0.0617721 -0.382885
-0.0601005 -0.393275
-0.0531904 -0.38974
-0.0418421 -0.374317
-0.0432245 -0.37092
-0.0367663 -0.350773
-0.0336145 -0.346737
-0.0289677 -0.343921
-0.0258568 -0.347453
0.016276 -0.366584
0.015337 -0.362827
0.00655275 -0.351523
0.0313902 -0.358531
0.0350496 -0.358618
0.0287801 -0.353621
0.0245777 -0.350069
0.0261738 -0.357519
0.0344277 -0.376764
0.040358 -0.380106
0.034058 -0.372173
0.0275083 -0.365107
0.0250751 -0.368565
-0.039851 -0.37636
-0.0447846 -0.383759
-0.0377646 -0.378211
-0.0294347 -0.370364
-0.0344274 -0.369215
0.0188441 -0.362268
0.0101386 -0.352023
0.00504543 -0.34596
0.0103463 -0.350921
-0.00442617 -0.345721
-0.013679 -0.356578
-0.00774302 -0.350399
-0.0185141 -0.360685
-0.0218381 -0.366208
-0.0112901 -0.355762
-0.00136057 -0.341459
0.0216475 -0.355678
0.0205056 -0.351847
0.0153243 -0.34661
0.0119656 -0.347713
0.0161651 -0.356283
0.021667 -0.362927
0.0224493 -0.361867
0.0221721 -0.358801
0.0112504 -0.350562
-0.0215829 -0.359057
-0.0277619 -0.364316
-0.0264604 -0.365399
-0.0297415 -0.362932
-0.0233346 -0.364507
-0.0148626 -0.353599
-0.0162192 -0.353155
-0.0317854 -0.361174
-0.0249204 -0.356854
-0.0198425 -0.35049
-0.0236268 -0.350062
-0.015384 -0.356025
-0.00989435 -0.349705
0.0164457 -0.352749
0.0124461 -0.350202
-0.0447476 -0.367344
-0.0452432 -0.362024
-0.0503737 -0.368684
-0.0406345 -0.356405
-0.0378669 -0.3642
-0.0291688 -0.352648
-0.0354996 -0.35511
-0.0332238 -0.358111
-0.0682171 -0.389259
-0.0748358 -0.39684
-0.0684837 -0.396382
-0.0834245 -0.396889
-0.0687797 -0.383463
-0.0807745 -0.379602
-0.0819938 -0.38796
-0.0733593 -0.381369
-0.0892485 -0.385719
-0.090727 -0.394779
-0.017636 -0.36814
-0.0288953 -0.386424
-0.0212444 -0.378072
-0.0373905 -0.39469
-0.0157151 -0.363215
-0.0270606 -0.374411
-0.0309583 -0.381992
-0.0213665 -0.369271
-0.00382729 -0.293671
-0.00931299 -0.288242
-0.0268399 -0.2054
-0.0314427 -0.220366
-0.0270989 -0.239626
-0.0285482 -0.25564
0.0187558 -0.277483
0.0200023 -0.26468
-0.00391886 -0.334786
-0.0103583 -0.32739
0.0274621 -0.285754
0.0270499 -0.291059
0.00120872 -0.304164
0.00473941 -0.302481
-0.0323194 -0.0435378
-0.0292801 -0.0430475
-0.00806978 -0.0368953
-0.007234 -0.0181874
0.0180395 -0.280274
0.0133916 -0.278485
0.0319001 -0.186151
0.0305515 -0.222113
-0.0313117 -0.285908
-0.0315244 -0.279046
-0.000501415 -0.00159076
-0.00309831 -0.0179936
-0.0422205 -0.228634
-0.0234077 -0.206187
0.042931 -0.263138
0.0410026 -0.249432
-0.0145537 -0.179724
-0.00946602 -0.16069
-0.0106096 -0.134035
-0.0126197 -0.126974
-0.00579837 -0.30437
-0.00567915 -0.304724
-0.0269888 -0.206554
-0.0312796 -0.219691
0.0122217 -0.0117059
0.0219416 -0.0217967
0.0137226 -0.313311
0.0147709 -0.314838
0.0315292 -0.289138
0.0295833 -0.295806
-0.0486633 -0.247693
-0.0342803 -0.223523
0.0152945 -0.307527
0.0121544 -0.307056
0.0253882 -0.19608
0.0217649 -0.193713
0.0144579 -0.312482
0.0120609 -0.311898
-0.0195741 -0.314911
-0.0162376 -0.319569
0.0279985 -0.305608
0.0276949 -0.306774
-0.0004217 -0.139731
0.0086314 -0.114219
0.0171882 -0.236282
0.0212185 -0.214276
-0.00541725 -0.286975
-0.0116239 -0.28191
-0.00964879 -0.278212
-0.00358325 -0.284143
0.00157994 -0.0823513
0.00356748 -0.100553
-0.00836135 -0.321374
-0.00342564 -0.322974
-0.0327193 -0.226113
-0.0419436 -0.249871
0.00205985 -0.316086
0.000972686 -0.315672
-0.00248836 -0.226465
9.34255e-05 -0.247981
-0.0169906 -0.272682
-0.0316672 -0.269405
-0.0218071 -0.283029
-0.0156223 -0.27621
-0.0272116 -0.305608
-0.0231579 -0.309366
0.0350588 -0.236303
0.0365494 -0.240219
-0.0449077 -0.223299
-0.042413 -0.243856
-0.02067 -0.177995
-0.0168583 -0.146004
-0.0121301 -0.142617
-0.0112376 -0.149925
-0.0165915 -0.170615
-0.0232995 -0.194116
-0.0153578 -0.139974
-0.0138519 -0.14724
-0.0340224 -0.286055
-0.0305974 -0.291373
-0.0264972 -0.292957
-0.021933 -0.297423
-0.0252049 -0.29434
-0.0263517 -0.296269
-0.0321454 -0.298239
-0.0297498 -0.300885
-0.0049644 -0.124424
0.00225309 -0.113022
-0.0030788 -0.305681
-0.00765406 -0.304417
-0.028034 -0.259792
-0.0231402 -0.267647
0.0308648 -0.218464
0.0264972 -0.203039
-0.00706552 -0.305773
-0.00671133 -0.305245
-0.0215612 -0.308185
-0.0226117 -0.309478
-0.0340704 -0.287555
-0.0365874 -0.277795
0.0338502 -0.23745
0.0309957 -0.218158
-0.00536424 -0.298139
-0.0100669 -0.298481
0.0196299 -0.0661688
0.016361 -0.0598096
-0.024525 -0.310425
-0.0291927 -0.303669
-0.0205147 -0.0506184
-0.0155769 -0.0548076
-6.66887e-05 -0.306786
-0.000224824 -0.306116
-0.0434126 -0.262698
-0.0402969 -0.24665
0.0146151 -0.299568
0.00978535 -0.303173
-0.0385882 -0.264067
-0.0383911 -0.251309
-0.018701 -0.294142
-0.01492 -0.299512
0.0235808 -0.0728531
0.0204396 -0.0819806
-0.00582 -0.120674
-0.00118327 -0.136281
0.0265827 -0.208824
0.0169365 -0.183482
0.0249503 -0.309058
0.036226 -0.293039
-0.00939237 -0.317108
-0.00604597 -0.316773
-0.0145483 -0.177482
-0.0216079 -0.198095
-0.00145955 -0.133927
-0.00106259 -0.124069
0.0457529 -0.264197
0.0474385 -0.276497
-0.00362242 -0.304065
-0.00102617 -0.305967
-0.00921812 -0.315509
-0.00564455 -0.315861
-0.0236536 -0.311282
-0.0218668 -0.31462
-0.00973277 -0.23657
-0.00403878 -0.217916
0.0166699 -0.158063
0.0189639 -0.192206
0.00585553 -0.140797
0.00774608 -0.154516
0.0225617 -0.0224246
0.0208141 -0.0253393
0.0346422 -0.29516
0.0378617 -0.286447
0.00828087 -0.146764
0.0157778 -0.171844
0.00359081 -0.123729
0.0119879 -0.0995524
0.0280562 -0.306644
0.0222359 -0.314332
0.0080685 -0.312835
0.010827 -0.313174
0.0345291 -0.295386
0.0334435 -0.297127
-0.0304335 -0.237046
-0.0319502 -0.230619
0.000404746 -0.316929
-0.000204104 -0.31658
-0.0149139 -0.172001
-0.0158882 -0.16746
-0.0145504 -0.0398755
-0.0168185 -0.0303702
-0.00478488 -0.0282168
7.78714e-05 -0.0294638
0.0234955 -0.0216164
0.0284239 -0.0304674
-0.0229776 -0.312425
-0.0329978 -0.298433
-0.00162528 -0.305608
-0.00291791 -0.304404
-0.00205142 -0.303872
-0.00061476 -0.299978
-0.0157639 -0.31389
-0.0116445 -0.315023
-0.00733244 -0.121996
-0.00258137 -0.0950716
-0.0425076 -0.273929
-0.0399652 -0.282267
-0.000787928 -0.306111
0.000220125 -0.306665
0.0393422 -0.279858
0.0409585 -0.269287
0.0170686 -0.0860096
0.0221261 -0.0679039
0.0340919 -0.294458
0.0305422 -0.300213
0.00611117 -0.256151
-0.00506415 -0.257254
0.00461481 -0.303732
0.00133337 -0.30576
-0.00842904 -0.0764307
-0.00942685 -0.0574273
-0.0103831 -0.105244
-0.0167775 -0.0838296
-0.0128656 -0.316312
-0.0087711 -0.317532
-0.0146939 -0.164942
-0.00542453 -0.162767
0.0409348 -0.276814
0.0406319 -0.26508
-0.00807436 -0.105845
-0.00925585 -0.121929
-0.0142641 -0.139522
-0.00957966 -0.135711
-0.0111878 -0.0136897
-0.0125419 -0.012704
-0.0257989 -0.194658
-0.0271094 -0.200502
0.00119991 -0.306218
0.000233151 -0.306841
0.00182058 -0.0295164
0.00374428 -0.0162956
0.036532 -0.286406
0.0388555 -0.276257
-0.0309309 -0.235764
-0.0279497 -0.221864
-0.026729 -0.063712
-0.0251645 -0.0638987
-0.0209569 -0.287149
-0.0130746 -0.284189
-0.0139663 -0.287551
-0.0165035 -0.29068
-0.00768773 -0.291326
-0.00390784 -0.283579
0.0315897 -0.293395
0.0277505 -0.297904
0.0318996 -0.2715
0.0302061 -0.26475
-0.018131 -0.169953
-0.0209163 -0.184775
-0.0314592 -0.301147
-0.0322551 -0.29878
-0.00299185 -0.298595
-0.000897422 -0.303709
0.00301251 -0.301401
0.007495 -0.298113
-0.0118253 -0.158051
-0.00444661 -0.132698
-0.00149597 -0.00195929
-0.0105303 -0.0160734
-0.0227346 -0.184989
-0.020461 -0.182508
0.00983223 -0.289227
0.0032484 -0.284516
0.0305295 -0.186009
0.00783101 -0.189418
0.0159533 -0.247841
0.0391025 -0.240535
-0.0113223 -0.0280646
-0.00622788 -0.0176462
-0.0382203 -0.271368
-0.0397809 -0.266588
0.0118004 -0.161581
0.0124064 -0.170126
-0.0226997 -0.31422
-0.0288083 -0.305537
0.0141668 -0.300454
0.0191008 -0.296864
-0.0151492 -0.298975
-0.0165533 -0.299774
-0.0293314 -0.29554
-0.0329369 -0.290059
0.0384241 -0.285887
0.0373185 -0.287136
-0.000316841 -0.308472
0.00195278 -0.309705
-0.0150442 -0.313049
-0.0150238 -0.311334
0.0418272 -0.26837
0.0402931 -0.270553
0.0171557 -0.310666
0.0199744 -0.310591
-0.0268932 -0.0514675
-0.0296939 -0.0526149
-0.0106062 -0.303373
-0.0152416 -0.301187
-0.0327502 -0.260503
-0.0309377 -0.251875
0.00728663 -0.315992
0.00413409 -0.316645
0.03462 -0.230376
0.0349644 -0.231712
0.00738381 -0.227521
0.0122687 -0.247365
0.00930418 -0.135382
0.00875293 -0.118867
0.00321052 -0.00227624
0.0148589 -0.0128552
-0.00170551 -0.0301156
0.00397372 -0.0700133
-0.0130027 -0.0457918
-0.00909477 -0.0688786
0.0234457 -0.0291402
0.0158733 -0.0161664
-0.0104213 -0.293254
-0.0149403 -0.291464
0.0181339 -0.319463
0.0107107 -0.328126
-0.0241675 -0.285014
-0.026298 -0.274782
-0.0204942 -0.0475086
-0.0158327 -0.049788
0.0115095 -0.301024
0.0165276 -0.296514
0.0164981 -0.0745902
0.0224136 -0.0621492
-0.0135364 -0.3204
-0.0134319 -0.317902
-0.00220475 -0.312214
-0.00692461 -0.311673
-0.0134685 -0.0644105
-0.00698956 -0.0858381
-0.0311014 -0.219256
-0.0327243 -0.233618
-0.0359244 -0.279039
-0.0357487 -0.285534
0.0106084 -0.132037
0.018538 -0.157682
0.0152851 -0.315776
0.0181523 -0.315484
0.037101 -0.280627
0.034545 -0.290399
0.00353974 -0.149324
0.0017491 -0.140355
0.00676555 -0.316189
0.00745661 -0.317927
-0.00244162 -0.256206
0.00791368 -0.253537
0.0186484 -0.0816693
0.0222311 -0.0774273
-0.0086937 -0.306375
-0.00970362 -0.307632
-0.0256676 -0.309047
-0.0205206 -0.315051
-0.0258287 -0.309883
-0.0215044 -0.314924
0.0294886 -0.242243
0.0289314 -0.258962
-0.00644488 -0.276409
-0.00924534 -0.261636
-0.00473722 -0.305166
-0.00257533 -0.305803
0.0111226 -0.231497
-0.00403548 -0.231247
0.0142584 -0.142656
0.0188271 -0.17857
0.0270295 -0.249232
0.0276279 -0.263002
-0.00802745 -0.188341
-0.00993331 -0.145231
0.00476138 -0.304783
0.00831976 -0.30307
0.0124583 -0.318338
0.0132047 -0.315559
0.0172937 -0.148128
0.0163224 -0.153567
0.0241361 -0.311377
0.0269378 -0.308077
-0.027312 -0.207078
-0.0247879 -0.203398
-0.0168525 -0.168411
-0.0208504 -0.175983
-0.0290221 -0.30361
-0.0250402 -0.309998
0.0336883 -0.28493
0.030285 -0.292706
-0.00106676 -0.30574
-0.00131502 -0.305494
0.0159274 -0.317964
0.0115528 -0.323258
0.00316838 -0.305462
0.00302265 -0.305535
-0.000686823 -0.305939
-0.00312641 -0.305613
0.0306181 -0.296526
0.0309714 -0.292053
-0.0287266 -0.0556313
-0.0254351 -0.067369
0.0120382 -0.314969
0.0083896 -0.316426
-0.0108954 -0.108281
-0.00663787 -0.120533
0.0278429 -0.259114
0.0312223 -0.258719
-0.0128174 -0.296496
-0.0095401 -0.301288
0.0196044 -0.311189
0.0178235 -0.310328
-0.00583987 -0.112214
-0.00138133 -0.0849075
-0.0106037 -0.223453
-0.000650935 -0.198129
-0.00120251 -0.304703
-0.00292771 -0.304857
-0.0215347 -0.3053
-0.0231467 -0.306367
0.026101 -0.309323
0.0314843 -0.301046
-0.0128115 -0.253038
-0.0116986 -0.26901
0.0069338 -0.307537
0.00875662 -0.308659
0.0286713 -0.304149
0.0222852 -0.31322
-0.013543 -0.306121
-0.0186813 -0.303848
0.025076 -0.0520169
0.0286921 -0.0487965
0.0419969 -0.267256
0.0405417 -0.274237
0.00335013 -0.3054
-0.0015923 -0.305889
0.0356813 -0.254255
0.03391 -0.239747
0.0034718 -0.130211
0.00718907 -0.119157
-0.0013327 -0.132262
-0.00948509 -0.149252
-0.00465697 -0.318617
-0.00123846 -0.321
0.010229 -0.015186
0.0165968 -0.0308951
0.0289451 -0.0467979
0.0255193 -0.044635
-0.0134869 -0.319371
-0.00905669 -0.320845
-0.0136787 -0.304488
-0.0186393 -0.301071
0.0266429 -0.20616
0.00533031 -0.207185
-0.00196594 -0.306364
-0.000393051 -0.307025
-0.0182397 -0.303666
-0.0172279 -0.302255
-0.020871 -0.0476847
-0.0207434 -0.0326056
-0.00272179 -0.305897
0.00104478 -0.306253
0.000588186 -0.306558
-0.000470864 -0.307498
-0.0387172 -0.276868
-0.0367225 -0.280247
-0.0272293 -0.306479
-0.0247008 -0.31049
-0.019948 -0.18313
-0.0234555 -0.198141
-0.00122787 -0.274264
0.00281709 -0.284503
0.000295682 -0.306627
0.00345047 -0.305148
0.0122971 -0.305721
0.0173464 -0.304078
0.0170384 -0.0534913
0.0146552 -0.0739808
-0.00960519 -0.191154
-0.01616 -0.211165
0.00938603 -0.104653
0.00761894 -0.116792
0.0141857 -0.317078
0.0101068 -0.318052
0.0103993 -0.275266
0.0233959 -0.267443
0.0170123 -0.289336
0.0135358 -0.288837
0.00224334 -0.0825459
0.00551156 -0.0922736
0.00447556 -0.323994
0.00298164 -0.320691
0.0289815 -0.299186
0.0308097 -0.299009
-0.0184915 -0.29562
-0.022589 -0.292745
-0.0222523 -0.1836
-0.0262164 -0.196696
0.0440087 -0.253556
0.038304 -0.240723
0.0027593 -0.0193103
-0.00307541 -0.062481
0.012126 -0.317435
0.0128723 -0.319712
-0.0186628 -0.188922
-0.0248369 -0.206627
0.0127523 -0.0569297
0.0120698 -0.0377634
-0.00150222 -0.30173
0.000538249 -0.304863
-0.0140921 -0.174751
-0.0211604 -0.196158
-0.032129 -0.234198
-0.0303065 -0.216638
-0.038475 -0.247804
-0.0354303 -0.235979
0.0253559 -0.0625159
0.0234838 -0.0733252
0.0250842 -0.292221
0.0207974 -0.29542
-0.0142378 -0.289427
-0.00724724 -0.286222
-0.0219717 -0.295151
-0.01715 -0.299117
-0.0125786 -0.0839267
-0.00323759 -0.125898
-0.0352786 -0.292673
-0.0324255 -0.297495
0.00872823 -0.313394
0.010086 -0.314294
-0.00640375 -0.255244
0.00215634 -0.265841
0.016855 -0.166033
0.0243066 -0.19114
-0.0317087 -0.0365615
-0.0308046 -0.0454085
-0.0263622 -0.210447
-0.0157567 -0.182441
-0.00849305 -0.143745
-0.0144504 -0.155142
0.0104277 -0.283781
0.00163334 -0.287115
0.0307125 -0.220323
0.0209215 -0.195175
-0.00231946 -0.314455
-0.000765951 -0.313387
-0.00215305 -0.31922
-0.00417533 -0.322124
-0.0194952 -0.184882
-0.0245797 -0.203092
-0.0171036 -0.290097
-0.0126249 -0.296752
0.0370318 -0.239299
0.0405842 -0.254227
-0.000709518 -0.313368
-0.00265098 -0.312176
-0.0353513 -0.272847
-0.0327185 -0.276018
-0.0476164 -0.277794
-0.0421109 -0.284232
-0.0170394 -0.083836
-0.0197577 -0.0828611
0.012653 -0.0185024
0.0077826 -0.0113359
0.00944114 -0.070683
0.0152635 -0.0518637
0.0167756 -0.318192
0.0110418 -0.323407
-0.00253112 -0.00797851
-0.00322877 -0.0181796
-0.0409641 -0.253519
-0.0361727 -0.236133
0.0150845 -0.139609
0.00825715 -0.110075
0.0165791 -0.0911917
0.0143576 -0.0999363
0.0307901 -0.301177
0.0396686 -0.286533
0.0319483 -0.299533
0.0360426 -0.292924
-0.0210518 -0.165951
-0.0260664 -0.192891
0.00345688 -0.0801953
-0.00466287 -0.0429064
0.0342161 -0.296056
0.0377606 -0.287999
-0.000291596 -0.301857
0.00177159 -0.296524
0.0100443 -0.226728
-0.00500711 -0.216026
0.0253989 -0.193566
0.0203525 -0.170851
0.0179251 -0.0391258
0.0138848 -0.0457248
0.00631607 -0.286779
0.00566034 -0.295586
0.00979404 -0.089317
0.00349098 -0.0962002
-0.0292454 -0.215707
-0.0210312 -0.191833
-0.0329205 -0.296596
-0.034369 -0.290703
0.00079435 -0.317549
0.00180489 -0.31828
0.0353279 -0.287268
0.032502 -0.295942
0.0232445 -0.311564
0.0332617 -0.297486
0.00105961 -0.267331
-0.00451158 -0.27754
0.00871102 -0.0110545
0.0163649 -0.0255628
0.00850251 -0.0838554
0.0104568 -0.0929383
-0.00382025 -0.0116949
-0.00853154 -0.0214629
-0.0270565 -0.308214
-0.0292483 -0.304958
0.00348564 -0.139129
0.0118841 -0.159264
-0.0498074 -0.267331
-0.0460523 -0.289907
0.00150342 -0.130339
0.00576782 -0.153096
0.000346301 -0.312756
-0.00416283 -0.312776
-0.00183126 -0.130252
-0.00292486 -0.131398
-0.0240538 -0.304613
-0.0194791 -0.308083
0.00246919 -0.27638
-0.00486179 -0.282861
-0.0199202 -0.0582508
-0.0155749 -0.0566363
-0.0221884 -0.299034
-0.017164 -0.302771
0.029052 -0.261012
0.0300526 -0.270689
0.0241035 -0.0645345
0.0219947 -0.0773786
-5.39143e-05 -0.306174
0.000762163 -0.306028
0.017007 -0.148876
0.0230798 -0.176876
-0.00784688 -0.0464028
-0.0038406 -0.0463043
0.0202598 -0.307564
0.0175518 -0.307267
-0.024798 -0.0242185
-0.0137524 -0.0117646
0.0126433 -0.161851
0.0146644 -0.174271
-0.0215077 -0.314153
-0.0315601 -0.300424
-0.025609 -0.204217
-0.0217979 -0.177212
-0.0142497 -0.320545
-0.0119322 -0.320014
-0.0285923 -0.29249
-0.031839 -0.284554
-0.000113097 -0.306645
0.000277912 -0.306472
-0.0114816 -0.316224
-0.011636 -0.318444
0.0190345 -0.157222
0.0241368 -0.183063
-0.0203206 -0.305899
-0.020331 -0.308247
-0.0190041 -0.191337
-0.011833 -0.172431
-0.0331372 -0.229578
-0.0337591 -0.24009
-0.00816389 -0.300284
-0.0120152 -0.294099
0.00723018 -0.279919
0.0157144 -0.283659
-0.00105733 -0.320827
-0.00108577 -0.31822
-0.00127351 -0.305916
-0.00220672 -0.305838
0.0354417 -0.293293
0.0375956 -0.285831
0.0140104 -0.301515
0.0180102 -0.297252
-0.0329329 -0.248055
-0.03333 -0.235588
0.0275689 -0.181578
0.00470241 -0.180923
0.0282656 -0.263743
0.0279972 -0.274957
0.00494131 -0.301372
0.00562922 -0.295536
-0.026804 -0.295499
-0.0222272 -0.300098
-0.0163475 -0.311342
-0.0185398 -0.308451
0.0169678 -0.306306
0.0209115 -0.305495
-0.0268363 -0.305023
-0.0255308 -0.304133
0.0146346 -0.311279
0.0144731 -0.313149
-0.0387594 -0.280823
-0.0361085 -0.291242
-0.000730175 -0.314898
-0.00152129 -0.315746
-0.00877032 -0.28891
-0.00319262 -0.293962
-0.0189383 -0.186066
-0.0102009 -0.164036
0.0326814 -0.252709
0.0416891 -0.23455
-0.0354784 -0.292967
-0.0388277 -0.28363
-0.0282028 -0.303495
-0.023879 -0.309069
-0.00172708 -0.332462
-0.00825396 -0.327934
-0.0285394 -0.286492
-0.0292307 -0.278849
-0.00985515 -0.128741
-0.00768192 -0.133915
0.0336036 -0.259842
0.0321823 -0.247554
0.034302 -0.232857
0.0366576 -0.249877
-0.00891856 -0.307751
-0.0142475 -0.305943
-0.0398884 -0.242372
-0.0307112 -0.221116
-0.018833 -0.276107
-0.0137265 -0.287552
0.0170028 -0.304692
0.0155154 -0.303564
0.0322168 -0.299087
0.0312804 -0.300783
0.00288867 -0.102761
0.0104892 -0.0888083
-0.0331364 -0.22522
-0.0331799 -0.2473
-0.0104415 -0.31877
-0.0105445 -0.316484
0.014792 -0.288894
0.0198021 -0.282343
-0.0379622 -0.281183
-0.0366432 -0.279668
-0.0213582 -0.304276
-0.0207827 -0.302132
-0.0257434 -0.0568413
-0.0255354 -0.0659639
0.00496073 -0.252459
-0.00275318 -0.238355
-0.0164682 -0.302155
-0.0213796 -0.297755
-0.0248072 -0.299015
-0.0200044 -0.303018
-0.00758252 -0.0146218
-0.00852299 -0.028232
-0.00119037 -0.187315
0.00395792 -0.220747
0.0048855 -0.224817
0.0106756 -0.198736
0.00303169 -0.0462887
-0.00381814 -0.0805559
-0.00742789 -0.312947
-0.0035504 -0.313802
0.027314 -0.239574
0.0260854 -0.257309
-0.00728476 -0.108568
0.00203994 -0.0818782
0.0583101 -0.274578
0.0435061 -0.245155
-0.00194762 -0.304273
-0.000570636 -0.30636
-0.025001 -0.0255719
-0.0214974 -0.0259465
-0.0188555 -0.0622289
-0.0149094 -0.0828682
-0.0169165 -0.0799324
-0.0170802 -0.0898212
0.0150587 -0.214604
0.0173143 -0.185802
-0.00935019 -0.298151
-0.00484341 -0.303015
-0.00481651 -0.0814437
-0.00869515 -0.12807
-0.011844 -0.305628
-0.0164455 -0.30453
0.032255 -0.222806
0.0323769 -0.22939
0.0527028 -0.263476
0.0420665 -0.244867
0.00327262 -0.145039
0.0127494 -0.170665
0.0264685 -0.307523
0.0224246 -0.311429
-0.0093048 -0.161913
-0.00285022 -0.13942
-0.00450535 -0.315948
-0.00748146 -0.315168
-0.00565586 -0.316493
-0.00367483 -0.316037
-0.0154663 -0.321619
-0.00943268 -0.326804
0.00376694 -0.0579491
-0.00332366 -0.0894193
-0.0330443 -0.290189
-0.0360103 -0.281275
0.0409729 -0.265819
0.0421462 -0.261192
-0.0371515 -0.290654
-0.0383696 -0.285681
-0.0148657 -0.287454
-0.0195598 -0.291857
0.00357334 -0.071934
-0.00359024 -0.0265691
0.0334818 -0.287525
0.0302333 -0.295443
-0.0139864 -0.285056
-0.00836281 -0.277535
-0.00416518 -0.234307
-0.00815533 -0.252055
-0.00969675 -0.0111572
-0.000691584 -0.00079248
-0.01715 -0.309351
-0.0143982 -0.308951
0.0318988 -0.299852
0.0258767 -0.309325
-0.0385316 -0.248689
-0.0355168 -0.236897
-0.0126584 -0.104039
-0.0048593 -0.125317
0.030755 -0.222676
0.0287058 -0.223792
0.0244727 -0.310066
0.0276258 -0.304755
0.0334114 -0.297238
0.0375088 -0.290372
-0.0263284 -0.309359
-0.0307152 -0.30229
-0.00636766 -0.0177161
-0.0015376 -0.00499381
-0.00310654 -0.305806
-0.00156639 -0.306311
0.0112614 -0.254886
0.00450281 -0.244907
0.0112808 -0.327502
0.0151754 -0.322799
-0.0103105 -0.296616
-0.0113561 -0.289386
-0.0311479 -0.301814
-0.0398932 -0.287915
0.00217113 -0.318383
0.00581518 -0.319462
0.00637487 -0.125071
0.0145096 -0.145595
0.0244933 -0.0447237
0.0241611 -0.0322573
-0.0404598 -0.285723
-0.0434472 -0.272186
0.018483 -0.285317
0.0212278 -0.286395
0.0236078 -0.214168
0.0267249 -0.232791
-0.00232638 -0.314714
-0.00554885 -0.314867
-0.0372198 -0.234913
-0.0282062 -0.215141
0.00453393 -0.0655394
0.0084881 -0.111566
-0.00089061 -0.305581
-0.00439206 -0.303974
0.0220504 -0.191335
0.028218 -0.208012
-0.0316121 -0.0393371
-0.0278954 -0.0369976
0.000442313 -0.0579391
-0.000919382 -0.0691609
-0.00725806 -0.321892
-0.00462162 -0.326797
0.0303658 -0.276907
0.0265022 -0.281972
0.00535665 -0.00503809
0.0153168 -0.0175315
0.000495296 -0.315625
0.00106133 -0.31472
-0.0090201 -0.293061
-0.00551192 -0.29951
0.014227 -0.272564
0.01877 -0.260852
-0.00478716 -0.316788
-0.00219527 -0.317429
-0.0304397 -0.0521823
-0.0323831 -0.0427396
0.00575917 -0.0511206
0.00600923 -0.0256478
0.00144053 -0.323164
0.00340279 -0.326135
-0.018064 -0.316554
-0.0170063 -0.319376
0.0346202 -0.295215
0.0326962 -0.299099
-0.0193615 -0.316932
-0.0216474 -0.315302
0.0500915 -0.26364
0.0378208 -0.229796
-0.00545818 -0.317813
-0.00577587 -0.320356
0.0109273 -0.133879
0.0151624 -0.147225
-0.0246182 -0.201293
-0.0312287 -0.219629
0.0192338 -0.317451
0.0125044 -0.324841
0.0277395 -0.2022
0.0213799 -0.178993
-0.0301326 -0.0370304
-0.0262399 -0.0348031
0.00425903 -0.309174
1.30381e-05 -0.308706
-0.0157901 -0.183053
-0.0247147 -0.206349
0.0164909 -0.262132
0.0207014 -0.247684
0.005514 -0.306411
0.00884243 -0.304709
-0.0339551 -0.277904
-0.0310545 -0.280668
-0.0172569 -0.306298
-0.0137318 -0.309475
0.0276812 -0.305105
0.0238418 -0.308682
-0.0122106 -0.312708
-0.0111943 -0.311471
-0.00867164 -0.169722
-0.0249431 -0.202894
0.024737 -0.195547
0.0204215 -0.194192
-0.0245535 -0.305652
-0.0203151 -0.309777
0.0233191 -0.212746
0.0238638 -0.191006
0.00277036 -0.31652
0.00361492 -0.317087
0.0274458 -0.242023
0.0294408 -0.254866
-0.00681286 -0.013377
-0.00179726 -0.00442437
-0.0254229 -0.190204
-0.0292157 -0.214143
-0.0144365 -0.0477542
-0.0118464 -0.0695163
-0.00407948 -0.264477
0.0047311 -0.270548
-0.00800684 -0.303679
-0.00322815 -0.305647
0.013039 -0.233897
0.0123709 -0.209215
0.0124025 -0.140336
0.00899808 -0.110816
-0.00156751 -0.30562
0.000809578 -0.306069
0.0250438 -0.250084
0.0196886 -0.245044
-0.0193153 -0.0170896
-0.0177194 -0.0176999
-0.00744904 -0.321598
-0.0080146 -0.318472
0.0164998 -0.301027
0.021709 -0.296706
0.00358548 -0.30924
-0.000977993 -0.310593
-0.0153752 -0.311446
-0.0110706 -0.31232
0.000316311 -0.316756
-0.000870944 -0.316556
0.00657681 -0.178804
0.0165311 -0.17618
0.0111145 -0.311782
0.0148049 -0.309499
-0.0065672 -0.307755
-0.00216957 -0.309
-0.0132101 -0.315788
-0.0108496 -0.318618
0.00694095 -0.305214
0.0095937 -0.303513
-0.00322798 -0.0364671
-0.00142024 -0.00617918
0.00204202 -0.315377
0.0013052 -0.314585
0.00314294 -0.314413
0.00663601 -0.313973
-0.0238323 -0.19711
-0.0187285 -0.193607
-0.00514337 -0.305077
-0.0014638 -0.305927
0.0111345 -0.327666
0.0136959 -0.324408
-0.00456609 -0.306258
-0.00141613 -0.307235
0.0392177 -0.280983
0.0365875 -0.288011
-0.0267854 -0.03961
-0.0293786 -0.0350844
0.0325056 -0.298651
0.0265037 -0.306945
0.0319154 -0.260851
0.0301431 -0.273773
0.0332078 -0.251701
0.0329057 -0.23545
-0.0233287 -0.190019
-0.0262128 -0.203034
0.0161943 -0.307422
0.0161855 -0.305232
0.00715575 -0.301609
0.00403989 -0.302726
0.0124648 -0.301326
0.0080648 -0.303601
-0.0174601 -0.266769
-0.00418776 -0.266271
0.0202829 -0.0244611
0.0268455 -0.0352118
0.0176539 -0.298205
0.0212223 -0.296623
-0.0174133 -0.302728
-0.0131371 -0.303945
-0.0267339 -0.295624
-0.0304154 -0.292053
-0.0156936 -0.0953402
-0.0101117 -0.110264
-0.0356941 -0.289906
-0.0334058 -0.292784
0.00736912 -0.312036
0.00773575 -0.310237
0.00969184 -0.0195509
0.0148607 -0.0297401
0.0212448 -0.315003
0.0121991 -0.326354
-0.010289 -0.323923
-0.0129097 -0.319569
-0.0193798 -0.158574
-0.0206214 -0.172829
3.92859e-05 -0.316874
0.000557426 -0.316996
-0.00176049 -0.115319
-0.00387308 -0.09709
-0.0310425 -0.218927
-0.0345438 -0.234437
-0.00388513 -0.318348
-0.00188601 -0.32135
0.00337105 -0.0883615
0.0107426 -0.0717555
-0.00849104 -0.00942892
-0.00967659 -0.00892522
-0.0213746 -0.18857
-0.0132252 -0.163935
-0.000832324 -0.00150262
-0.000528251 -0.000627798
0.0473732 -0.278027
0.0452591 -0.273769
-0.00493642 -0.106438
0.00306739 -0.132382
0.0315645 -0.249858
0.0241846 -0.264386
-0.0377393 -0.261924
-0.0377392 -0.273887
-0.00415317 -0.310265
-0.000125369 -0.30907
0.0367879 -0.28369
0.0384503 -0.272689
-0.0391515 -0.25334
-0.0360282 -0.238564
0.00382425 -0.127999
0.00703049 -0.120488
-0.00425182 -0.298887
-0.00383095 -0.303587
0.0124163 -0.324271
0.00733143 -0.327623
0.000880831 -0.314031
-4.18137e-05 -0.312901
0.0309749 -0.296075
0.026854 -0.30157
-0.00298898 -0.305788
-0.000436695 -0.306112
0.00423699 -0.305259
0.00647 -0.304326
-0.0101905 -0.313179
-0.00615425 -0.314135
0.038407 -0.276151
0.0368182 -0.286648
0.028014 -0.304286
0.0236259 -0.310274
0.0182942 -0.0882234
0.0183746 -0.0872997
-0.0223731 -0.0326839
-0.0259074 -0.0449954
0.0276136 -0.306345
0.0308851 -0.300215
-0.0248219 -0.307653
-0.0205577 -0.312309
0.0238142 -0.208083
0.0410242 -0.182097
-0.0379684 -0.264531
-0.0366687 -0.252497
-0.00594332 -0.113786
0.00338641 -0.138224
-0.00191406 -0.305447
0.0006255 -0.306055
-0.00564596 -0.0588806
0.000429446 -0.0861624
-0.012342 -0.0982664
-0.0157585 -0.0792403
0.0295718 -0.302185
0.0254505 -0.308677
-0.0179335 -0.308591
-0.0155912 -0.311423
-0.0345203 -0.23143
-0.0395335 -0.247575
0.0157031 -0.0795339
0.0231504 -0.0683753
-0.00885606 -0.136472
-0.000283806 -0.116002
0.0292474 -0.303193
0.0333453 -0.295529
0.0278817 -0.0421827
0.0269794 -0.0561281
0.0131129 -0.101129
0.0194169 -0.0807137
0.0242449 -0.311699
0.0313094 -0.301394
0.0272308 -0.199466
0.0409389 -0.239794
0.0298466 -0.212687
0.026812 -0.199145
0.0328019 -0.273829
0.0294162 -0.282748
-0.0368848 -0.244593
-0.0370541 -0.254997
-0.000269187 -0.307826
0.000723433 -0.309116
0.0250481 -0.196405
0.0288193 -0.211297
0.0240878 -0.0388282
0.024162 -0.0544646
0.000578921 -0.316943
0.00132572 -0.316552
-0.0136619 -0.314772
-0.0179313 -0.312982
-0.0237839 -0.242602
-0.018024 -0.255926
-0.0228712 -0.180795
-0.0259489 -0.20782
-0.00939537 -0.316949
-0.00777824 -0.319385
-0.00279663 -0.117135
0.00302092 -0.0903177
-0.0138322 -0.0718595
-0.0171947 -0.0508409
0.00346382 -0.315671
0.0063377 -0.315119
-0.00462699 -0.0876159
-0.00874625 -0.127885
-0.0345087 -0.296147
-0.0410005 -0.282524
-0.000871667 -0.307289
0.00482714 -0.30652
0.00408395 -0.13448
0.0108057 -0.14718
-0.0134594 -0.124525
-0.0216666 -0.176093
0.00727583 -0.103024
0.0087467 -0.114043
0.0248613 -0.296559
0.0289847 -0.292984
0.0152693 -0.312849
0.0183811 -0.312578
0.03344 -0.226373
0.0261513 -0.20441
-0.00304714 -0.300776
-0.00276004 -0.304774
0.0213973 -0.314552
0.0211736 -0.313239
-0.00677523 -0.315993
-0.00968799 -0.316461
-0.0120896 -0.292226
-0.0144176 -0.282978
0.00587897 -0.0169077
0.00532201 -0.0285196
-0.00804306 -0.312776
-0.00439667 -0.313846
0.0201942 -0.316874
0.0204154 -0.31588
-0.0136495 -0.309775
-0.0140943 -0.307519
-0.0320581 -0.222586
-0.0364039 -0.241096
0.0205218 -0.310622
0.0177356 -0.314382
-0.0338746 -0.294966
-0.0309473 -0.299646
0.00225145 -0.310613
-0.000574796 -0.309379
-0.027683 -0.278416
-0.0305138 -0.278487
0.0259889 -0.300629
0.0216831 -0.303493
0.00232688 -0.305154
0.0030316 -0.303377
0.0371799 -0.23713
0.0282282 -0.213949
0.0245269 -0.311286
0.0238161 -0.312368
-0.0262493 -0.306647
-0.0265157 -0.304119
0.0069979 -0.108154
-0.000837088 -0.133533
-0.0234514 -0.311891
-0.0211654 -0.315553
-0.0328796 -0.0399317
-0.0310651 -0.0493296
0.0103132 -0.11794
0.00417017 -0.0897125
0.0377321 -0.261235
0.0377825 -0.250304
-0.000714987 -0.306262
-0.0026012 -0.304154
0.00552076 -0.284961
0.00456549 -0.274622
-0.00206577 -0.127998
-0.0104393 -0.10317
0.0202296 -0.312581
0.0184229 -0.316156
-0.0152023 -0.142936
-0.00862031 -0.110045
0.00792239 -0.318535
0.0121157 -0.316973
0.00249804 -0.304347
0.000322739 -0.306422
0.0206094 -0.304466
0.0243975 -0.303091
0.0260365 -0.298704
0.0256689 -0.302292
0.0278859 -0.293758
0.0316759 -0.289252
-0.00425414 -0.225681
-0.00103241 -0.247149
-0.0355755 -0.291757
-0.0385938 -0.283581
0.0227713 -0.175672
0.0236716 -0.19473
0.00925659 -0.324823
0.0113824 -0.320522
0.0364564 -0.245963
0.0375257 -0.245357
-0.0121455 -0.0127537
-0.00126743 -0.00124716
0.0231034 -0.0300221
0.0275945 -0.0312139
-0.00723832 -0.304442
-0.00334442 -0.30557
-0.00167632 -0.316748
-0.000338202 -0.317035
0.0216493 -0.0261905
0.0140063 -0.016565
0.034651 -0.2587
0.0350297 -0.24519
0.0103462 -0.295354
0.00441658 -0.294376
0.0274666 -0.0572822
0.025295 -0.0523467
0.000533966 -0.299539
-0.00040395 -0.304274
0.000829022 -0.315606
0.00212929 -0.315989
0.0169009 -0.302953
0.0117526 -0.304878
0.035955 -0.238846
0.0330809 -0.225558
-0.0307444 -0.301635
-0.0342328 -0.293447
0.00923553 -0.138672
0.0171645 -0.162959
0.0343308 -0.184594
0.0311021 -0.212216
-0.0257669 -0.293335
-0.0231149 -0.293561
-0.0347629 -0.232311
-0.0371684 -0.240888
0.0416431 -0.270044
0.0425607 -0.27343
0.0462732 -0.254894
0.0484095 -0.277915
-0.00953756 -0.0990087
-0.00237339 -0.123507
-0.0334224 -0.274123
-0.0325913 -0.265565
-0.0307451 -0.2182
-0.0274191 -0.211342
0.0177098 -0.186743
0.0220145 -0.198855
0.0177387 -0.158708
0.00964473 -0.135513
0.00311352 -0.316301
0.00453032 -0.316707
-0.017113 -0.313875
-0.0176887 -0.311577
-0.00142848 -0.31917
-0.00313721 -0.322402
0.0149319 -0.312732
0.0115167 -0.312889
-0.0122064 -0.308288
-0.00749798 -0.308587
-0.0159845 -0.319957
-0.0146145 -0.319093
-0.00325217 -0.207688
-0.0100242 -0.168703
0.00385647 -0.0379675
0.00166381 -0.00922945
-0.00215463 -0.289159
-0.00506685 -0.295041
0.0317355 -0.26423
0.0341937 -0.266953
0.0121878 -0.308862
0.0108034 -0.311083
0.0284249 -0.056106
0.0318479 -0.0481035
-0.0321856 -0.225706
-0.0314557 -0.230506
-0.0398201 -0.282936
-0.0351886 -0.294931
-0.0004439 -0.317662
-0.00216732 -0.317294
-0.0173878 -0.286276
-0.0182969 -0.275484
-0.0346031 -0.244546
-0.0331264 -0.229602
0.00504621 -0.316862
0.00340681 -0.316345
0.00972519 -0.0195735
0.0127104 -0.0393872
0.0286675 -0.21206
0.0218891 -0.190581
0.0265596 -0.306862
0.0369992 -0.292874
0.0237483 -0.312437
0.0178398 -0.319678
-0.000937528 -0.280858
0.00421533 -0.288804
0.021347 -0.30314
0.0193072 -0.306759
0.00149607 -0.272796
0.000607241 -0.284506
-0.00163724 -0.285506
0.00645679 -0.281179
-0.0257993 -0.308912
-0.0247429 -0.311044
0.0071833 -0.305078
0.00484857 -0.305226
-0.00669723 -0.127447
-0.014412 -0.147998
0.00640849 -0.129774
0.012489 -0.154536
0.00235748 -0.314928
0.00363776 -0.315464
-0.0294699 -0.275018
-0.0259463 -0.276849
0.00900048 -0.314465
0.00800568 -0.315864
-0.00869055 -0.303029
-0.00737693 -0.304466
0.0416062 -0.270954
0.0400478 -0.272695
0.0241246 -0.184892
0.0173274 -0.162292
0.0237749 -0.0434387
0.0211226 -0.0605729
0.0314087 -0.297892
0.0312964 -0.294837
-0.0348548 -0.286774
-0.033541 -0.293685
0.013086 -0.0105743
0.0206513 -0.0211337
-0.0271572 -0.255508
-0.0285095 -0.237258
-0.0351012 -0.233023
-0.0297144 -0.214321
0.0218156 -0.281508
0.0242613 -0.269982
-0.0161075 -0.233557
-0.00822409 -0.226086
0.0316839 -0.268728
0.0283635 -0.27035
0.0304461 -0.298294
0.029569 -0.296332
-0.0239889 -0.201688
-0.027926 -0.189105
-0.0250823 -0.207138
-0.0209618 -0.196332
0.0131992 -0.282057
0.017363 -0.270805
-0.0160763 -0.318268
-0.0168043 -0.315502
-0.0196816 -0.275055
-0.0149055 -0.263604
-0.0168228 -0.321415
-0.00766977 -0.332136
0.0202104 -0.24418
0.00409475 -0.246406
-0.0294384 -0.223751
-0.0269464 -0.231459
-0.0253518 -0.303835
-0.0287856 -0.301227
-0.0101254 -0.284805
-0.00188501 -0.282267
0.00783091 -0.303808
0.00414751 -0.305148
0.0165506 -0.313978
0.0141293 -0.317408
0.0199318 -0.0454731
0.0175593 -0.0287946
0.00645996 -0.113498
0.00393934 -0.128642
-0.0124052 -0.301417
-0.0116864 -0.300426
0.028946 -0.208664
0.0301777 -0.2152
0.0280535 -0.257975
0.0277658 -0.270767
-0.0225773 -0.314426
-0.0291013 -0.305186
-0.0127603 -0.316941
-0.0102933 -0.320295
0.0349422 -0.294122
0.0341764 -0.293986
0.0310199 -0.226921
0.0278385 -0.205094
-0.0133767 -0.284049
-0.00890681 -0.274916
0.0428481 -0.256847
0.0369062 -0.23726
0.0130898 -0.165382
0.0229998 -0.125816
-0.009082 -0.330514
-0.0106695 -0.328336
-0.00501465 -0.316984
-0.00375544 -0.31629
0.0187929 -0.19219
0.0221902 -0.215395
0.0146396 -0.145482
0.0170557 -0.147511
-0.0101221 -0.329347
-0.00737337 -0.332213
0.0217947 -0.314256
0.0170553 -0.318592
0.00507406 -0.3071
0.00326904 -0.308719
-0.00905496 -0.110427
-0.00160916 -0.082014
-0.0195951 -0.160442
-0.0227413 -0.174563
-0.0304246 -0.301969
-0.0329094 -0.295551
-0.0248277 -0.193624
-0.0231424 -0.192184
-0.044457 -0.281824
-0.0316952 -0.302705
-0.0249621 -0.307081
-0.0265605 -0.303072
0.0167241 -0.245805
0.0191026 -0.223743
0.00567061 -0.331422
0.00397466 -0.330665
0.0430422 -0.263472
0.041581 -0.266027
0.0108473 -0.306091
0.00593747 -0.306783
0.037552 -0.290445
0.0416121 -0.279385
-0.0130707 -0.256193
-0.00512532 -0.254693
0.0183938 -0.27858
0.0272755 -0.265147
0.00263155 -0.0157729
0.000191719 -0.0566354
0.00149084 -0.318222
0.00125504 -0.322416
-0.0195267 -0.301294
-0.020658 -0.302818
0.0218797 -0.198524
0.0314522 -0.222551
-0.0257664 -0.0653912
-0.0247647 -0.0678011
-0.0188973 -0.189969
-0.0182806 -0.184085
-0.00292762 -0.00331418
-0.000968046 -0.000892535
-0.0327251 -0.226627
-0.0351397 -0.243106
-0.00200518 -0.306005
-0.000231693 -0.306959
-0.00211254 -0.298345
-0.00250879 -0.30325
-0.0122266 -0.283226
-0.00473184 -0.27727
-0.0298101 -0.0393977
-0.031993 -0.0354051
0.0123346 -0.0894789
0.00975376 -0.106913
0.0118621 -0.286922
0.0123644 -0.27647
-0.00147483 -0.295194
0.00183407 -0.300246
0.0370585 -0.2369
0.033586 -0.22646
0.00119174 -0.305607
0.00163561 -0.302312
0.0191319 -0.0439265
0.0235812 -0.0433377
0.0188842 -0.0243401
0.0118321 -0.0153163
0.00222457 -0.00194395
0.0114979 -0.00965491
0.0449825 -0.257268
0.0429417 -0.256673
-0.0101707 -0.277904
-0.0148573 -0.281836
0.00147041 -0.0826682
-0.00554061 -0.0497003
-0.00362046 -0.333512
-0.00705724 -0.328261
-0.00902698 -0.108678
-0.0013131 -0.0787289
0.0167582 -0.0931501
0.0141497 -0.0970729
-0.00585431 -0.289652
0.000212327 -0.290439
0.0420208 -0.262852
0.041126 -0.272721
0.0102771 -0.328644
0.0179239 -0.319727
0.0204062 -0.165072
0.0257956 -0.192021
-0.0181006 -0.078653
-0.0168322 -0.0676686
0.00494233 -0.327853
0.010725 -0.322233
-0.0259942 -0.308146
-0.0255659 -0.309917
0.0213245 -0.177943
0.0179396 -0.186302
-0.028398 -0.215545
-0.0249136 -0.205224
0.00804979 -0.0138415
0.0137219 -0.0234933
-0.00104712 -0.315219
-0.00332309 -0.315656
-0.00185719 -0.0988688
-0.00739709 -0.101906
-0.023456 -0.26813
-0.0278899 -0.266036
-0.000278126 -0.297467
-0.00521356 -0.296528
0.00151872 -0.304608
0.00453203 -0.301125
0.00813606 -0.313787
0.00837405 -0.314899
0.0202049 -0.0685468
0.0246574 -0.0519135
0.0267314 -0.19803
0.0316253 -0.21993
0.0182549 -0.155565
0.0136448 -0.139261
-0.0179129 -0.311164
-0.0155442 -0.313912
-0.00976353 -0.299893
-0.0113394 -0.294265
-0.0366105 -0.238775
-0.0312182 -0.219682
-0.0230373 -0.312845
-0.0277815 -0.306132
0.0092351 -0.189809
-0.00225167 -0.213034
-0.0130784 -0.292855
-0.0160333 -0.29353
-0.00593226 -0.295758
-0.0106104 -0.289815
-0.003914 -0.30559
-0.00910495 -0.303896
-0.000789734 -0.314059
0.00295398 -0.313827
0.00569084 -0.305318
0.00816761 -0.305346
0.0320958 -0.221998
0.0364187 -0.238353
0.00351351 -0.0237752
-0.00200811 -0.0447771
0.0211239 -0.0238395
0.0271641 -0.0356169
0.00207323 -0.315083
0.00301736 -0.315677
0.0303138 -0.218022
0.0320828 -0.222583
-0.00439085 -0.15089
-0.0143349 -0.177778
-0.00592847 -0.299139
-0.00288387 -0.303728
-0.00749056 -0.307492
-0.012147 -0.307084
-0.0123571 -0.12168
-0.00409619 -0.0896713
-0.00469115 -0.113032
0.00370881 -0.130342
-0.000797187 -0.317182
-0.00205916 -0.316635
0.000741838 -0.30585
-8.0502e-05 -0.306476
-0.00475075 -0.315184
-0.00171947 -0.315451
0.00122586 -0.131499
0.00603993 -0.119199
0.029415 -0.203428
0.0264687 -0.164925
0.000427559 -0.316834
0.00121129 -0.316752
0.0130181 -0.299767
0.00861501 -0.303447
0.0083872 -0.32958
0.0154182 -0.322437
-0.0539611 -0.271258
-0.0427953 -0.246558
-0.0169998 -0.186632
-0.00760288 -0.160801
0.00302419 -0.00621846
0.00610742 -0.00849913
-0.0290232 -0.304163
-0.0412413 -0.287943
0.0377285 -0.288093
0.0390938 -0.282067
0.00450703 -0.315365
0.00226277 -0.316049
0.0336946 -0.29676
0.0355592 -0.293295
-0.0254645 -0.0634009
-0.0291487 -0.049295
0.024048 -0.265654
0.0189426 -0.27193
0.00250603 -0.332461
0.00828322 -0.325859
0.0289382 -0.214069
0.0344524 -0.229704
0.00683016 -0.15448
0.00547558 -0.154782
-7.30323e-05 -0.30696
-0.000431087 -0.306053
0.00539625 -0.308881
0.0105162 -0.307141
0.0232813 -0.290374
0.0184172 -0.295897
0.00534602 -0.299108
0.00946819 -0.292841
-0.0269389 -0.307905
-0.0328243 -0.298799
0.00641998 -0.287038
0.0122947 -0.28442
-0.0162125 -0.322191
-0.0234075 -0.31335
-0.0132914 -0.285819
-0.0133599 -0.292977
0.0292783 -0.0565033
0.0265645 -0.0586605
0.0141109 -0.302999
0.0194485 -0.299582
-0.00358061 -0.316034
-0.00611275 -0.316262
-0.023639 -0.203487
-0.0298835 -0.218741
-0.0314682 -0.0419395
-0.027899 -0.0391776
0.00526332 -0.0517924
0.00953847 -0.0458446
0.0235661 -0.277633
0.0215533 -0.286666
0.00399088 -0.300191
0.00842096 -0.294792
0.0397918 -0.250071
0.0417673 -0.265653
0.0155865 -0.303492
0.0105504 -0.305095
0.0113306 -0.167762
0.0177577 -0.187362
0.0085863 -0.107764
0.00612691 -0.0970671
0.0195141 -0.191157
0.00891536 -0.161731
0.000376713 -0.315317
0.00203012 -0.314388
0.0126648 -0.160098
0.0238816 -0.173185
0.0086901 -0.323052
0.00539151 -0.328299
0.003193 -0.146021
-0.00599641 -0.121886
0.0160818 -0.182106
0.00930878 -0.165454
-0.00860367 -0.154886
-0.00428533 -0.135089
0.0249632 -0.0632025
0.0249553 -0.0695052
-0.0277538 -0.307046
-0.0200405 -0.317013
-0.0140895 -0.014092
-0.0182621 -0.016253
0.032254 -0.223554
0.0244896 -0.197164
-0.0172145 -0.0313537
-0.0217466 -0.0425495
0.012066 -0.0765151
0.0129416 -0.057801
-0.00184693 -0.305872
0.000166844 -0.305957
0.0061853 -0.0839562
-0.0194364 -0.0930758
0.0155397 -0.322471
0.0144273 -0.323363
-0.0292308 -0.0492849
-0.0320722 -0.0460784
-0.0397118 -0.272127
-0.0379485 -0.283473
-0.00304676 -0.305631
0.00103519 -0.305858
0.0224379 -0.0277145
0.0282581 -0.0337071
0.00436219 -0.00480859
0.00689479 -0.00932158
-0.0105269 -0.306884
-0.0152381 -0.305977
-0.0108364 -0.00970333
-0.0215067 -0.0207655
0.0109925 -0.327769
0.0133793 -0.324554
0.0366178 -0.290828
0.0316757 -0.300861
-0.0202323 -0.313257
-0.0206516 -0.310864
0.00611308 -0.313962
0.00633018 -0.312657
-0.0119207 -0.314937
-0.00840401 -0.316362
0.0149583 -0.29875
0.0159377 -0.295148
0.00275305 -0.305559
0.00414467 -0.305045
0.0189659 -0.0261424
0.0213458 -0.039622
-0.00297503 -0.0696959
-0.00839754 -0.0430531
0.0334639 -0.292913
0.0327598 -0.29015
0.00053629 -0.316409
0.000188958 -0.316921
-0.00277073 -0.30584
0.00114723 -0.30607
-0.00121991 -0.263057
0.00823718 -0.259636
0.0210638 -0.0469896
0.019746 -0.0653764
-0.00214705 -0.316985
-0.00286554 -0.316261
0.012861 -0.16629
0.0164768 -0.170067
-0.0101689 -0.0590947
-0.0110622 -0.0370492
0.0341678 -0.296129
0.0346185 -0.295179
-0.022732 -0.307212
-0.018326 -0.310536
0.00147429 -0.143715
0.0111963 -0.170174
0.0187189 -0.08388
0.0343281 -0.145097
-0.0217297 -0.299535
-0.0172456 -0.301872
-0.0370459 -0.27728
-0.0344647 -0.284707
0.00847994 -0.304425
0.00656953 -0.304532
-0.00681308 -0.106006
-0.0046331 -0.15464
0.00364241 -0.305299
-0.000286961 -0.305989
0.0113041 -0.0993379
0.018017 -0.0779173
0.0457193 -0.206499
0.0299134 -0.166852
-0.00263852 -0.317162
-0.00556519 -0.316723
0.0129884 -0.237381
0.0195285 -0.253927
0.0271934 -0.200661
0.0279466 -0.203743
-0.0165923 -0.320657
-0.0211397 -0.314647
-0.000857653 -0.305504
0.00067595 -0.306268
0.012052 -0.254192
0.0170037 -0.268524
-0.00449901 -0.304791
-0.00236026 -0.305376
-0.00558895 -0.118041
-0.00702454 -0.119421
-0.0042089 -0.297776
0.000409569 -0.299276
-0.0133982 -0.301428
-0.0185081 -0.297298
-0.0231881 -0.293536
-0.0183047 -0.298503
0.0377855 -0.275447
0.0387494 -0.263354
0.000817416 -0.290194
0.00365655 -0.279566
-0.00516152 -0.0235084
-0.00176658 -0.0291014
0.0161296 -0.302272
0.0212444 -0.299068
-0.0139817 -0.0976069
-0.00561009 -0.119387
0.0131095 -0.138567
0.0157156 -0.140331
-0.0175853 -0.318151
-0.0134967 -0.32042
0.0053949 -0.315106
0.00319555 -0.315942
-0.0318418 -0.240188
-0.0303499 -0.221331
0.0147873 -0.0327421
0.0192094 -0.0413845
7.40386e-05 -0.305865
0.00405867 -0.305539
-0.00958557 -0.31384
-0.00767631 -0.315236
-0.0363236 -0.236561
-0.0417894 -0.255482
-0.00581743 -0.2852
-0.00174713 -0.293158
-0.00375339 -0.316398
-0.00687131 -0.316094
-0.00400892 -0.316393
-0.00719472 -0.315984
0.0274145 -0.201955
0.0229414 -0.175919
0.0381062 -0.237178
0.0485875 -0.258446
-0.00581921 -0.304695
-0.002644 -0.305777
0.0112426 -0.323803
0.00927037 -0.322879
0.0100771 -0.124553
0.0172516 -0.152771
-0.0120289 -0.317203
-0.0156149 -0.31681
0.0333211 -0.286748
0.0350728 -0.286925
0.0341767 -0.262475
0.0345055 -0.273245
-0.0383272 -0.274575
-0.0369599 -0.285241
0.0171675 -0.281286
0.0141128 -0.290772
0.000999018 -0.316884
0.00208477 -0.316588
-0.0234129 -0.221956
-0.0278521 -0.230431
0.0329175 -0.0420852
0.0299568 -0.0402221
0.0232011 -0.0682255
0.0199832 -0.0828052
-0.00835709 -0.29207
-0.0133341 -0.290245
-0.0102479 -0.302535
-0.0139938 -0.300857
-0.00386852 -0.315628
-0.00680225 -0.315701
-0.0192908 -0.0217361
-0.016523 -0.0222579
-0.010884 -0.16502
-0.00622001 -0.156914
0.043795 -0.269288
0.0405576 -0.284128
-0.0225964 -0.309909
-0.023422 -0.306979
-0.0326441 -0.279079
-0.0352252 -0.270277
-0.0226706 -0.298064
-0.0269178 -0.291785
-0.013056 -0.302028
-0.0158592 -0.29833
0.0285859 -0.304733
0.026698 -0.306738
-0.0118772 -0.310046
-0.016819 -0.308047
0.0267898 -0.240506
0.0176248 -0.218087
-0.00745539 -0.0584708
-0.00617786 -0.0428137
-0.0105464 -0.143083
-0.022375 -0.164579
0.0019928 -0.134648
-0.0038834 -0.149422
0.01233 -0.0922704
0.00468937 -0.116349
-0.0299213 -0.213997
-0.024487 -0.191715
-0.0352198 -0.253417
-0.0360252 -0.265783
0.0388884 -0.262311
0.0399063 -0.268509
-0.0131615 -0.304909
-0.0122138 -0.307049
-0.00738194 -0.31746
-0.00393647 -0.317361
-0.0297617 -0.269279
-0.0306178 -0.255649
-0.0385155 -0.289658
-0.0417256 -0.279643
-0.000284852 -0.307042
0.000119886 -0.306762
0.0395991 -0.269555
0.0408433 -0.271179
0.000659857 -0.307657
0.000169042 -0.306739
-0.0191352 -0.181912
-0.016083 -0.149346
-0.0403997 -0.283327
-0.0372438 -0.290448
-0.0251335 -0.310683
-0.032582 -0.299515
-0.00416117 -0.0733363
0.00795124 -0.104912
0.00353515 -0.117984
-0.00401336 -0.0903832
-0.0302862 -0.303212
-0.0356398 -0.294275
0.00797926 -0.331088
0.0125687 -0.325994
-9.98362e-05 -0.135583
-0.00356687 -0.086914
-0.0208636 -0.196372
-0.0202884 -0.19484
-0.0402712 -0.288977
-0.0457652 -0.272761
-0.0145188 -0.24132
-0.00825908 -0.256804
-0.016257 -0.0196296
-0.023269 -0.0272816
0.0167873 -0.0498825
0.0161058 -0.0311467
-0.0158399 -0.320426
-0.0202932 -0.316618
0.0298113 -0.268583
0.0317831 -0.273626
0.0179624 -0.17822
0.0261869 -0.202813
-0.00237779 -0.305877
-0.00422197 -0.305432
-0.0402351 -0.249525
-0.0389298 -0.248117
0.0277416 -0.303515
0.028344 -0.304683
0.012916 -0.312014
0.0101746 -0.311531
-0.0205847 -0.0498023
-0.0206433 -0.0337248
0.00194602 -0.304654
0.00428802 -0.29996
0.00450548 -0.319892
0.00710808 -0.321869
-0.00366983 -0.317053
-0.00648581 -0.316303
-0.000199069 -0.306937
-0.00180427 -0.306245
-0.0172917 -0.230375
-0.0216914 -0.243783
-0.00295612 -0.305539
-0.00180757 -0.304221
0.00270498 -0.0038538
0.0106575 -0.0209092
-0.0453913 -0.246276
-0.0291197 -0.207277
0.0385494 -0.275306
0.0374258 -0.272274
-0.00878596 -0.290967
-0.00800914 -0.298126
0.00576767 -0.307934
0.0112285 -0.306553
0.01146 -0.303282
0.016756 -0.299806
-0.0124912 -0.312617
-0.010348 -0.311827
-0.000971898 -0.0711143
-0.00075238 -0.0803833
-0.0252654 -0.24594
-0.011559 -0.231775
-0.00595854 -0.324639
-0.0120254 -0.325818
-0.0120254 -0.325818
-0.0184006 -0.327365
-0.0184006 -0.327365
-0.0249402 -0.329403
-0.0249402 -0.329403
-0.0315172 -0.332001
-0.0315172 -0.332001
-0.0380353 -0.335131
-0.0380353 -0.335131
-0.044377 -0.33879
-0.044377 -0.33879
-0.0504481 -0.342944
-0.0504481 -0.342944
-0.0561641 -0.347548
-0.0561641 -0.347548
-0.0614475 -0.352545
-0.0614475 -0.352545
-0.0662455 -0.357865
-0.0662455 -0.357865
-0.0705093 -0.363435
-0.0705093 -0.363435
-0.0742106 -0.369179
-0.0742106 -0.369179
-0.0773372 -0.375016
-0.0773372 -0.375016
-0.0798709 -0.380859
-0.0798709 -0.380859
-0.0818352 -0.386659
-0.0818352 -0.386659
-0.0832476 -0.392325
-0.0832476 -0.392325
-0.0841318 -0.3978
-0.0841318 -0.3978
-0.0845317 -0.403047
-0.0845317 -0.403047
-0.0844833 -0.407997
-0.0844833 -0.407997
-0.0840421 -0.41263
-0.0840421 -0.41263
-0.0832446 -0.416931
-0.0832446 -0.416931
-0.0821387 -0.420867
-0.0821387 -0.420867
-0.0807807 -0.424436
-0.0807807 -0.424436
-0.0791984 -0.427646
-0.0791984 -0.427646
-0.0774197 -0.430516
-0.0774197 -0.430516
-0.0754818 -0.433028
-0.0754818 -0.433028
-0.0734143 -0.435208
-0.0734143 -0.435208
-0.0712003 -0.437105
-0.0712003 -0.437105
-0.0688369 -0.438702
-0.0688369 -0.438702
-0.066358 -0.440006
-0.066358 -0.440006
-0.0637231 -0.440995
-0.0637231 -0.440995
-0.060882 -0.441737
-0.060882 -0.441737
-0.0578382 -0.442204
-0.0578382 -0.442204
-0.054578 -0.442282
-0.054578 -0.442282
-0.0509949 -0.441997
-0.0509949 -0.441997
-0.0470907 -0.441372
-0.0470907 -0.441372
-0.0428434 -0.440244
-0.0428434 -0.440244
-0.0381974 -0.438403
-0.0381974 -0.438403
-0.0331223 -0.435903
-0.0331223 -0.435903
-0.0276354 -0.432617
-0.0276354 -0.432617
-0.0216996 -0.428169
-0.0216996 -0.428169
-0.0153723 -0.422421
-0.0153723 -0.422421
-0.00869214 -0.415123
-0.00869214 -0.415123
-0.00158733 -0.405738
-0.00158733 -0.405738
0.00559553 -0.393635
0.00559553 -0.393635
0.0129749 -0.378164
0.0129749 -0.378164
0.0204272 -0.357052
0.0204272 -0.357052
0.0281954 -0.329514
0.0281954 -0.329514
0.0389839 -0.299685
0.0389839 -0.299685
0.0453949 -0.285206
0.0453949 -0.285206
0.0458262 -0.280053
0.0458262 -0.280053
0.0445679 -0.278105
0.0445679 -0.278105
0.0432472 -0.278035
0.0432472 -0.278035
0.0418649 -0.279296
0.0418649 -0.279296
0.0407092 -0.281456
0.0407092 -0.281456
0.0393816 -0.284428
0.0393816 -0.284428
0.0376669 -0.288026
0.0376669 -0.288026
0.0359095 -0.292125
0.0359095 -0.292125
0.0339812 -0.296326
0.0339812 -0.296326
0.0317369 -0.300337
0.0317369 -0.300337
0.02917 -0.304052
0.02917 -0.304052
0.026469 -0.307494
0.026469 -0.307494
0.02368 -0.310559
0.02368 -0.310559
0.02079 -0.313223
0.02079 -0.313223
0.0178735 -0.315515
0.0178735 -0.315515
0.0149575 -0.317453
0.0149575 -0.317453
0.0120492 -0.319049
0.0120492 -0.319049
0.00910586 -0.320371
0.00910586 -0.320371
0.00609349 -0.321469
0.00609349 -0.321469
0.00292317 -0.322452
0.00292317 -0.322452
-0.0008713 -0.323477
-0.0008713 -0.323477
-0.00595854 -0.324639
0.0471905 -0.441757
0.0510837 -0.442378
0.0510837 -0.442378
0.054663 -0.442648
0.054663 -0.442648
0.0579199 -0.442576
0.0579199 -0.442576
0.0609513 -0.442128
0.0609513 -0.442128
0.0637817 -0.441391
0.0637817 -0.441391
0.0664109 -0.440414
0.0664109 -0.440414
0.0688741 -0.439119
0.0688741 -0.439119
0.0712271 -0.437541
0.0712271 -0.437541
0.0734341 -0.43565
0.0734341 -0.43565
0.0754943 -0.433476
0.0754943 -0.433476
0.0774234 -0.430975
0.0774234 -0.430975
0.0791934 -0.428115
0.0791934 -0.428115
0.0807717 -0.424913
0.0807717 -0.424913
0.0821243 -0.421359
0.0821243 -0.421359
0.0832248 -0.417446
0.0832248 -0.417446
0.0840193 -0.413143
0.0840193 -0.413143
0.0844632 -0.40853
0.0844632 -0.40853
0.0845104 -0.403618
0.0845104 -0.403618
0.0841201 -0.398385
0.0841201 -0.398385
0.0832316 -0.392911
0.0832316 -0.392911
0.0818251 -0.38726
0.0818251 -0.38726
0.07987 -0.381485
0.07987 -0.381485
0.0773355 -0.375649
0.0773355 -0.375649
0.0742226 -0.369826
0.0742226 -0.369826
0.0705355 -0.364107
0.0705355 -0.364107
0.0662771 -0.358546
0.0662771 -0.358546
0.0614973 -0.353243
0.0614973 -0.353243
0.0562262 -0.348262
0.0562262 -0.348262
0.0505287 -0.343668
0.0505287 -0.343668
0.0444785 -0.339524
0.0444785 -0.339524
0.0381579 -0.335868
0.0381579 -0.335868
0.0316747 -0.332749
0.0316747 -0.332749
0.0251115 -0.330166
0.0251115 -0.330166
0.0186191 -0.328128
0.0186191 -0.328128
0.0122779 -0.326575
0.0122779 -0.326575
0.00629789 -0.325385
0.00629789 -0.325385
0.0012272 -0.324247
0.0012272 -0.324247
-0.00254791 -0.323216
-0.00254791 -0.323216
-0.00575805 -0.322239
-0.00575805 -0.322239
-0.00880314 -0.321145
-0.00880314 -0.321145
-0.0117864 -0.319839
-0.0117864 -0.319839
-0.0147441 -0.318239
-0.0147441 -0.318239
-0.0177087 -0.316278
-0.0177087 -0.316278
-0.0206431 -0.313947
-0.0206431 -0.313947
-0.0235497 -0.311234
-0.0235497 -0.311234
-0.0263551 -0.308117
-0.0263551 -0.308117
-0.0290019 -0.304587
-0.0290019 -0.304587
-0.0314653 -0.300712
-0.0314653 -0.300712
-0.0337713 -0.29668
-0.0337713 -0.29668
-0.0357946 -0.292822
-0.0357946 -0.292822
-0.0375231 -0.289096
-0.0375231 -0.289096
-0.0389944 -0.285656
-0.0389944 -0.285656
-0.0403585 -0.282585
-0.0403585 -0.282585
-0.0417637 -0.280196
-0.0417637 -0.280196
-0.0429888 -0.278827
-0.0429888 -0.278827
-0.0442158 -0.278721
-0.0442158 -0.278721
-0.0451124 -0.28071
-0.0451124 -0.28071
-0.0446636 -0.285717
-0.0446636 -0.285717
-0.0392969 -0.299772
-0.0392969 -0.299772
-0.0277117 -0.329751
-0.0277117 -0.329751
-0.0197089 -0.35664
-0.0197089 -0.35664
-0.0127282 -0.378079
-0.0127282 -0.378079
-0.00545369 -0.39412
-0.00545369 -0.39412
0.00186905 -0.40607
0.00186905 -0.40607
0.00882379 -0.415538
0.00882379 -0.415538
0.0155469 -0.422732
0.0155469 -0.422732
0.0219205 -0.428454
0.0219205 -0.428454
0.0278211 -0.432978
0.0278211 -0.432978
0.0332705 -0.436299
0.0332705 -0.436299
0.0383362 -0.438738
0.0383362 -0.438738
0.0429813 -0.440562
0.0429813 -0.440562
0.0471905 -0.441757
      </DataArray> 
      <DataArray type="Float64" NumberOfComponents="2" Name="Velocity" format="ascii">
0 0
0 0
0 0
0 0
0 0
0 0
0 0
0 0
0 0
0 0
0 0
0 0
0 0
0 0
0 0
0 0
0 0
0 0
0 0
0 0
0 0
0 0
0 0
0 0
0 0
0 0
0 0
0 0
0 0
0 0
0 0
0 0
0 0
0 0
0 0
0 0
0 0
0 0
0 0
0 0
0 0
0 0
0 0
0 0
0 0
0 0
0 0
0 0
0 0
0 0
0 0
0 0
0 0
0 0
0 0
0 0
0 0
0 0
0 0
0 0
0 0
0 0
0 0
0 0
0 0
0 0
0 0
0 0
0 0
0 0
0 0
0 0
0 0
0 0
0 0
0 0
0 0
0 0
0 0
0 0
0 0
0 0
0 0
0 0
0 0
0 0
0 0
0 0
0 0
0 0
0 0
0 0
0 0
0 0
0 0
0 0
0 0
0 0
0 0
0 0
0 0
0 0
0 0
0 0
0 0
0 0
0 0
0 0
0 0
0 0
0 0
0 0
0 0
0 0
0 0
0 0
0 0
0 0
0 0
0 0
0 0
0 0
0 0
0 0
0 0
0 0
0 0
0 0
0 0
0 0
0 0
0 0
0 0
0 0
0 0
0 0
0 0
0 0
0 0
0 0
0 0
0 0
0 0
0 0
0 0
0 0
0 0
0 0
0 0
0 0
0 0
0 0
0 0
0 0
0 0
0 0
0 0
0 0
0 0
0 0
0 0
0 0
0 0
0 0
0 0
0 0
0 0
0 0
0 0
0 0
0 0
0 0
0 0
0 0
0 0
0 0
0 0
0 0
0 0
0 0
0 0
0 0
0 0
0 0
0 0
0 0
0 0
0 0
0 0
0 0
0 0
0 0
0 0
0 0
0 0
0 0
0 0
0 0
0 0
0 0
0 0
0 0
0 0
0 0
0 0
0 0
0 0
0 0
0 0
0 0
0 0
0 0
0 0
0 0
0 0
0 0
0 0
0 0
0 0
0 0
0 0
0 0
0 0
0 0
0 0
0 0
0 0
0 0
0 0
0 0
0 0
0 0
0 0
0 0
0 0
0 0
0 0
0 0
0 0
0 0
0 0
0 0
0 0
0 0
0 0
0 0
0 0
0 0
0 0
0 0
0 0
0 0
0 0
0 0
0 0
0 0
0 0
0 0
0 0
0 0
0 0
0 0
0 0
0 0
0 0
0 0
0 0
0 0
0 0
0 0
0 0
0 0
0 0
0 0
0 0
0 0
0 0
0 0
0 0
0 0
0 0
0 0
0 0
0 0
0 0
0 0
0 0
0 0
0 0
0 0
0 0
0 0
0 0
0 0
0 0
0 0
0 0
0 0
0 0
0 0
0 0
0 0
0 0
0 0
0 0
0 0
0 0
0 0
0 0
0 0
0 0
0 0
0 0
0 0
0 0
0 0
0 0
0 0
0 0
0 0
0 0
0 0
0 0
0 0
0 0
0 0
0 0
0 0
0 0
0 0
0 0
0 0
0 0
0 0
0 0
0 0
0 0
0 0
0 0
0 0
0 0
0 0
0 0
0 0
0 0
0 0
0 0
0 0
0 0
0 0
0 0
0 0
0 0
0 0
0 0
0 0
0 0
0 0
0 0
0 0
0 0
0 0
0 0
0 0
0 0
0 0
0 0
0 0
0 0
0 0
0 0
0 0
0 0
0 0
0 0
0 0
0 0
0 0
0 0
0 0
0 0
0 0
0 0
0 0
0 0
0 0
0 0
0 0
0 0
0 0
0 0
0 0
0 0
0 0
0 0
0 0
0 0
0 0
0 0
0 0
0 0
0 0
0 0
0 0
0 0
0 0
0 0
0 0
0 0
0 0
0 0
0 0
0 0
0 0
0 0
0 0
0 0
0 0
0 0
0 0
0 0
0 0
0 0
0 0
0 0
0 0
0 0
0 0
0 0
0 0
0 0
0 0
0 0
0 0
0 0
0 0
0 0
0 0
0 0
0 0
0 0
0 0
0 0
0 0
0 0
0 0
0 0
0 0
0 0
0 0
0 0
0 0
0 0
0 0
0 0
0 0
0 0
0 0
0 0
0 0
0 0
0 0
0 0
0 0
0 0
0 0
0 0
0 0
0 0
0 0
0 0
0 0
0 0
0 0
0 0
0 0
0 0
0 0
0 0
0 0
0 0
0 0
0 0
0 0
0 0
0 0
0 0
0 0
0 0
0 0
0 0
0 0
0 0
0 0
0 0
0 0
0 0
0 0
0 0
0 0
0 0
0 0
0 0
0 0
0 0
0 0
0 0
0 0
0 0
0 0
0 0
0 0
0 0
0 0
0 0
0 0
0 0
0 0
0 0
0 0
0 0
0 0
0 0
0 0
0 0
0 0
0 0
0 0
0 0
0 0
0 0
0 0
0 0
0 0
0 0
0 0
0 0
0 0
0 0
0 0
0 0
0 0
0 0
0 0
0 0
0 0
0 0
0 0
0 0
0 0
0 0
0 0
0 0
0 0
0 0
0 0
0 0
0 0
0 0
0 0
0 0
0 0
0 0
0 0
0 0
0 0
0 0
0 0
0 0
0 0
0 0
0 0
0 0
0 0
0 0
0 0
0 0
0 0
0 0
0 0
0 0
0 0
0 0
0 0
0 0
0 0
0 0
0 0
0 0
0 0
0 0
0 0
0 0
0 0
0 0
0 0
0 0
0 0
0 0
0 0
0 0
0 0
0 0
0 0
0 0
0 0
0 0
0 0
0 0
0 0
0 0
0 0
0 0
0 0
0 0
0 0
0 0
0 0
0 0
0 0
0 0
0 0
0 0
0 0
0 0
0 0
0 0
0 0
0 0
0 0
0 0
0 0
0 0
0 0
0 0
0 0
0 0
0 0
0 0
0 0
0 0
0 0
0 0
0 0
0 0
0 0
0 0
0 0
0 0
0 0
0 0
0 0
0 0
0 0
0 0
0 0
0 0
0 0
0 0
0 0
0 0
0 0
0 0
0 0
0 0
0 0
0 0
0 0
0 0
0 0
0 0
0 0
0 0
0 0
0 0
0 0
0 0
0 0
0 0
0 0
0 0
0 0
0 0
0 0
0 0
0 0
0 0
0 0
0 0
0 0
0 0
0 0
0 0
0 0
0 0
0 0
0 0
0 0
0 0
0 0
0 0
0 0
0 0
0 0
0 0
0 0
0 0
0 0
0 0
0 0
0 0
0 0
0 0
0 0
0 0
0 0
0 0
0 0
0 0
0 0
0 0
0 0
0 0
0 0
0 0
0 0
0 0
0 0
0 0
0 0
0 0
0 0
0 0
0 0
0 0
0 0
0 0
0 0
0 0
0 0
0 0
0 0
0 0
0 0
0 0
0 0
0 0
0 0
0 0
0 0
0 0
0 0
0 0
0 0
0 0
0 0
0 0
0 0
0 0
0 0
0 0
0 0
0 0
0 0
0 0
0 0
0 0
0 0
0 0
0 0
0 0
0 0
0 0
0 0
0 0
0 0
0 0
0 0
0 0
0 0
0 0
0 0
0 0
0 0
0 0
0 0
0 0
0 0
0 0
0 0
0 0
0 0
0 0
0 0
0 0
0 0
0 0
0 0
0 0
0 0
0 0
0 0
0 0
0 0
0 0
0 0
0 0
0 0
0 0
0 0
0 0
0 0
0 0
0 0
0 0
0 0
0 0
0 0
0 0
0 0
0 0
0 0
0 0
0 0
0 0
0 0
0 0
0 0
0 0
0 0
0 0
0 0
0 0
0 0
0 0
0 0
0 0
0 0
0 0
0 0
0 0
0 0
0 0
0 0
0 0
0 0
0 0
0 0
0 0
0 0
0 0
0 0
0 0
0 0
0 0
0 0
0 0
0 0
0 0
0 0
0 0
0 0
0 0
0 0
0 0
0 0
0 0
0 0
0 0
0 0
0 0
0 0
0 0
0 0
0 0
0 0
0 0
0 0
0 0
0 0
0 0
0 0
0 0
0 0
0 0
0 0
0 0
0 0
0 0
0 0
0 0
0 0
0 0
0 0
0 0
0 0
0 0
0 0
0 0
0 0
0 0
0 0
0 0
0 0
0 0
0 0
0 0
0 0
0 0
0 0
0 0
0 0
0 0
0 0
0 0
0 0
0 0
0 0
0 0
0 0
0 0
0 0
0 0
0 0
0 0
0 0
0 0
0 0
0 0
0 0
0 0
0 0
0 0
0 0
0 0
0 0
0 0
0 0
0 0
0 0
0 0
0 0
0 0
0 0
0 0
0 0
0 0
0 0
0 0
0 0
0 0
0 0
0 0
0 0
0 0
0 0
0 0
0 0
0 0
0 0
0 0
0 0
0 0
0 0
0 0
0 0
0 0
0 0
0 0
0 0
0 0
0 0
0 0
0 0
0 0
0 0
0 0
0 0
0 0
0 0
0 0
0 0
0 0
0 0
0 0
0 0
0 0
0 0
0 0
0 0
0 0
0 0
0 0
0 0
0 0
0 0
0 0
0 0
0 0
0 0
0 0
0 0
0 0
0 0
0 0
0 0
0 0
0 0
0 0
0 0
0 0
0 0
0 0
0 0
0 0
0 0
0 0
0 0
0 0
0 0
0 0
0 0
0 0
0 0
0 0
0 0
0 0
0 0
0 0
0 0
0 0
0 0
0 0
0 0
0 0
0 0
0 0
0 0
0 0
0 0
0 0
0 0
0 0
0 0
0 0
0 0
0 0
0 0
0 0
0 0
0 0
0 0
0 0
0 0
0 0
0 0
0 0
0 0
0 0
0 0
0 0
0 0
0 0
0 0
0 0
0 0
0 0
0 0
0 0
0 0
0 0
0 0
0 0
0 0
0 0
0 0
0 0
0 0
0 0
0 0
0 0
0 0
0 0
0 0
0 0
0 0
0 0
0 0
0 0
0 0
0 0
0 0
0 0
0 0
0 0
0 0
0 0
0 0
0 0
0 0
0 0
0 0
0 0
0 0
0 0
0 0
0 0
0 0
0 0
0 0
0 0
0 0
0 0
0 0
0 0
0 0
0 0
0 0
0 0
0 0
0 0
0 0
0 0
0 0
0 0
0 0
0 0
0 0
0 0
0 0
0 0
0 0
0 0
0 0
0 0
0 0
0 0
0 0
0 0
0 0
0 0
0 0
0 0
0 0
0 0
0 0
0 0
0 0
0 0
0 0
0 0
0 0
0 0
0 0
0 0
0 0
0 0
0 0
0 0
0 0
0 0
0 0
0 0
0 0
0 0
0 0
0 0
0 0
0 0
0 0
0 0
0 0
0 0
0 0
0 0
0 0
0 0
0 0
0 0
0 0
0 0
0 0
0 0
0 0
0 0
0 0
0 0
0 0
0 0
0 0
0 0
0 0
0 0
0 0
0 0
0 0
0 0
0 0
0 0
0 0
0 0
0 0
0 0
0 0
0 0
0 0
0 0
0 0
0 0
0 0
0 0
0 0
0 0
0 0
0 0
0 0
0 0
0 0
0 0
0 0
0 0
0 0
0 0
0 0
0 0
0 0
0 0
0 0
0 0
0 0
0 0
0 0
0 0
0 0
0 0
0 0
0 0
0 0
0 0
0 0
0 0
0 0
0 0
0 0
0 0
0 0
0 0
0 0
0 0
0 0
0 0
0 0
0 0
0 0
0 0
0 0
0 0
0 0
0 0
0 0
0 0
0 0
0 0
0 0
0 0
0 0
0 0
0 0
0 0
0 0
0 0
0 0
0 0
0 0
0 0
0 0
0 0
0 0
0 0
0 0
0 0
0 0
0 0
0 0
0 0
0 0
0 0
0 0
0 0
0 0
0 0
0 0
0 0
0 0
0 0
0 0
0 0
0 0
0 0
0 0
0 0
0 0
0 0
0 0
0 0
0 0
0 0
0 0
0 0
0 0
0 0
0 0
0 0
0 0
0 0
0 0
0 0
0 0
0 0
0 0
0 0
0 0
0 0
0 0
0 0
0 0
0 0
0 0
0 0
0 0
0 0
0 0
0 0
0 0
0 0
0 0
0 0
0 0
0 0
0 0
0 0
0 0
0 0
0 0
0 0
0 0
0 0
0 0
0 0
0 0
0 0
0 0
0 0
0 0
0 0
0 0
0 0
0 0
0 0
0 0
0 0
0 0
0 0
0 0
0 0
0 0
0 0
0 0
0 0
0 0
0 0
0 0
0 0
0 0
0 0
0 0
0 0
0 0
0 0
0 0
0 0
0 0
0 0
0 0
0 0
0 0
0 0
0 0
0 0
0 0
0 0
0 0
0 0
0 0
0 0
0 0
0 0
0 0
0 0
0 0
0 0
0 0
0 0
0 0
0 0
0 0
0 0
0 0
0 0
0 0
0 0
0 0
0 0
0 0
0 0
0 0
0 0
0 0
0 0
0 0
0 0
0 0
0 0
0 0
0 0
0 0
0 0
0 0
0 0
0 0
0 0
0 0
0 0
0 0
0 0
0 0
0 0
0 0
0 0
0 0
0 0
0 0
0 0
0 0
0 0
0 0
0 0
0 0
0 0
0 0
0 0
0 0
0 0
0 0
0 0
0 0
0 0
0 0
0 0
0 0
0 0
0 0
0 0
0 0
0 0
0 0
0 0
0 0
0 0
0 0
0 0
0 0
0 0
0 0
0 0
0 0
0 0
0 0
0 0
0 0
0 0
0 0
0 0
0 0
0 0
0 0
0 0
0 0
0 0
0 0
0 0
0 0
0 0
0 0
0 0
0 0
0 0
0 0
0 0
0 0
0 0
0 0
0 0
0 0
0 0
0 0
0 0
0 0
0 0
0 0
0 0
0 0
0 0
0 0
0 0
0 0
0 0
0 0
0 0
0 0
0 0
0 0
0 0
0 0
0 0
0 0
0 0
0 0
0 0
0 0
0 0
0 0
0 0
0 0
0 0
0 0
0 0
0 0
0 0
0 0
0 0
0 0
0 0
0 0
0 0
0 0
0 0
0 0
0 0
0 0
0 0
0 0
0 0
0 0
0 0
0 0
0 0
0 0
0 0
0 0
0 0
0 0
0 0
0 0
0 0
0 0
0 0
0 0
0 0
0 0
0 0
0 0
0 0
0 0
0 0
0 0
0 0
0 0
0 0
0 0
0 0
0 0
0 0
0 0
0 0
0 0
0 0
0 0
0 0
0 0
0 0
0 0
0 0
0 0
0 0
0 0
0 0
0 0
0 0
0 0
0 0
0 0
0 0
0 0
0 0
0 0
0 0
0 0
0 0
0 0
0 0
0 0
0 0
0 0
0 0
0 0
0 0
0 0
0 0
0 0
0 0
0 0
0 0
0 0
0 0
0 0
0 0
0 0
0 0
0 0
0 0
0 0
0 0
0 0
0 0
0 0
0 0
0 0
0 0
0 0
0 0
0 0
0 0
0 0
0 0
0 0
0 0
0 0
0 0
0 0
0 0
0 0
0 0
0 0
0 0
0 0
0 0
0 0
0 0
0 0
0 0
0 0
0 0
0 0
0 0
0 0
0 0
0 0
0 0
0 0
0 0
0 0
0 0
0 0
0 0
0 0
0 0
0 0
0 0
0 0
0 0
0 0
0 0
0 0
0 0
0 0
0 0
0 0
0 0
0 0
0 0
0 0
0 0
0 0
0 0
0 0
0 0
0 0
0 0
0 0
0 0
0 0
0 0
0 0
0 0
0 0
0 0
0 0
0 0
0 0
0 0
0 0
0 0
0 0
0 0
0 0
0 0
0 0
0 0
0 0
0 0
0 0
0 0
0 0
0 0
0 0
0 0
0 0
0 0
0 0
0 0
0 0
0 0
0 0
0 0
0 0
0 0
0 0
0 0
0 0
0 0
0 0
0 0
0 0
0 0
0 0
0 0
0 0
0 0
0 0
0 0
0 0
0 0
0 0
0 0
0 0
0 0
0 0
0 0
0 0
0 0
0 0
0 0
0 0
0 0
0 0
0 0
0 0
0 0
0 0
0 0
0 0
0 0
0 0
0 0
0 0
0 0
0 0
0 0
0 0
0 0
0 0
0 0
0 0
0 0
0 0
0 0
0 0
0 0
0 0
0 0
0 0
0 0
0 0
0 0
0 0
0 0
0 0
0 0
0 0
0 0
0 0
0 0
0 0
0 0
0 0
0 0
0 0
0 0
0 0
0 0
0 0
0 0
0 0
0 0
0 0
0 0
0 0
0 0
0 0
0 0
0 0
0 0
0 0
0 0
0 0
0 0
0 0
0 0
0 0
0 0
0 0
0 0
0 0
0 0
0 0
0 0
0 0
0 0
0 0
0 0
0 0
0 0
0 0
0 0
0 0
0 0
0 0
0 0
0 0
0 0
0 0
0 0
0 0
0 0
0 0
0 0
0 0
0 0
0 0
0 0
0 0
0 0
0 0
0 0
0 0
0 0
0 0
0 0
0 0
0 0
0 0
0 0
0 0
0 0
0 0
0 0
0 0
0 0
0 0
0 0
0 0
0 0
0 0
0 0
0 0
0 0
0 0
0 0
0 0
0 0
0 0
0 0
0 0
0 0
0 0
0 0
0 0
0 0
0 0
0 0
0 0
0 0
0 0
0 0
0 0
0 0
0 0
0 0
0 0
0 0
0 0
0 0
0 0
0 0
0 0
0 0
0 0
0 0
0 0
0 0
0 0
0 0
0 0
0 0
0 0
0 0
0 0
0 0
0 0
0 0
0 0
0 0
0 0
0 0
0 0
0 0
0 0
0 0
0 0
0 0
0 0
0 0
0 0
0 0
0 0
0 0
0 0
0 0
0 0
0 0
0 0
0 0
0 0
0 0
0 0
0 0
0 0
0 0
0 0
0 0
0 0
0 0
0 0
0 0
0 0
0 0
0 0
0 0
0 0
0 0
0 0
0 0
0 0
0 0
0 0
0 0
0 0
0 0
0 0
0 0
0 0
0 0
0 0
0 0
0 0
0 0
0 0
0 0
0 0
0 0
0 0
0 0
0 0
0 0
0 0
0 0
0 0
0 0
0 0
0 0
0 0
0 0
0 0
0 0
0 0
0 0
0 0
0 0
0 0
0 0
0 0
0 0
0 0
0 0
0 0
0 0
0 0
0 0
0 0
0 0
0 0
0 0
0 0
0 0
0 0
0 0
0 0
0 0
0 0
0 0
0 0
0 0
0 0
0 0
0 0
0 0
0 0
0 0
0 0
0 0
0 0
0 0
0 0
0 0
0 0
0 0
0 0
0 0
0 0
0 0
0 0
0 0
0 0
0 0
0 0
0 0
0 0
0 0
0 0
0 0
0 0
0 0
0 0
0 0
0 0
0 0
0 0
0 0
0 0
0 0
0 0
0 0
0 0
0 0
0 0
0 0
0 0
0 0
0 0
0 0
0 0
0 0
0 0
0 0
0 0
0 0
0 0
0 0
0 0
0 0
0 0
0 0
0 0
0 0
0 0
0 0
0 0
0 0
0 0
0 0
0 0
0 0
0 0
0 0
0 0
0 0
0 0
0 0
0 0
0 0
0 0
0 0
0 0
0 0
0 0
0 0
0 0
0 0
0 0
0 0
0 0
0 0
0 0
0 0
0 0
0 0
0 0
0 0
0 0
0 0
0 0
0 0
0 0
0 0
0 0
0 0
0 0
0 0
0 0
0 0
0 0
0 0
0 0
0 0
0 0
0 0
0 0
0 0
0 0
0 0
0 0
0 0
0 0
0 0
0 0
0 0
0 0
0 0
0 0
0 0
0 0
0 0
0 0
0 0
0 0
0 0
0 0
0 0
0 0
0 0
0 0
0 0
0 0
0 0
0 0
0 0
0 0
0 0
0 0
0 0
0 0
0 0
0 0
0 0
0 0
0 0
0 0
0 0
0 0
0 0
0 0
0 0
0 0
0 0
0 0
0 0
0 0
0 0
0 0
0 0
0 0
0 0
0 0
0 0
0 0
0 0
0 0
0 0
0 0
0 0
0 0
0 0
0 0
0 0
0 0
0 0
0 0
0 0
0 0
0 0
0 0
0 0
0 0
0 0
0 0
0 0
0 0
0 0
0 0
0 0
0 0
0 0
0 0
0 0
0 0
0 0
0 0
0 0
0 0
0 0
0 0
0 0
0 0
0 0
0 0
0 0
0 0
0 0
0 0
0 0
0 0
0 0
0 0
0 0
0 0
0 0
0 0
0 0
0 0
0 0
0 0
0 0
0 0
0 0
0 0
0 0
0 0
0 0
0 0
0 0
0 0
0 0
0 0
0 0
0 0
0 0
0 0
0 0
0 0
0 0
0 0
0 0
0 0
0 0
0 0
0 0
0 0
0 0
0 0
0 0
0 0
0 0
0 0
0 0
0 0
0 0
0 0
0 0
0 0
0 0
0 0
0 0
0 0
0 0
0 0
0 0
0 0
0 0
0 0
0 0
0 0
0 0
0 0
0 0
0 0
0 0
0 0
0 0
0 0
0 0
0 0
0 0
0 0
0 0
0 0
0 0
0 0
0 0
0 0
0 0
0 0
0 0
0 0
0 0
0 0
0 0
0 0
0 0
0 0
0 0
0 0
0 0
0 0
0 0
0 0
0 0
0 0
0 0
0 0
0 0
0 0
0 0
0 0
0 0
0 0
0 0
0 0
0 0
0 0
0 0
0 0
0 0
0 0
0 0
0 0
0 0
0 0
0 0
0 0
0 0
0 0
0 0
0 0
0 0
0 0
0 0
0 0
0 0
0 0
0 0
0 0
0 0
0 0
0 0
0 0
0 0
0 0
0 0
0 0
0 0
0 0
0 0
0 0
0 0
0 0
0 0
0 0
0 0
0 0
0 0
0 0
0 0
0 0
0 0
0 0
0 0
0 0
0 0
0 0
0 0
0 0
0 0
0 0
0 0
0 0
0 0
0 0
0 0
0 0
0 0
0 0
0 0
0 0
0 0
0 0
0 0
0 0
0 0
0 0
0 0
0 0
0 0
0 0
0 0
0 0
0 0
0 0
0 0
0 0
0 0
0 0
0 0
0 0
0 0
0 0
0 0
0 0
0 0
0 0
0 0
0 0
0 0
0 0
0 0
0 0
0 0
0 0
0 0
0 0
0 0
0 0
0 0
0 0
0 0
0 0
0 0
0 0
0 0
0 0
0 0
0 0
0 0
0 0
0 0
0 0
0 0
0 0
0 0
0 0
0 0
0 0
0 0
0 0
0 0
0 0
0 0
0 0
0 0
0 0
0 0
0 0
0 0
0 0
0 0
0 0
0 0
0 0
0 0
0 0
0 0
0 0
0 0
0 0
0 0
0 0
0 0
0 0
0 0
0 0
0 0
0 0
0 0
0 0
0 0
0 0
0 0
0 0
0 0
0 0
0 0
0 0
0 0
0 0
0 0
0 0
0 0
0 0
0 0
0 0
0 0
0 0
0 0
0 0
0 0
0 0
0 0
0 0
0 0
0 0
0 0
0 0
0 0
0 0
0 0
0 0
0 0
0 0
0 0
0 0
0 0
0 0
0 0
0 0
0 0
0 0
0 0
0 0
0 0
0 0
0 0
0 0
0 0
0 0
0 0
0 0
0 0
0 0
0 0
0 0
0 0
0 0
0 0
0 0
0 0
0 0
0 0
0 0
0 0
0 0
0 0
0 0
0 0
0 0
0 0
0 0
0 0
0 0
0 0
0 0
0 0
0 0
0 0
0 0
0 0
0 0
0 0
0 0
0 0
0 0
0 0
0 0
0 0
0 0
0 0
0 0
0 0
0 0
0 0
0 0
0 0
0 0
0 0
0 0
0 0
0 0
0 0
0 0
0 0
0 0
0 0
0 0
0 0
0 0
0 0
0 0
0 0
0 0
0 0
0 0
0 0
0 0
0 0
0 0
0 0
0 0
0 0
0 0
0 0
0 0
0 0
0 0
0 0
0 0
0 0
0 0
0 0
0 0
0 0
0 0
0 0
0 0
0 0
0 0
0 0
0 0
0 0
0 0
0 0
0 0
0 0
0 0
0 0
0 0
0 0
0 0
0 0
0 0
0 0
0 0
0 0
0 0
0 0
0 0
0 0
0 0
0 0
0 0
0 0
0 0
0 0
0 0
0 0
0 0
0 0
0 0
0 0
0 0
0 0
0 0
0 0
0 0
0 0
0 0
0 0
0 0
0 0
0 0
0 0
0 0
0 0
0 0
0 0
0 0
0 0
0 0
0 0
0 0
0 0
0 0
0 0
0 0
0 0
0 0
0 0
0 0
0 0
0 0
0 0
0 0
0 0
0 0
0 0
0 0
0 0
0 0
0 0
0 0
0 0
0 0
0 0
0 0
0 0
0 0
0 0
0 0
0 0
0 0
0 0
0 0
0 0
0 0
0 0
0 0
0 0
0 0
0 0
0 0
0 0
0 0
0 0
0 0
0 0
0 0
0 0
0 0
0 0
0 0
0 0
0 0
0 0
0 0
0 0
0 0
0 0
0 0
0 0
0 0
0 0
0 0
0 0
0 0
0 0
0 0
0 0
0 0
0 0
0 0
0 0
0 0
0 0
0 0
0 0
0 0
0 0
0 0
0 0
0 0
0 0
0 0
0 0
0 0
0 0
0 0
0 0
0 0
0 0
0 0
0 0
0 0
0 0
0 0
0 0
0 0
0 0
0 0
0 0
0 0
0 0
0 0
0 0
0 0
0 0
0 0
0 0
0 0
0 0
0 0
0 0
0 0
0 0
0 0
0 0
0 0
0 0
0 0
0 0
0 0
0 0
0 0
0 0
0 0
0 0
0 0
0 0
0 0
0 0
0 0
0 0
0 0
0 0
0 0
0 0
0 0
0 0
0 0
0 0
0 0
0 0
0 0
0 0
0 0
0 0
0 0
0 0
0 0
0 0
0 0
0 0
0 0
0 0
0 0
0 0
0 0
0 0
0 0
0 0
0 0
0 0
0 0
0 0
0 0
0 0
0 0
0 0
0 0
0 0
0 0
0 0
0 0
0 0
0 0
0 0
0 0
0 0
0 0
0 0
0 0
0 0
0 0
0 0
0 0
0 0
0 0
0 0
0 0
0 0
0 0
0 0
0 0
0 0
0 0
0 0
0 0
0 0
0 0
0 0
0 0
0 0
0 0
0 0
0 0
0 0
0 0
0 0
0 0
0 0
0 0
0 0
0 0
0 0
0 0
0 0
0 0
0 0
0 0
0 0
0 0
0 0
0 0
0 0
0 0
0 0
0 0
0 0
0 0
0 0
0 0
0 0
0 0
0 0
0 0
0 0
0 0
0 0
0 0
0 0
0 0
0 0
0 0
0 0
0 0
0 0
0 0
0 0
0 0
0 0
0 0
0 0
0 0
0 0
0 0
0 0
0 0
0 0
0 0
0 0
0 0
0 0
0 0
0 0
0 0
0 0
0 0
0 0
0 0
0 0
0 0
0 0
0 0
0 0
0 0
0 0
0 0
0 0
0 0
0 0
0 0
0 0
0 0
0 0
0 0
0 0
0 0
0 0
0 0
0 0
0 0
0 0
0 0
0 0
0 0
0 0
0 0
0 0
0 0
0 0
0 0
0 0
0 0
0 0
0 0
0 0
0 0
0 0
0 0
0 0
0 0
0 0
0 0
0 0
0 0
0 0
0 0
0 0
0 0
0 0
0 0
0 0
0 0
0 0
0 0
0 0
0 0
0 0
0 0
0 0
0 0
0 0
0 0
0 0
0 0
0 0
0 0
0 0
0 0
0 0
0 0
0 0
0 0
0 0
0 0
0 0
0 0
0 0
0 0
0 0
0 0
0 0
0 0
0 0
0 0
0 0
0 0
0 0
0 0
0 0
0 0
0 0
0 0
0 0
0 0
0 0
0 0
0 0
0 0
0 0
0 0
0 0
0 0
0 0
0 0
0 0
0 0
0 0
0 0
0 0
0 0
0 0
0 0
0 0
0 0
0 0
0 0
0 0
0 0
0 0
0 0
0 0
0 0
0 0
0 0
0 0
0 0
0 0
0 0
0 0
0 0
0 0
0 0
0 0
0 0
0 0
0 0
0 0
0 0
0 0
0 0
0 0
0 0
0 0
0 0
0 0
0 0
0 0
0 0
0 0
0 0
0 0
0 0
0 0
0 0
0 0
0 0
0 0
0 0
0 0
0 0
0 0
0 0
0 0
0 0
0 0
0 0
0 0
0 0
0 0
0 0
0 0
0 0
0 0
0 0
0 0
0 0
0 0
0 0
0 0
0 0
0 0
0 0
0 0
0 0
0 0
0 0
0 0
0 0
0 0
0 0
0 0
0 0
0 0
0 0
0 0
0 0
0 0
0 0
0 0
0 0
0 0
0 0
0 0
0 0
0 0
0 0
0 0
0 0
0 0
0 0
0 0
0 0
0 0
0 0
0 0
0 0
0 0
0 0
0 0
0 0
0 0
0 0
0 0
0 0
0 0
0 0
0 0
0 0
0 0
0 0
0 0
0 0
0 0
0 0
0 0
0 0
0 0
0 0
0 0
0 0
0 0
0 0
0 0
0 0
0 0
0 0
0 0
0 0
0 0
0 0
0 0
0 0
0 0
0 0
0 0
0 0
0 0
0 0
0 0
0 0
0 0
0 0
0 0
0 0
0 0
0 0
0 0
0 0
0 0
0 0
0 0
0 0
0 0
0 0
0 0
0 0
0 0
0 0
0 0
0 0
0 0
0 0
0 0
0 0
0 0
0 0
0 0
0 0
0 0
0 0
0 0
0 0
0 0
0 0
0 0
0 0
0 0
0 0
0 0
0 0
0 0
0 0
0 0
0 0
0 0
0 0
0 0
0 0
0 0
0 0
0 0
0 0
0 0
0 0
0 0
0 0
0 0
0 0
0 0
0 0
0 0
0 0
0 0
0 0
0 0
0 0
0 0
0 0
0 0
0 0
0 0
0 0
0 0
0 0
0 0
0 0
0 0
0 0
0 0
0 0
0 0
0 0
0 0
0 0
0 0
0 0
0 0
0 0
0 0
0 0
0 0
0 0
0 0
0 0
0 0
0 0
0 0
0 0
0 0
0 0
0 0
0 0
0 0
0 0
0 0
0 0
0 0
0 0
0 0
0 0
0 0
0 0
0 0
0 0
0 0
0 0
0 0
0 0
0 0
0 0
0 0
0 0
0 0
0 0
0 0
0 0
0 0
0 0
0 0
0 0
0 0
0 0
0 0
0 0
0 0
0 0
0 0
0 0
0 0
0 0
0 0
0 0
0 0
0 0
0 0
0 0
0 0
0 0
0 0
0 0
0 0
0 0
0 0
0 0
0 0
0 0
0 0
0 0
0 0
0 0
0 0
0 0
0 0
0 0
0 0
0 0
0 0
0 0
0 0
0 0
0 0
0 0
0 0
0 0
0 0
0 0
0 0
0 0
0 0
0 0
0 0
0 0
0 0
0 0
0 0
0 0
0 0
0 0
0 0
0 0
0 0
0 0
0 0
0 0
0 0
0 0
0 0
0 0
0 0
0 0
0 0
0 0
0 0
0 0
0 0
0 0
0 0
0 0
0 0
0 0
0 0
0 0
0 0
0 0
0 0
0 0
0 0
0 0
0 0
0 0
0 0
0 0
0 0
0 0
0 0
0 0
0 0
0 0
0 0
0 0
0 0
0 0
0 0
0 0
0 0
0 0
0 0
0 0
0 0
0 0
0 0
0 0
0 0
0 0
0 0
0 0
0 0
0 0
0 0
      </DataArray> 
      <DataArray type="Float64" NumberOfComponents="2" Name="Acceleration" format="ascii">
0 0
0 0
0 0
0 0
0 0
0 0
0 0
0 0
0 0
0 0
0 0
0 0
0 0
0 0
0 0
0 0
0 0
0 0
0 0
0 0
0 0
0 0
0 0
0 0
0 0
0 0
0 0
0 0
0 0
0 0
0 0
0 0
0 0
0 0
0 0
0 0
0 0
0 0
0 0
0 0
0 0
0 0
0 0
0 0
0 0
0 0
0 0
0 0
0 0
0 0
0 0
0 0
0 0
0 0
0 0
0 0
0 0
0 0
0 0
0 0
0 0
0 0
0 0
0 0
0 0
0 0
0 0
0 0
0 0
0 0
0 0
0 0
0 0
0 0
0 0
0 0
0 0
0 0
0 0
0 0
0 0
0 0
0 0
0 0
0 0
0 0
0 0
0 0
0 0
0 0
0 0
0 0
0 0
0 0
0 0
0 0
0 0
0 0
0 0
0 0
0 0
0 0
0 0
0 0
0 0
0 0
0 0
0 0
0 0
0 0
0 0
0 0
0 0
0 0
0 0
0 0
0 0
0 0
0 0
0 0
0 0
0 0
0 0
0 0
0 0
0 0
0 0
0 0
0 0
0 0
0 0
0 0
0 0
0 0
0 0
0 0
0 0
0 0
0 0
0 0
0 0
0 0
0 0
0 0
0 0
0 0
0 0
0 0
0 0
0 0
0 0
0 0
0 0
0 0
0 0
0 0
0 0
0 0
0 0
0 0
0 0
0 0
0 0
0 0
0 0
0 0
0 0
0 0
0 0
0 0
0 0
0 0
0 0
0 0
0 0
0 0
0 0
0 0
0 0
0 0
0 0
0 0
0 0
0 0
0 0
0 0
0 0
0 0
0 0
0 0
0 0
0 0
0 0
0 0
0 0
0 0
0 0
0 0
0 0
0 0
0 0
0 0
0 0
0 0
0 0
0 0
0 0
0 0
0 0
0 0
0 0
0 0
0 0
0 0
0 0
0 0
0 0
0 0
0 0
0 0
0 0
0 0
0 0
0 0
0 0
0 0
0 0
0 0
0 0
0 0
0 0
0 0
0 0
0 0
0 0
0 0
0 0
0 0
0 0
0 0
0 0
0 0
0 0
0 0
0 0
0 0
0 0
0 0
0 0
0 0
0 0
0 0
0 0
0 0
0 0
0 0
0 0
0 0
0 0
0 0
0 0
0 0
0 0
0 0
0 0
0 0
0 0
0 0
0 0
0 0
0 0
0 0
0 0
0 0
0 0
0 0
0 0
0 0
0 0
0 0
0 0
0 0
0 0
0 0
0 0
0 0
0 0
0 0
0 0
0 0
0 0
0 0
0 0
0 0
0 0
0 0
0 0
0 0
0 0
0 0
0 0
0 0
0 0
0 0
0 0
0 0
0 0
0 0
0 0
0 0
0 0
0 0
0 0
0 0
0 0
0 0
0 0
0 0
0 0
0 0
0 0
0 0
0 0
0 0
0 0
0 0
0 0
0 0
0 0
0 0
0 0
0 0
0 0
0 0
0 0
0 0
0 0
0 0
0 0
0 0
0 0
0 0
0 0
0 0
0 0
0 0
0 0
0 0
0 0
0 0
0 0
0 0
0 0
0 0
0 0
0 0
0 0
0 0
0 0
0 0
0 0
0 0
0 0
0 0
0 0
0 0
0 0
0 0
0 0
0 0
0 0
0 0
0 0
0 0
0 0
0 0
0 0
0 0
0 0
0 0
0 0
0 0
0 0
0 0
0 0
0 0
0 0
0 0
0 0
0 0
0 0
0 0
0 0
0 0
0 0
0 0
0 0
0 0
0 0
0 0
0 0
0 0
0 0
0 0
0 0
0 0
0 0
0 0
0 0
0 0
0 0
0 0
0 0
0 0
0 0
0 0
0 0
0 0
0 0
0 0
0 0
0 0
0 0
0 0
0 0
0 0
0 0
0 0
0 0
0 0
0 0
0 0
0 0
0 0
0 0
0 0
0 0
0 0
0 0
0 0
0 0
0 0
0 0
0 0
0 0
0 0
0 0
0 0
0 0
0 0
0 0
0 0
0 0
0 0
0 0
0 0
0 0
0 0
0 0
0 0
0 0
0 0
0 0
0 0
0 0
0 0
0 0
0 0
0 0
0 0
0 0
0 0
0 0
0 0
0 0
0 0
0 0
0 0
0 0
0 0
0 0
0 0
0 0
0 0
0 0
0 0
0 0
0 0
0 0
0 0
0 0
0 0
0 0
0 0
0 0
0 0
0 0
0 0
0 0
0 0
0 0
0 0
0 0
0 0
0 0
0 0
0 0
0 0
0 0
0 0
0 0
0 0
0 0
0 0
0 0
0 0
0 0
0 0
0 0
0 0
0 0
0 0
0 0
0 0
0 0
0 0
0 0
0 0
0 0
0 0
0 0
0 0
0 0
0 0
0 0
0 0
0 0
0 0
0 0
0 0
0 0
0 0
0 0
0 0
0 0
0 0
0 0
0 0
0 0
0 0
0 0
0 0
0 0
0 0
0 0
0 0
0 0
0 0
0 0
0 0
0 0
0 0
0 0
0 0
0 0
0 0
0 0
0 0
0 0
0 0
0 0
0 0
0 0
0 0
0 0
0 0
0 0
0 0
0 0
0 0
0 0
0 0
0 0
0 0
0 0
0 0
0 0
0 0
0 0
0 0
0 0
0 0
0 0
0 0
0 0
0 0
0 0
0 0
0 0
0 0
0 0
0 0
0 0
0 0
0 0
0 0
0 0
0 0
0 0
0 0
0 0
0 0
0 0
0 0
0 0
0 0
0 0
0 0
0 0
0 0
0 0
0 0
0 0
0 0
0 0
0 0
0 0
0 0
0 0
0 0
0 0
0 0
0 0
0 0
0 0
0 0
0 0
0 0
0 0
0 0
0 0
0 0
0 0
0 0
0 0
0 0
0 0
0 0
0 0
0 0
0 0
0 0
0 0
0 0
0 0
0 0
0 0
0 0
0 0
0 0
0 0
0 0
0 0
0 0
0 0
0 0
0 0
0 0
0 0
0 0
0 0
0 0
0 0
0 0
0 0
0 0
0 0
0 0
0 0
0 0
0 0
0 0
0 0
0 0
0 0
0 0
0 0
0 0
0 0
0 0
0 0
0 0
0 0
0 0
0 0
0 0
0 0
0 0
0 0
0 0
0 0
0 0
0 0
0 0
0 0
0 0
0 0
0 0
0 0
0 0
0 0
0 0
0 0
0 0
0 0
0 0
0 0
0 0
0 0
0 0
0 0
0 0
0 0
0 0
0 0
0 0
0 0
0 0
0 0
0 0
0 0
0 0
0 0
0 0
0 0
0 0
0 0
0 0
0 0
0 0
0 0
0 0
0 0
0 0
0 0
0 0
0 0
0 0
0 0
0 0
0 0
0 0
0 0
0 0
0 0
0 0
0 0
0 0
0 0
0 0
0 0
0 0
0 0
0 0
0 0
0 0
0 0
0 0
0 0
0 0
0 0
0 0
0 0
0 0
0 0
0 0
0 0
0 0
0 0
0 0
0 0
0 0
0 0
0 0
0 0
0 0
0 0
0 0
0 0
0 0
0 0
0 0
0 0
0 0
0 0
0 0
0 0
0 0
0 0
0 0
0 0
0 0
0 0
0 0
0 0
0 0
0 0
0 0
0 0
0 0
0 0
0 0
0 0
0 0
0 0
0 0
0 0
0 0
0 0
0 0
0 0
0 0
0 0
0 0
0 0
0 0
0 0
0 0
0 0
0 0
0 0
0 0
0 0
0 0
0 0
0 0
0 0
0 0
0 0
0 0
0 0
0 0
0 0
0 0
0 0
0 0
0 0
0 0
0 0
0 0
0 0
0 0
0 0
0 0
0 0
0 0
0 0
0 0
0 0
0 0
0 0
0 0
0 0
0 0
0 0
0 0
0 0
0 0
0 0
0 0
0 0
0 0
0 0
0 0
0 0
0 0
0 0
0 0
0 0
0 0
0 0
0 0
0 0
0 0
0 0
0 0
0 0
0 0
0 0
0 0
0 0
0 0
0 0
0 0
0 0
0 0
0 0
0 0
0 0
0 0
0 0
0 0
0 0
0 0
0 0
0 0
0 0
0 0
0 0
0 0
0 0
0 0
0 0
0 0
0 0
0 0
0 0
0 0
0 0
0 0
0 0
0 0
0 0
0 0
0 0
0 0
0 0
0 0
0 0
0 0
0 0
0 0
0 0
0 0
0 0
0 0
0 0
0 0
0 0
0 0
0 0
0 0
0 0
0 0
0 0
0 0
0 0
0 0
0 0
0 0
0 0
0 0
0 0
0 0
0 0
0 0
0 0
0 0
0 0
0 0
0 0
0 0
0 0
0 0
0 0
0 0
0 0
0 0
0 0
0 0
0 0
0 0
0 0
0 0
0 0
0 0
0 0
0 0
0 0
0 0
0 0
0 0
0 0
0 0
0 0
0 0
0 0
0 0
0 0
0 0
0 0
0 0
0 0
0 0
0 0
0 0
0 0
0 0
0 0
0 0
0 0
0 0
0 0
0 0
0 0
0 0
0 0
0 0
0 0
0 0
0 0
0 0
0 0
0 0
0 0
0 0
0 0
0 0
0 0
0 0
0 0
0 0
0 0
0 0
0 0
0 0
0 0
0 0
0 0
0 0
0 0
0 0
0 0
0 0
0 0
0 0
0 0
0 0
0 0
0 0
0 0
0 0
0 0
0 0
0 0
0 0
0 0
0 0
0 0
0 0
0 0
0 0
0 0
0 0
0 0
0 0
0 0
0 0
0 0
0 0
0 0
0 0
0 0
0 0
0 0
0 0
0 0
0 0
0 0
0 0
0 0
0 0
0 0
0 0
0 0
0 0
0 0
0 0
0 0
0 0
0 0
0 0
0 0
0 0
0 0
0 0
0 0
0 0
0 0
0 0
0 0
0 0
0 0
0 0
0 0
0 0
0 0
0 0
0 0
0 0
0 0
0 0
0 0
0 0
0 0
0 0
0 0
0 0
0 0
0 0
0 0
0 0
0 0
0 0
0 0
0 0
0 0
0 0
0 0
0 0
0 0
0 0
0 0
0 0
0 0
0 0
0 0
0 0
0 0
0 0
0 0
0 0
0 0
0 0
0 0
0 0
0 0
0 0
0 0
0 0
0 0
0 0
0 0
0 0
0 0
0 0
0 0
0 0
0 0
0 0
0 0
0 0
0 0
0 0
0 0
0 0
0 0
0 0
0 0
0 0
0 0
0 0
0 0
0 0
0 0
0 0
0 0
0 0
0 0
0 0
0 0
0 0
0 0
0 0
0 0
0 0
0 0
0 0
0 0
0 0
0 0
0 0
0 0
0 0
0 0
0 0
0 0
0 0
0 0
0 0
0 0
0 0
0 0
0 0
0 0
0 0
0 0
0 0
0 0
0 0
0 0
0 0
0 0
0 0
0 0
0 0
0 0
0 0
0 0
0 0
0 0
0 0
0 0
0 0
0 0
0 0
0 0
0 0
0 0
0 0
0 0
0 0
0 0
0 0
0 0
0 0
0 0
0 0
0 0
0 0
0 0
0 0
0 0
0 0
0 0
0 0
0 0
0 0
0 0
0 0
0 0
0 0
0 0
0 0
0 0
0 0
0 0
0 0
0 0
0 0
0 0
0 0
0 0
0 0
0 0
0 0
0 0
0 0
0 0
0 0
0 0
0 0
0 0
0 0
0 0
0 0
0 0
0 0
0 0
0 0
0 0
0 0
0 0
0 0
0 0
0 0
0 0
0 0
0 0
0 0
0 0
0 0
0 0
0 0
0 0
0 0
0 0
0 0
0 0
0 0
0 0
0 0
0 0
0 0
0 0
0 0
0 0
0 0
0 0
0 0
0 0
0 0
0 0
0 0
0 0
0 0
0 0
0 0
0 0
0 0
0 0
0 0
0 0
0 0
0 0
0 0
0 0
0 0
0 0
0 0
0 0
0 0
0 0
0 0
0 0
0 0
0 0
0 0
0 0
0 0
0 0
0 0
0 0
0 0
0 0
0 0
0 0
0 0
0 0
0 0
0 0
0 0
0 0
0 0
0 0
0 0
0 0
0 0
0 0
0 0
0 0
0 0
0 0
0 0
0 0
0 0
0 0
0 0
0 0
0 0
0 0
0 0
0 0
0 0
0 0
0 0
0 0
0 0
0 0
0 0
0 0
0 0
0 0
0 0
0 0
0 0
0 0
0 0
0 0
0 0
0 0
0 0
0 0
0 0
0 0
0 0
0 0
0 0
0 0
0 0
0 0
0 0
0 0
0 0
0 0
0 0
0 0
0 0
0 0
0 0
0 0
0 0
0 0
0 0
0 0
0 0
0 0
0 0
0 0
0 0
0 0
0 0
0 0
0 0
0 0
0 0
0 0
0 0
0 0
0 0
0 0
0 0
0 0
0 0
0 0
0 0
0 0
0 0
0 0
0 0
0 0
0 0
0 0
0 0
0 0
0 0
0 0
0 0
0 0
0 0
0 0
0 0
0 0
0 0
0 0
0 0
0 0
0 0
0 0
0 0
0 0
0 0
0 0
0 0
0 0
0 0
0 0
0 0
0 0
0 0
0 0
0 0
0 0
0 0
0 0
0 0
0 0
0 0
0 0
0 0
0 0
0 0
0 0
0 0
0 0
0 0
0 0
0 0
0 0
0 0
0 0
0 0
0 0
0 0
0 0
0 0
0 0
0 0
0 0
0 0
0 0
0 0
0 0
0 0
0 0
0 0
0 0
0 0
0 0
0 0
0 0
0 0
0 0
0 0
0 0
0 0
0 0
0 0
0 0
0 0
0 0
0 0
0 0
0 0
0 0
0 0
0 0
0 0
0 0
0 0
0 0
0 0
0 0
0 0
0 0
0 0
0 0
0 0
0 0
0 0
0 0
0 0
0 0
0 0
0 0
0 0
0 0
0 0
0 0
0 0
0 0
0 0
0 0
0 0
0 0
0 0
0 0
0 0
0 0
0 0
0 0
0 0
0 0
0 0
0 0
0 0
0 0
0 0
0 0
0 0
0 0
0 0
0 0
0 0
0 0
0 0
0 0
0 0
0 0
0 0
0 0
0 0
0 0
0 0
0 0
0 0
0 0
0 0
0 0
0 0
0 0
0 0
0 0
0 0
0 0
0 0
0 0
0 0
0 0
0 0
0 0
0 0
0 0
0 0
0 0
0 0
0 0
0 0
0 0
0 0
0 0
0 0
0 0
0 0
0 0
0 0
0 0
0 0
0 0
0 0
0 0
0 0
0 0
0 0
0 0
0 0
0 0
0 0
0 0
0 0
0 0
0 0
0 0
0 0
0 0
0 0
0 0
0 0
0 0
0 0
0 0
0 0
0 0
0 0
0 0
0 0
0 0
0 0
0 0
0 0
0 0
0 0
0 0
0 0
0 0
0 0
0 0
0 0
0 0
0 0
0 0
0 0
0 0
0 0
0 0
0 0
0 0
0 0
0 0
0 0
0 0
0 0
0 0
0 0
0 0
0 0
0 0
0 0
0 0
0 0
0 0
0 0
0 0
0 0
0 0
0 0
0 0
0 0
0 0
0 0
0 0
0 0
0 0
0 0
0 0
0 0
0 0
0 0
0 0
0 0
0 0
0 0
0 0
0 0
0 0
0 0
0 0
0 0
0 0
0 0
0 0
0 0
0 0
0 0
0 0
0 0
0 0
0 0
0 0
0 0
0 0
0 0
0 0
0 0
0 0
0 0
0 0
0 0
0 0
0 0
0 0
0 0
0 0
0 0
0 0
0 0
0 0
0 0
0 0
0 0
0 0
0 0
0 0
0 0
0 0
0 0
0 0
0 0
0 0
0 0
0 0
0 0
0 0
0 0
0 0
0 0
0 0
0 0
0 0
0 0
0 0
0 0
0 0
0 0
0 0
0 0
0 0
0 0
0 0
0 0
0 0
0 0
0 0
0 0
0 0
0 0
0 0
0 0
0 0
0 0
0 0
0 0
0 0
0 0
0 0
0 0
0 0
0 0
0 0
0 0
0 0
0 0
0 0
0 0
0 0
0 0
0 0
0 0
0 0
0 0
0 0
0 0
0 0
0 0
0 0
0 0
0 0
0 0
0 0
0 0
0 0
0 0
0 0
0 0
0 0
0 0
0 0
0 0
0 0
0 0
0 0
0 0
0 0
0 0
0 0
0 0
0 0
0 0
0 0
0 0
0 0
0 0
0 0
0 0
0 0
0 0
0 0
0 0
0 0
0 0
0 0
0 0
0 0
0 0
0 0
0 0
0 0
0 0
0 0
0 0
0 0
0 0
0 0
0 0
0 0
0 0
0 0
0 0
0 0
0 0
0 0
0 0
0 0
0 0
0 0
0 0
0 0
0 0
0 0
0 0
0 0
0 0
0 0
0 0
0 0
0 0
0 0
0 0
0 0
0 0
0 0
0 0
0 0
0 0
0 0
0 0
0 0
0 0
0 0
0 0
0 0
0 0
0 0
0 0
0 0
0 0
0 0
0 0
0 0
0 0
0 0
0 0
0 0
0 0
0 0
0 0
0 0
0 0
0 0
0 0
0 0
0 0
0 0
0 0
0 0
0 0
0 0
0 0
0 0
0 0
0 0
0 0
0 0
0 0
0 0
0 0
0 0
0 0
0 0
0 0
0 0
0 0
0 0
0 0
0 0
0 0
0 0
0 0
0 0
0 0
0 0
0 0
0 0
0 0
0 0
0 0
0 0
0 0
0 0
0 0
0 0
0 0
0 0
0 0
0 0
0 0
0 0
0 0
0 0
0 0
0 0
0 0
0 0
0 0
0 0
0 0
0 0
0 0
0 0
0 0
0 0
0 0
0 0
0 0
0 0
0 0
0 0
0 0
0 0
0 0
0 0
0 0
0 0
0 0
0 0
0 0
0 0
0 0
0 0
0 0
0 0
0 0
0 0
0 0
0 0
0 0
0 0
0 0
0 0
0 0
0 0
0 0
0 0
0 0
0 0
0 0
0 0
0 0
0 0
0 0
0 0
0 0
0 0
0 0
0 0
0 0
0 0
0 0
0 0
0 0
0 0
0 0
0 0
0 0
0 0
0 0
0 0
0 0
0 0
0 0
0 0
0 0
0 0
0 0
0 0
0 0
0 0
0 0
0 0
0 0
0 0
0 0
0 0
0 0
0 0
0 0
0 0
0 0
0 0
0 0
0 0
0 0
0 0
0 0
0 0
0 0
0 0
0 0
0 0
0 0
0 0
0 0
0 0
0 0
0 0
0 0
0 0
0 0
0 0
0 0
0 0
0 0
0 0
0 0
0 0
0 0
0 0
0 0
0 0
0 0
0 0
0 0
0 0
0 0
0 0
0 0
0 0
0 0
0 0
0 0
0 0
0 0
0 0
0 0
0 0
0 0
0 0
0 0
0 0
0 0
0 0
0 0
0 0
0 0
0 0
0 0
0 0
0 0
0 0
0 0
0 0
0 0
0 0
0 0
0 0
0 0
0 0
0 0
0 0
0 0
0 0
0 0
0 0
0 0
0 0
0 0
0 0
0 0
0 0
0 0
0 0
0 0
0 0
0 0
0 0
0 0
0 0
0 0
0 0
0 0
0 0
0 0
0 0
0 0
0 0
0 0
0 0
0 0
0 0
0 0
0 0
0 0
0 0
0 0
0 0
0 0
0 0
0 0
0 0
0 0
0 0
0 0
0 0
0 0
0 0
0 0
0 0
0 0
0 0
0 0
0 0
0 0
0 0
0 0
0 0
0 0
0 0
0 0
0 0
0 0
0 0
0 0
0 0
0 0
0 0
0 0
0 0
0 0
0 0
0 0
0 0
0 0
0 0
0 0
0 0
0 0
0 0
0 0
0 0
0 0
0 0
0 0
0 0
0 0
0 0
0 0
0 0
0 0
0 0
0 0
0 0
0 0
0 0
0 0
0 0
0 0
0 0
0 0
0 0
0 0
0 0
0 0
0 0
0 0
0 0
0 0
0 0
0 0
0 0
0 0
0 0
0 0
0 0
0 0
0 0
0 0
0 0
0 0
0 0
0 0
0 0
0 0
0 0
0 0
0 0
0 0
0 0
0 0
0 0
0 0
0 0
0 0
0 0
0 0
0 0
0 0
0 0
0 0
0 0
0 0
0 0
0 0
0 0
0 0
0 0
0 0
0 0
0 0
0 0
0 0
0 0
0 0
0 0
0 0
0 0
0 0
0 0
0 0
0 0
0 0
0 0
0 0
0 0
0 0
0 0
0 0
0 0
0 0
0 0
0 0
0 0
0 0
0 0
0 0
0 0
0 0
0 0
0 0
0 0
0 0
0 0
0 0
0 0
0 0
0 0
0 0
0 0
0 0
0 0
0 0
0 0
0 0
0 0
0 0
0 0
0 0
0 0
0 0
0 0
0 0
0 0
0 0
0 0
0 0
0 0
0 0
0 0
0 0
0 0
0 0
0 0
0 0
0 0
0 0
0 0
0 0
0 0
0 0
0 0
0 0
0 0
0 0
0 0
0 0
0 0
0 0
0 0
0 0
0 0
0 0
0 0
0 0
0 0
0 0
0 0
0 0
0 0
0 0
0 0
0 0
0 0
0 0
0 0
0 0
0 0
0 0
0 0
0 0
0 0
0 0
0 0
0 0
0 0
0 0
0 0
0 0
0 0
0 0
0 0
0 0
0 0
0 0
0 0
0 0
0 0
0 0
0 0
0 0
0 0
0 0
0 0
0 0
0 0
0 0
0 0
0 0
0 0
0 0
0 0
0 0
0 0
0 0
0 0
0 0
0 0
0 0
0 0
0 0
0 0
0 0
0 0
0 0
0 0
0 0
0 0
0 0
0 0
0 0
0 0
0 0
0 0
0 0
0 0
0 0
0 0
0 0
0 0
0 0
0 0
0 0
0 0
0 0
0 0
0 0
0 0
0 0
0 0
0 0
0 0
0 0
0 0
0 0
0 0
0 0
0 0
0 0
0 0
0 0
0 0
0 0
0 0
0 0
0 0
0 0
0 0
0 0
0 0
0 0
0 0
0 0
0 0
0 0
0 0
0 0
0 0
0 0
0 0
0 0
0 0
0 0
0 0
0 0
0 0
0 0
0 0
0 0
0 0
0 0
0 0
0 0
0 0
0 0
0 0
0 0
0 0
0 0
0 0
0 0
0 0
0 0
0 0
0 0
0 0
0 0
0 0
0 0
0 0
0 0
0 0
0 0
0 0
0 0
0 0
0 0
0 0
0 0
0 0
0 0
0 0
0 0
0 0
0 0
0 0
0 0
0 0
0 0
0 0
0 0
0 0
0 0
0 0
0 0
0 0
0 0
0 0
0 0
0 0
0 0
0 0
0 0
0 0
0 0
0 0
0 0
0 0
0 0
0 0
0 0
0 0
0 0
0 0
0 0
0 0
0 0
0 0
0 0
0 0
0 0
0 0
0 0
0 0
0 0
0 0
0 0
0 0
0 0
0 0
0 0
0 0
0 0
0 0
0 0
0 0
0 0
0 0
0 0
0 0
0 0
0 0
0 0
0 0
0 0
0 0
0 0
0 0
0 0
0 0
0 0
0 0
0 0
0 0
0 0
0 0
0 0
0 0
0 0
0 0
0 0
0 0
0 0
0 0
0 0
0 0
0 0
0 0
0 0
0 0
0 0
0 0
0 0
0 0
0 0
0 0
0 0
0 0
0 0
0 0
0 0
0 0
0 0
0 0
0 0
0 0
0 0
0 0
0 0
0 0
0 0
0 0
0 0
0 0
0 0
0 0
0 0
0 0
0 0
0 0
0 0
0 0
0 0
0 0
0 0
0 0
0 0
0 0
0 0
0 0
0 0
0 0
0 0
0 0
0 0
0 0
0 0
0 0
0 0
0 0
0 0
0 0
0 0
0 0
0 0
0 0
0 0
0 0
0 0
0 0
0 0
0 0
0 0
0 0
0 0
0 0
0 0
0 0
0 0
0 0
0 0
0 0
0 0
0 0
0 0
0 0
0 0
0 0
0 0
0 0
0 0
0 0
0 0
0 0
0 0
0 0
0 0
0 0
0 0
0 0
0 0
0 0
0 0
0 0
0 0
0 0
0 0
0 0
0 0
0 0
0 0
0 0
0 0
0 0
0 0
0 0
0 0
0 0
0 0
0 0
0 0
0 0
0 0
0 0
0 0
0 0
0 0
0 0
0 0
0 0
0 0
0 0
0 0
0 0
0 0
0 0
0 0
0 0
0 0
0 0
0 0
0 0
0 0
0 0
0 0
0 0
0 0
0 0
0 0
0 0
0 0
0 0
0 0
0 0
0 0
0 0
0 0
0 0
0 0
0 0
0 0
0 0
0 0
0 0
0 0
0 0
0 0
0 0
0 0
0 0
0 0
0 0
0 0
0 0
0 0
0 0
0 0
0 0
0 0
0 0
0 0
0 0
0 0
0 0
0 0
0 0
0 0
0 0
0 0
0 0
0 0
0 0
0 0
0 0
0 0
0 0
0 0
0 0
0 0
0 0
0 0
0 0
0 0
0 0
0 0
0 0
0 0
0 0
0 0
0 0
0 0
0 0
0 0
0 0
0 0
0 0
0 0
0 0
0 0
0 0
0 0
0 0
0 0
0 0
0 0
0 0
0 0
0 0
0 0
0 0
0 0
0 0
0 0
0 0
0 0
0 0
0 0
0 0
0 0
0 0
0 0
0 0
0 0
0 0
0 0
0 0
0 0
0 0
0 0
0 0
0 0
0 0
0 0
0 0
0 0
0 0
0 0
0 0
0 0
0 0
0 0
0 0
0 0
0 0
0 0
0 0
0 0
0 0
0 0
0 0
0 0
0 0
0 0
0 0
0 0
0 0
0 0
0 0
0 0
0 0
0 0
0 0
0 0
0 0
0 0
0 0
0 0
0 0
0 0
0 0
0 0
0 0
0 0
0 0
0 0
0 0
0 0
0 0
0 0
0 0
0 0
0 0
0 0
0 0
0 0
0 0
0 0
0 0
0 0
0 0
0 0
0 0
0 0
0 0
0 0
0 0
0 0
0 0
0 0
0 0
0 0
0 0
0 0
0 0
0 0
0 0
0 0
0 0
0 0
0 0
0 0
0 0
0 0
0 0
0 0
0 0
0 0
0 0
0 0
0 0
0 0
0 0
0 0
0 0
0 0
0 0
0 0
0 0
0 0
0 0
0 0
0 0
0 0
0 0
0 0
0 0
0 0
0 0
0 0
0 0
0 0
0 0
0 0
0 0
0 0
0 0
0 0
0 0
0 0
0 0
0 0
0 0
0 0
0 0
0 0
0 0
0 0
0 0
0 0
0 0
0 0
0 0
0 0
0 0
0 0
0 0
0 0
0 0
0 0
0 0
0 0
0 0
0 0
0 0
0 0
0 0
0 0
0 0
0 0
0 0
0 0
0 0
0 0
0 0
0 0
0 0
0 0
0 0
0 0
0 0
0 0
0 0
0 0
0 0
0 0
0 0
0 0
0 0
0 0
0 0
0 0
0 0
0 0
0 0
0 0
0 0
0 0
0 0
0 0
0 0
0 0
0 0
0 0
0 0
0 0
0 0
0 0
0 0
0 0
0 0
0 0
0 0
0 0
0 0
0 0
0 0
0 0
0 0
0 0
0 0
0 0
0 0
0 0
0 0
0 0
0 0
0 0
0 0
0 0
0 0
0 0
0 0
0 0
0 0
0 0
0 0
0 0
0 0
0 0
0 0
0 0
0 0
0 0
0 0
0 0
0 0
0 0
0 0
0 0
0 0
0 0
0 0
0 0
0 0
0 0
0 0
0 0
0 0
0 0
0 0
0 0
0 0
0 0
0 0
0 0
0 0
0 0
0 0
0 0
0 0
0 0
0 0
0 0
0 0
0 0
0 0
0 0
0 0
0 0
0 0
0 0
0 0
0 0
0 0
0 0
0 0
0 0
0 0
0 0
0 0
0 0
0 0
0 0
0 0
0 0
0 0
0 0
0 0
0 0
0 0
0 0
0 0
0 0
0 0
0 0
0 0
0 0
0 0
0 0
0 0
0 0
0 0
0 0
0 0
0 0
0 0
0 0
0 0
0 0
0 0
0 0
0 0
0 0
0 0
0 0
0 0
0 0
0 0
0 0
0 0
0 0
0 0
0 0
0 0
0 0
0 0
0 0
0 0
0 0
0 0
0 0
0 0
0 0
0 0
0 0
0 0
0 0
0 0
0 0
0 0
0 0
0 0
0 0
0 0
0 0
0 0
0 0
0 0
0 0
0 0
0 0
0 0
0 0
0 0
0 0
0 0
0 0
0 0
0 0
0 0
0 0
0 0
0 0
0 0
0 0
0 0
0 0
0 0
0 0
0 0
0 0
0 0
0 0
0 0
0 0
0 0
0 0
0 0
0 0
0 0
0 0
0 0
0 0
0 0
0 0
0 0
0 0
0 0
0 0
0 0
0 0
0 0
0 0
0 0
0 0
0 0
0 0
0 0
0 0
0 0
0 0
0 0
0 0
0 0
0 0
0 0
0 0
0 0
0 0
0 0
0 0
0 0
0 0
0 0
0 0
0 0
0 0
0 0
0 0
0 0
0 0
0 0
0 0
0 0
0 0
0 0
0 0
0 0
0 0
0 0
0 0
0 0
0 0
0 0
0 0
0 0
0 0
0 0
0 0
0 0
0 0
0 0
0 0
0 0
0 0
0 0
0 0
0 0
0 0
0 0
0 0
0 0
0 0
0 0
0 0
0 0
0 0
0 0
0 0
0 0
0 0
0 0
0 0
0 0
0 0
0 0
0 0
0 0
0 0
0 0
0 0
0 0
0 0
0 0
0 0
0 0
0 0
0 0
0 0
0 0
0 0
0 0
0 0
0 0
0 0
0 0
0 0
0 0
0 0
0 0
0 0
0 0
0 0
0 0
0 0
0 0
0 0
0 0
0 0
0 0
0 0
0 0
0 0
0 0
0 0
0 0
0 0
0 0
0 0
0 0
0 0
0 0
0 0
0 0
0 0
0 0
0 0
0 0
0 0
0 0
0 0
0 0
0 0
0 0
0 0
0 0
0 0
0 0
0 0
0 0
0 0
0 0
0 0
0 0
0 0
0 0
0 0
0 0
0 0
0 0
0 0
0 0
0 0
0 0
0 0
0 0
0 0
0 0
0 0
0 0
0 0
0 0
0 0
0 0
0 0
0 0
0 0
0 0
0 0
0 0
0 0
0 0
0 0
0 0
0 0
0 0
0 0
0 0
0 0
0 0
0 0
0 0
0 0
0 0
0 0
0 0
0 0
0 0
0 0
0 0
0 0
0 0
0 0
0 0
0 0
0 0
0 0
0 0
0 0
0 0
0 0
0 0
0 0
0 0
0 0
0 0
0 0
0 0
0 0
0 0
0 0
0 0
0 0
0 0
0 0
0 0
0 0
0 0
0 0
0 0
0 0
0 0
0 0
0 0
0 0
0 0
0 0
0 0
0 0
0 0
0 0
0 0
0 0
0 0
0 0
0 0
0 0
0 0
0 0
0 0
0 0
0 0
0 0
0 0
0 0
0 0
0 0
0 0
0 0
0 0
0 0
0 0
0 0
0 0
0 0
0 0
0 0
0 0
0 0
0 0
0 0
0 0
0 0
0 0
0 0
0 0
0 0
0 0
0 0
0 0
0 0
0 0
0 0
0 0
0 0
0 0
0 0
0 0
0 0
0 0
      </DataArray> 
      <DataArray type="Float64" NumberOfComponents="2" Name="CauchyNormalStress" format="ascii">
13.2487 7.94886
12.0463 6.44013
12.8356 1.31122
6.59922 -0.306034
4.46037 0.0539637
2.74297 -0.0207412
1.77117 -0.146127
1.12346 -0.144935
0.376514 -0.0657749
-0.162666 -0.00665369
-0.585814 -0.0702505
-0.842575 -0.096517
-1.20695 -0.0509435
-1.44295 -0.00237484
-1.59978 -0.0562534
-1.63655 -0.0695961
-1.75271 -0.0259949
-1.7589 0.00617347
-1.68908 -0.0519863
-1.49573 -0.0699787
-1.38218 -0.0257994
-1.15681 0.00426951
-0.834257 -0.0650974
-0.348395 -0.0944734
0.0366326 -0.0340734
0.584138 0.0204619
1.32069 -0.0693832
2.52594 -0.294793
3.68664 -0.422959
5.5249 -0.199612
11.5354 0.567167
-1.15835 1.32178
-1.52764 1.55046
-1.38344 2.94545
4.05015 10.4383
-1.10276 -0.0406268
-0.279603 -0.0897397
-0.0609245 -0.28343
-0.14949 -0.445265
-0.143782 -0.503484
-0.03821 -0.793282
-0.0261199 -0.878475
-0.0223199 -0.974492
-0.0607216 -0.994744
-0.0957717 -1.08968
-0.108461 -0.917062
-0.119444 -0.998855
-0.153141 -0.967664
-0.206549 -0.981155
-0.258743 -0.891396
-0.305052 -0.877869
-0.347139 -0.7264
-0.422065 -0.764854
-0.0102282 -1.00869
-0.876942 -0.0640416
-1.04077 -0.0818882
-0.789332 -0.193182
-0.852522 -0.25083
-0.601811 -0.434275
-113.119 -293.712
-0.647334 -2.81343
-0.208309 -1.08881
-1.40329 -3.5283
-11.2554 -56.6063
-3.89924 -50.0199
0.0239622 -28.5778
-2.2129 -30.0686
-2.55906 -29.5261
-4.63214 -34.2872
25.07 1.54154
-18.8444 -56.7044
-24.9376 -67.8307
-34.3548 -101.619
-11.3766 -56.1942
26.2742 0.723286
35.9742 14.67
-28.2686 -10.6387
-102.846 -281.599
-4.16493 -50.2176
0.0151792 -28.8875
-2.28833 -30.2357
-2.56004 -29.6119
-4.6121 -34.2661
0.0245364 -1.27699
-0.628734 -2.77277
-0.315103 -1.09139
-1.84117 -3.14566
-1.19329 0.156324
-0.311657 -2.1851
-0.0576047 -1.22639
-0.302301 -1.52474
-0.334686 -0.882933
-0.409814 -0.7785
-0.849959 1.373
-0.871209 -0.0200196
-1.01242 -0.134615
-0.750883 -0.160029
-0.84212 -0.296482
-0.656562 -0.294375
-0.649155 -0.431738
-0.526385 -0.494937
-0.503888 -0.59407
-0.43347 -0.712622
-0.359577 -0.725117
-0.31511 -0.882188
-0.218753 -0.834716
-0.170291 -1.00887
-0.0981229 -0.99893
-0.116512 -1.05368
-0.0953748 -0.955095
-0.0608514 -1.01659
-1.13934 2.17337
-0.419833 3.99803
4.40414 9.72867
-29.0469 -17.5203
-17.6458 -45.4452
-28.1314 -18.9357
-15.4234 -61.5309
-19.704 -49.7957
-3.48396 -36.6248
-28.7102 -13.8199
7.60095 -40.5541
2.27334 -6.07951
1.57781 -6.15533
-5.19268 -63.1186
-5.48201 -64.9271
3.63417 -15.0437
1.42432 -7.13383
0.664197 -30.6428
0.766516 -26.7736
-0.437872 -30.8103
1.51622 -23.3966
0.931207 -27.2068
-2.75007 -25.9124
-0.354369 -26.034
-0.778286 -28.182
-3.70361 -27.8375
2.20395 -21.5869
2.84185 -20.6158
2.43466 -28.092
-14.7964 -9.21853
-15.4087 -9.22195
-16.3659 -10.1704
1.36791 -32.615
1.89934 -24.8366
-8.45551 -28.7764
-8.07935 -27.0451
-0.477493 -36.3302
-2.39251 -35.0312
-6.56993 -30.8453
-7.3818 -33.0931
-0.621709 -33.6958
-11.3576 -7.52872
-13.5185 -8.00464
-12.5467 -8.10012
1.20747 -20.8017
1.65959 -21.9217
-12.6561 -13.0228
-8.34187 -19.6293
-1.84193 -22.5148
0.601454 -19.5912
0.418302 -20.9557
-1.92879 -24.3286
-8.89326 -21.0346
-13.4755 -13.5366
2.55955 -18.0646
3.52709 -25.0716
-21.0279 -15.6649
-20.4733 -12.4795
-17.2 -10.0274
-18.0042 -13.7101
4.44827 -25.9282
4.79274 -31.2088
3.86415 -30.1776
3.0854 -24.8801
3.05776 -19.4431
2.69204 -17.2609
-22.0274 -17.9459
-12.6285 -26.1893
-12.1947 -24.4092
-21.817 -25.1115
3.50584 -38.5769
0.268934 -48.8502
-8.00892 -36.4683
-1.58437 -38.5633
4.23005 -35.51
-10.2147 -7.34916
-11.6764 -7.48177
-11.6643 -7.1818
-11.9788 -7.41697
-9.795 -6.24381
-9.48358 -6.1451
-9.07183 -5.8614
-10.3706 -6.97975
1.60217 -17.7126
2.23728 -16.0701
2.3761 -15.682
1.65443 -18.2133
-9.65253 -7.41419
-10.0914 -8.4697
-10.2838 -12.7031
-7.93631 -15.1481
-3.82627 -17.8139
-1.28803 -19.2418
-1.81744 -20.2305
-4.44931 -18.8822
-8.59777 -16.1986
-10.6175 -13.1519
-10.6857 -8.12401
-10.0079 -7.13108
2.46001 -15.2082
3.90205 -19.813
-27.8809 -22.5566
-23.1294 -13.0753
-25.1106 -15.906
5.73332 -26.0889
5.7337 -29.3405
3.60021 -19.5674
2.38104 -13.7965
-22.2184 -28.4021
-22.2795 -36.6525
6.10943 -41.8619
-10.5602 -43.4491
-22.6612 -45.2053
-8.53956 -37.789
2.02756 -43.1339
-7.15717 -5.1327
-8.16958 -5.69992
-8.2996 -5.63648
-7.25755 -5.00612
-6.77081 -4.88131
-6.79179 -4.7996
1.89699 -14.6643
1.59491 -14.4304
-7.0676 -6.32871
-5.27581 -10.5383
-0.53054 -14.9117
-1.32619 -15.5466
-5.76395 -10.777
-7.06086 -5.8551
1.64758 -9.55741
2.03977 -11.0521
2.43031 -13.1864
2.8876 -13.4753
4.04383 -14.7778
5.26917 -19.3324
-24.006 -35.7155
-29.54 -13.9973
-26.7791 -24.6016
6.37415 -24.4899
6.50513 -25.9601
5.34151 -21.3949
4.10994 -17.4106
3.17933 -14.8517
2.11582 -11.4901
1.5252 -8.48658
-26.4968 -39.0913
-26.6297 -51.5883
7.248 -31.0448
6.61702 -56.4377
-25.3615 -59.8719
7.52252 -42.0348
7.05971 -29.1999
-14.6127 -48.8797
4.14924 -51.3323
-3.7247 -3.58874
-4.06493 -3.45579
-5.08125 -4.13769
-4.37293 -4.11617
-5.9022 -4.21862
-5.47862 -4.26553
-5.61402 -3.88957
-5.61447 -3.98113
-4.53516 -3.45883
-4.82899 -3.44667
-4.26803 -3.78124
-4.87187 -3.72757
-3.49607 -3.21875
-3.89347 -3.49415
1.69996 -13.0985
1.86803 -12.7164
1.96303 -11.1017
1.43144 -8.29047
1.97556 -10.7296
1.75155 -13.119
0.829373 -14.0201
-4.78752 -4.5025
-3.73781 -6.00032
-1.57243 -9.27693
0.308639 -11.2412
-1.01137 -12.2659
-2.31915 -9.62977
-4.32469 -5.83123
-4.4302 -3.88205
0.631472 -4.43075
1.33091 -7.63133
1.79513 -8.53289
2.6627 -10.312
3.68497 -12.4097
0.700462 -80.8622
-22.7769 -12.2264
-13.713 -1.65946
-23.3734 -9.41974
-3.01501 -73.9509
5.55342 -19.2837
5.34637 -18.4385
3.71359 -13.495
2.24587 -10.8333
0.761151 -5.12381
1.32078 -104.107
-8.24341 -79.6844
0.847582 -100.564
-3.67025 -85.3485
5.73076 -32.6523
-14.6818 -83.0208
-47.9812 -97.0689
5.56446 -26.9358
-45.9478 -85.3344
-3.88317 -65.8371
-0.504693 -2.03209
-1.75956 -2.67781
-3.1319 -2.67397
-3.57511 -2.49318
-3.27951 -2.34918
-2.25963 -2.4
-0.572804 -2.18917
2.74739 -9.03648
1.05051 -5.81669
1.4371 -6.47046
1.93608 -9.88038
-0.306282 -2.6133
2.92621 -7.20639
4.22694 -6.21692
3.25985 -7.69584
1.13724 -7.97331
-0.42754 -2.43903
0.641466 -2.7673
0.619933 -3.59101
0.154365 -1.99372
0.42296 -3.30889
0.397074 -3.30368
0.778644 -5.00931
0.672097 -4.26897
1.00979 -5.32361
1.06587 -5.26606
1.21694 -5.50019
1.02336 -4.8372
-20.5313 -34.3761
-10.7943 -3.48018
-9.74377 -3.11297
-21.155 -24.1821
2.1288 -7.5287
2.64965 -9.02745
2.83187 -10.0896
1.95407 -8.53601
2.44489 -13.9185
2.29103 -12.5564
2.05981 -8.91748
2.5744 -9.35187
2.60965 -8.93537
2.02718 -7.33047
2.02644 -7.46312
1.52903 -6.33556
0.908898 -4.71938
1.09085 -5.60067
0.295907 -3.04319
0.41361 -3.08566
0.375318 -3.15249
0.269081 -2.64901
1.12995 -56.2651
1.32857 -74.9945
-1.26525 -99.9951
0.927867 -54.7019
0.846507 -95.8043
0.548629 -72.1266
0.827245 -16.7733
-2.95604 -15.2098
-2.11375 -116.929
1.49396 -16.4411
3.09388 -78.9107
-0.838026 -21.2697
2.18403 -1.11259
4.90439 1.47155
2.67994 -1.53889
0.373924 -1.35481
1.14351 -1.34149
-0.607101 -1.43113
-1.60847 -1.38072
-1.18579 -1.35166
-2.09227 -1.34364
-2.50259 -1.31945
-2.33885 -1.28591
-2.48895 -1.20215
-2.429 -1.21065
-2.50606 -1.16804
-2.11939 -1.18763
-1.51435 -1.22642
-1.88128 -1.16459
-0.81018 -1.251
0.722299 -1.36756
-0.230806 -1.21659
1.93604 -0.885041
5.40034 1.02478
2.53413 -0.993249
0.158557 -1.63828
0.160893 -1.87788
0.341075 -2.48311
0.291554 -2.38395
1.5495 -5.71835
3.16874 -1.93454
1.87397 -5.65194
2.9366 -6.69025
2.5012 -2.65329
5.33963 -0.0999621
3.36624 -3.75101
2.45046 -4.47991
4.75295 -0.0447728
0.227433 -1.24776
0.196327 -1.13639
0.266556 0.19269
0.450319 -0.710685
0.354955 -0.790047
0.160974 -0.0622075
2.1331 1.11685
10.1881 4.10091
2.5798 1.19144
2.36901 -0.057078
2.61324 -0.310064
8.0385 1.323
4.88801 -4.07125
6.11086 -1.53905
0.867405 -1.9474
1.06002 -2.05826
-0.425058 -4.69398
0.407183 -4.81068
2.27922 -9.07294
1.98435 -8.78737
0.654048 -4.45077
0.34283 -2.96014
-0.351641 -1.42282
-1.33639 -2.43946
-2.78896 -2.33829
-3.41215 -2.3493
-3.42793 -2.59291
-2.47497 -2.70442
-0.699235 -2.60055
-1.67057 -1.51471
5.51954 -37.9185
3.90902 -48.8541
6.8254 -82.7992
7.38826 -85.3612
0.87099 -5.32987
2.5672 -10.5494
4.62899 -15.452
4.66943 -18.0533
5.77275 -23.051
4.71695 -15.7081
-21.8925 -25.67
-19.4782 -34.7252
2.67582 -9.55059
2.26731 -9.77206
1.78429 -9.20071
0.95544 -5.82054
1.56796 -10.8108
3.15057 -9.58036
-26.5984 -60.2078
-28.5347 -71.7513
-25.9786 -8.15312
-7.86896 -7.30384
-3.87904 -14.0068
-3.08614 -13.2835
-7.68908 -7.776
0.761913 -17.0417
2.05227 -12.0559
2.19942 -13.1369
1.26539 -16.4447
-6.40816 -4.72316
-7.15764 -5.04739
-6.40118 -4.58248
-7.95219 -5.39476
-8.55491 -5.81108
-7.78289 -5.53451
-6.62167 -4.98499
-4.54658 -41.5195
6.50766 -37.8518
4.36999 -53.722
6.28061 -32.7972
-27.0028 -33.658
-28.2561 -23.7713
2.813 -15.4284
4.62019 -24.0204
-19.149 -11.237
-26.8471 -17.4286
4.81747 -20.4218
2.95039 -17.1588
-12.3338 -33.9193
-12.0541 -31.8023
-13.5696 -9.14616
-13.2843 -18.4461
-4.71921 -23.6812
-4.22265 -22.2281
-12.7108 -17.111
-12.6201 -9.47415
2.55337 -19.2617
2.08526 -18.9943
-11.6831 -7.15167
-15.3432 -8.9197
1.24711 -35.593
-3.63155 -40.8554
1.54133 -29.6473
2.37871 -31.9967
0.60985 -24.745
0.360403 -22.6917
-2.43313 -31.8629
-1.12835 -29.4367
2.60947 -24.1498
3.09475 -121.77
-2.22908 -1.58944
-13.221 -28.8207
-5.27638 -26.1957
-3.93572 -3.44458
4.9792 -53.4697
-1.65452 -2.20654
-20.9108 -164.646
-14.0763 -51.3471
-2.46915 -2.95282
-7.35113 -29.3922
2.12314 -76.2008
-0.154599 -84.6573
-11.931 -84.4456
-10.7183 -68.8285
-6.89746 -133.652
-6.69802 -36.3699
-10.9443 -40.0058
-7.45827 -58.817
3.40945 -77.0832
2.95048 -84.9168
0.687421 -62.2335
-4.02346 -54.0453
-3.048 -46.2608
-14.8199 -43.8631
-19.3301 -54.4737
-0.965655 -42.2311
2.76674 -69.8128
-0.164895 -88.6215
-9.79232 -71.2081
-11.995 -89.2037
-7.17798 -60.395
-6.72419 -36.41
-10.9228 -40.1209
-11.602 -147.652
2.41874 -87.3433
3.93682 -80.0382
1.11049 -64.3221
-2.97586 -47.143
-3.77053 -55.4232
-0.8771 -43.0612
-14.8621 -44.182
-19.3197 -55.4399
3.15952 -72.1388
-13.43 -9.16496
1.65388 -5.05292
8.05267 2.58144
6.26979 -0.623934
-73.2 -141.392
-34.863 -103.084
-53.8796 -79.6762
-21.0298 -26.586
-15.2562 -12.225
-14.496 -11.2352
6.45518 1.51929
0.488238 -5.13574
-53.7255 -89.5514
-72.1524 -143.513
-28.9606 -11.8907
6.06678 -0.952286
-14.9464 -15.7423
-20.0049 -35.9831
-23.2983 -73.914
-20.858 -104.708
1.38439 -79.7198
-74.7847 -119.319
6.39341 -58.0678
-25.1944 -57.9629
-33.4896 -70.7239
-42.8158 -89.5118
-9.23422 -103.888
-52.1336 -118.323
3.7158 -76.8096
-75.189 -124.798
-38.0483 -82.9271
-33.9115 -73.6199
-21.7248 -94.3483
-20.2919 -116.594
-3.30441 -92.214
1.56427 -86.116
-15.7908 -79.1651
-24.082 -82.724
-6.51397 -90.6642
-29.3252 -105.164
0.102715 -84.7789
-17.9996 -69.3112
2.91946 -89.6186
-12.2961 -58.0511
-5.96156 -68.262
-14.6348 -51.3335
-22.3969 -141.685
5.37549 -91.7801
1.66915 -80.9371
-18.878 -5.07
-10.7163 -2.39707
-17.2665 -8.12442
4.9065 -1.20774
-22.1957 -16.4936
-24.2695 -8.48995
-20.4687 -5.70711
-18.5915 -6.50556
-17.7509 -10.2436
-11.272 -2.74472
-21.0761 -21.5205
-23.972 -9.78246
3.69588 -92.1855
-4.48961 -73.8731
-8.53886 -66.9997
-21.2043 -138.002
-10.8916 -60.287
3.06073 -82.6259
4.79025 -89.4065
-23.2623 -51.2419
-13.9548 -59.6375
-4.38221 -52.4629
-9.49922 -45.262
-28.5418 -65.637
-15.1179 -67.8019
-0.31631 -68.3196
-3.23806 -59.3466
-25.311 -52.6156
-18.8351 -46.9722
-13.1396 -41.2398
-17.4935 -39.5112
-21.9066 -36.8182
-24.6409 -33.9346
-25.3403 -42.4971
-25.3373 -25.9368
-27.1046 -31.678
-25.8186 -49.0756
-17.5591 -31.2274
-24.9115 -35.3095
-24.6871 -29.5876
-21.7038 -30.8338
-17.145 -28.368
-17.4192 -21.4595
-17.1974 -34.3567
-25.1875 -21.2657
-21.9192 -23.068
-17.875 -23.7304
-17.8057 -17.9233
-26.6807 -19.706
-23.4956 -16.7886
-20.5852 -14.5173
-22.1729 -13.7714
-23.5995 -15.1099
-24.8989 -14.9797
-21.7543 -12.6824
-19.2876 -11.1274
-21.0971 -12.0779
-17.972 -10.6059
-21.2359 -20.1713
-24.9349 -23.7008
-24.6328 -19.5718
-27.2542 -27.9024
-27.3059 -19.7387
-23.8636 -16.3967
-16.9691 -16.0652
-20.5892 -13.9191
-17.7045 -10.916
-13.665 -9.24905
-14.9439 -9.06267
-17.957 -12.3441
-16.9965 -12.9522
-16.6526 -67.6276
-4.27916 -84.6299
-15.9203 -86.2866
2.16463 -77.3164
-24.9396 -67.5807
-18.7821 -56.5239
-8.90963 -58.542
0.451105 -43.2074
-1.82533 -62.0741
-2.81677 -45.2801
-23.1886 -62.3595
-31.0508 -49.4988
-2.65342 -44.3275
-1.81466 -60.3947
0.359153 -42.3823
1.92677 -74.8361
-23.5435 -60.2669
-30.2811 -50.713
-8.60463 -57.9527
-15.9536 -84.672
-4.14675 -82.1617
-16.3829 -66.6851
35.1584 17.5026
26.3317 1.2728
-27.5531 -18.9349
-26.296 -12.3776
-24.9269 -16.4019
-27.3308 -10.4888
-23.9692 -25.3936
-27.6488 -24.3363
-28.5572 -18.7629
-23.589 -37.6361
-23.069 -43.5064
-26.6313 -32.3749
-23.0316 -55.3591
-20.5475 -39.1267
-4.90644 -75.7785
-14.9435 -64.1754
-11.0324 -60.1852
-6.87931 -69.8297
-11.1257 -73.2691
-1.1501 -81.3702
-20.9938 -66.4116
-16.7033 -49.9772
-24.9443 -44.4875
-20.8728 -55.6888
-20.1558 -49.6316
-27.4607 -61.0555
-21.3113 -35.8207
-25.5197 -34.6947
-26.1043 -43.0626
-28.1463 -21.3257
-28.6689 -15.9945
-28.7219 -17.8864
-27.1976 -13.0882
-28.1241 -11.8895
-28.5509 -16.3599
-27.4305 -26.0636
-23.2348 -22.9144
-25.7764 -16.6988
-26.0919 -26.5659
-22.7517 -48.5299
-20.6322 -52.6834
-27.0816 -55.9168
-10.1142 -53.9957
-24.4299 -43.9784
-20.186 -40.9864
-14.4941 -38.4567
-26.3441 -15.6039
-27.1592 -16.8178
-24.061 -14.559
-28.4233 -20.5665
-27.9723 -17.2368
-28.9395 -13.5815
-28.9467 -16.0301
-29.1571 -15.2597
-6.82769 -15.5966
-4.24016 -20.6705
-3.96458 -10.474
-1.8669 -42.6183
-0.363086 -31.8225
-2.52367 -8.87004
-3.75865 -2.57632
-5.84637 -1.83112
-9.45348 -16.4551
-6.9978 -70.58
-3.65921 -54.2909
-9.35664 -37.8324
3.68468 -59.5051
-14.2301 -26.3598
-7.23686 -80.6294
1.98733 -90.6318
-37.7745 -220.109
-42.9339 -51.665
-25.3123 -95.9767
-4.50195 -108.306
-22.9165 -102.024
-59.6496 -191.666
-42.8941 -49.0607
-46.4067 -230.869
-25.0925 -104.606
-23.5629 -111.57
-6.46437 -114.46
-57.4422 -206.714
-45.7415 -110.33
-34.0732 -131.666
-12.9892 -120.476
-103.32 -185.705
-44.0577 -182.959
1.65401 -91.9923
-6.61112 -98.2932
-36.5312 -92.8059
-55.1946 -100.948
3.34566 -68.2848
5.18326 -57.2019
4.54232 -66.8266
5.51698 -44.1706
5.79731 -48.8546
1.93307 -62.6067
-2.37403 -73.2834
1.19108 -82.7342
4.33748 -62.7446
-24.4981 -65.2629
-30.0112 -64.366
-30.0842 -72.025
-26.6758 -59.4421
-29.7397 -65.5372
-37.6054 -78.2609
-36.2885 -79.7503
-12.5709 -70.3167
-17.8537 -66.6584
-1.15763 -87.9014
1.81101 -78.7927
-1.97263 -91.6909
3.88149 -64.0069
-7.34587 -114.485
-13.0983 -93.4882
-4.22894 -80.6315
-39.0587 -143.029
-59.9189 -147.895
-71.0815 -120.163
-81.694 -225.997
-104.949 -195.078
-54.0891 -110.552
-55.6678 -105.302
-24.5406 -124.148
-10.1682 -140.175
-43.3187 -86.1532
-38.6022 -78.3714
-35.9899 -80.8319
-31.3583 -76.6027
-33.3023 -72.9551
-24.9608 -77.9961
-28.6326 -86.8458
-49.8867 -93.8481
-40.4153 -89.7413
-40.4287 -122.287
-35.5474 -132.823
-17.1392 -129.125
-8.62428 -107.876
-34.543 -107.006
-34.2172 -96.061
-30.1005 -88.8043
-26.5864 -82.8225
-10.6614 -87.9425
-24.2333 -125.177
-45.7695 -132.731
-50.8876 -109.226
-40.0681 -95.007
-14.4954 -106.995
-35.5602 -84.9788
-29.6588 -76.8113
-15.6685 -80.2211
-25.7807 -71.1919
-9.27697 -62.3865
-4.4271 -59.0773
-9.35173 -56.0083
-9.55614 -50.7259
-4.57683 -47.0145
-14.2906 -54.3441
0.575465 -73.3393
3.3662 -63.1167
5.62345 -65.063
2.40661 -60.2285
5.04797 -55.4868
5.16775 -53.6924
-6.46403 -75.1148
-8.73758 -63.6677
-2.2811 -63.9923
-7.27616 -68.2816
0.772633 -56.8771
-15.0331 -75.0646
-21.2848 -63.6537
-11.9963 -60.4935
-1.11487 -53.7614
-7.03376 -56.598
-14.4812 -49.8777
-17.6548 -57.3048
1.8857 -51.462
-4.8155 -51.7504
-6.43629 -47.1318
-2.10817 -44.8958
0.17259 -51.9646
2.68116 -47.409
-0.97854 -47.5916
5.57294 -43.9467
4.47299 -40.6642
-1.16676 -42.3424
0.759187 -57.9833
0.0679991 -41.2293
-2.84499 -23.6246
1.30236 -37.9704
-4.02503 -13.2686
-1.70915 -11.1181
2.44956 -30.1858
-2.76218 -52.8753
-7.9226 -13.3016
-4.72547 -12.3564
-8.91233 -27.9837
-3.86398 -0.703418
-4.95686 -54.7394
-11.3272 -13.0757
-6.78684 -4.23699
-14.9508 -42.508
-23.4419 -19.1569
-9.16351 -71.2032
-6.59601 0.268926
-10.2433 -1.81773
0.333955 -18.9701
-0.748172 -11.0657
0.44743 -8.58401
-25.2275 21.8286
-54.7398 -87.7734
0.637786 -8.80109
3.19143 -27.4447
-21.0463 -47.2187
-9.4843 -92.1043
-28.0472 -31.5815
-8.41631 0.532569
-13.5111 6.66258
-1.61258 -17.1136
0.105037 -8.63768
-1.25377 -8.34365
0.470642 -8.9223
-23.4351 44.6494
-55.0421 -74.1339
2.4246 -31.2417
0.970571 -5.22595
0.2749 -2.67618
0.360194 -3.11367
0.22636 -2.62464
-0.0158503 -0.88317
-0.0841747 -0.75149
0.426639 -3.18079
1.79008 -8.08742
1.75542 -7.55735
1.21156 -5.51733
0.47884 -3.30571
0.122176 -2.56009
0.361035 -3.24472
-0.152451 -0.48942
-0.117091 -0.546892
2.05056 -8.46701
2.02819 -7.40434
0.589388 -3.66393
0.534634 -3.68661
0.396746 -3.58149
-0.0327281 -0.35717
-0.162469 -0.12516
0.65314 -3.76401
3.30103 -11.4981
3.39794 -11.1012
2.29103 -8.30455
0.809011 -4.35307
0.634351 -3.67046
0.947547 -4.47838
-0.609537 -0.571269
-0.617406 -0.458394
3.58633 -12.3858
2.35671 -9.18921
0.674623 -4.68664
1.01062 -4.81161
0.85266 -4.80059
-0.850622 -0.298567
-0.797174 -0.25786
0.848815 -4.69493
3.68176 -13.4556
3.27172 -13.5527
2.16617 -10.8921
1.01212 -6.86071
0.977302 -4.92585
1.08889 -6.69226
-1.02608 -0.136032
-0.880767 -0.117398
3.5648 -15.397
2.1606 -11.4324
0.89326 -4.66926
1.12331 -7.51171
0.802524 -4.64137
-0.600847 -0.592954
-0.406965 -0.761379
1.13145 -7.16753
4.16752 -18.4889
3.79033 -15.6971
2.42993 -9.39017
1.15264 -5.20673
0.631256 -4.53048
0.956733 -5.06032
-0.326144 -0.876938
-0.315952 -1.51911
4.30414 -16.175
2.36299 -8.3692
0.641791 -3.74226
0.813978 -4.44131
0.556964 -3.68606
-0.0536214 -1.13066
-0.403482 -2.14258
0.96902 -4.5456
3.68616 -12.4465
3.48755 -11.4103
1.09227 -5.24498
0.286771 -2.89455
0.218515 -2.54143
0.388677 -2.96371
-0.478124 -0.650759
-0.540998 -0.620376
0.082486 -2.50511
1.88654 -7.05477
1.92548 -7.56974
1.01937 -5.35755
0.323187 -2.98848
0.356335 -2.91878
0.374777 -3.03977
-0.636798 -0.419856
-0.691071 -0.369489
0.301842 -2.88219
1.70324 -7.42538
1.62646 -7.55064
-0.89756 -0.200919
0.209215 -2.54574
0.253132 -2.62556
0.260942 -2.65467
1.24185 -6.62353
-0.767048 -0.16486
-22.8805 -87.7568
-6.95191 -89.9571
-10.1236 -77.5777
3.78351 -19.8464
3.66088 -21.8887
1.86878 -14.7297
5.65516 -31.7872
5.18688 -22.1848
-25.7165 -96.1715
-27.7462 -110.841
-45.56 -101.458
4.01048 -23.0573
1.48052 -16.126
3.36701 -24.2322
4.78025 -40.2732
5.7188 -27.9762
-21.0817 -106.71
-9.48827 -98.3265
-25.0205 -94.0212
-13.6031 -94.0154
2.38211 -10.7754
1.71509 -8.10786
0.962821 -5.57922
1.52482 -8.06011
2.881 -10.4203
1.7815 -6.89601
2.6202 -9.92406
3.13087 -12.0795
4.12938 -14.5686
3.885 -14.0412
2.58614 -9.25617
4.07763 -13.3739
4.92538 -17.152
4.99645 -18.4194
4.17328 -13.8679
2.72427 -9.70785
4.18727 -14.8058
5.6181 -21.4876
5.0408 -17.6494
1.84075 -7.82637
1.11908 -5.48426
1.99112 -7.77548
2.6587 -10.0331
2.45129 -10.1175
1.22446 -6.39475
0.819086 -4.85805
1.42872 -6.86258
2.01183 -9.18121
1.77591 -8.92355
-19.4881 -59.0432
-19.9352 -53.4502
7.47995 -34.9461
6.41917 -34.9786
6.273 -28.4102
6.3783 -40.6796
5.76077 -23.8905
6.85293 -33.8976
6.69028 -40.3564
-24.7825 -71.1396
-28.18 -66.0486
2.88721 -12.6343
2.69418 -12.8904
2.57178 -13.0837
3.01488 -15.1986
4.64341 -19.3942
4.55917 -17.371
3.90531 -15.4873
5.01478 -18.5205
3.3512 -13.9659
4.42099 -20.6084
4.99013 -22.7865
6.66189 -27.8672
6.29359 -23.3711
5.93473 -22.476
5.67098 -20.3967
6.66929 -31.4886
6.75531 -27.8816
5.98039 -21.901
6.48168 -24.8912
5.61748 -19.8989
6.60408 -27.1617
6.76948 -31.9568
6.32106 -28.5722
4.60513 -17.12
3.86324 -13.6447
4.53737 -15.7221
3.41045 -12.035
3.13152 -11.0206
4.14195 -14.1561
5.00253 -17.572
5.0451 -19.9051
4.46695 -17.4913
2.5943 -11.5569
2.33346 -11.0105
2.30361 -11.4123
2.9348 -15.2682
7.24847 -48.8627
6.00659 -47.1936
4.64997 -55.3463
3.87577 -18.535
3.61279 -16.1503
3.4234 -17.1549
3.1736 -17.5277
4.02529 -21.8246
6.15828 -27.7188
5.8081 -23.733
5.61414 -25.1784
5.06959 -26.7169
6.01508 -33.5924
5.52757 -22.6082
5.75698 -22.0082
6.06077 -25.3056
5.99882 -29.4336
5.24876 -23.3022
5.17961 -36.8382
3.27169 -39.1683
1.42719 -39.4161
2.85657 -35.609
2.14748 -43.4027
4.57786 -40.3409
3.27365 -45.7076
4.87152 -35.8248
6.24208 -37.1623
5.45648 -47.4237
0.0660849 -39.9633
3.87416 -24.4994
3.39005 -22.1402
2.69319 -22.1167
2.38465 -27.187
3.98643 -32.9294
4.94993 -32.3654
4.81608 -29.8107
4.2971 -26.9913
2.60723 -32.8333
4.58071 -28.6208
5.09332 -26.0364
5.22536 -28.6419
4.65164 -23.1196
5.47215 -32.0496
3.67185 -31.6689
3.44154 -28.9133
4.34448 -20.1419
4.18538 -22.8888
3.30882 -21.9706
3.35511 -18.5103
4.20587 -34.7218
2.75983 -35.4207
3.36131 -27.571
2.75189 -29.9204
3.83414 -14.9719
3.19025 -12.563
3.31551 -12.6158
2.93453 -12.4583
4.20437 -17.7847
3.41807 -16.6741
3.24019 -14.305
3.79316 -17.3496
2.67815 -9.13357
1.83637 -6.89119
2.90702 -10.0393
0.336057 -3.06191
2.11373 -7.90932
0.0773305 -2.45703
0.329251 -3.0525
1.29371 -5.50228
-1.03954 -0.126593
-0.865609 -0.060416
7.15471 -47.8374
6.75066 -36.8021
6.06088 -45.0792
6.66264 -31.7769
6.06259 -47.6059
6.62222 -36.5556
7.35101 -35.7805
6.76951 -41.3702
0 0
0 0
0 0
0 0
0 0
0 0
0 0
0 0
0 0
0 0
0 0
0 0
0 0
0 0
0 0
0 0
0 0
0 0
0 0
0 0
0 0
0 0
0 0
0 0
0 0
0 0
0 0
0 0
0 0
0 0
0 0
0 0
0 0
0 0
0 0
0 0
0 0
0 0
0 0
0 0
0 0
0 0
0 0
0 0
0 0
0 0
0 0
0 0
0 0
0 0
0 0
0 0
0 0
0 0
0 0
0 0
0 0
0 0
0 0
0 0
0 0
0 0
0 0
0 0
0 0
0 0
0 0
0 0
0 0
0 0
0 0
0 0
0 0
0 0
0 0
0 0
0 0
0 0
0 0
0 0
0 0
0 0
0 0
0 0
0 0
0 0
0 0
0 0
0 0
0 0
0 0
0 0
0 0
0 0
0 0
0 0
0 0
0 0
0 0
0 0
0 0
0 0
0 0
0 0
0 0
0 0
0 0
0 0
0 0
0 0
0 0
0 0
0 0
0 0
0 0
0 0
0 0
0 0
0 0
0 0
0 0
0 0
0 0
0 0
0 0
0 0
0 0
0 0
0 0
0 0
0 0
0 0
0 0
0 0
0 0
0 0
0 0
0 0
0 0
0 0
0 0
0 0
0 0
0 0
0 0
0 0
0 0
0 0
0 0
0 0
0 0
0 0
0 0
0 0
0 0
0 0
0 0
0 0
0 0
0 0
0 0
0 0
0 0
0 0
0 0
0 0
0 0
0 0
0 0
0 0
0 0
0 0
0 0
0 0
0 0
0 0
0 0
0 0
0 0
0 0
0 0
0 0
0 0
0 0
0 0
0 0
0 0
0 0
0 0
0 0
0 0
0 0
0 0
0 0
0 0
0 0
0 0
0 0
0 0
0 0
0 0
0 0
0 0
0 0
0 0
0 0
0 0
0 0
0 0
0 0
0 0
0 0
0 0
0 0
0 0
0 0
0 0
0 0
0 0
0 0
0 0
0 0
0 0
0 0
0 0
0 0
0 0
0 0
0 0
0 0
0 0
0 0
0 0
0 0
0 0
0 0
0 0
0 0
0 0
0 0
0 0
0 0
0 0
0 0
0 0
0 0
0 0
0 0
0 0
0 0
0 0
0 0
0 0
0 0
0 0
0 0
0 0
0 0
0 0
0 0
0 0
0 0
0 0
0 0
0 0
0 0
0 0
0 0
0 0
0 0
0 0
0 0
0 0
0 0
0 0
0 0
0 0
0 0
0 0
0 0
0 0
0 0
0 0
0 0
0 0
0 0
0 0
0 0
0 0
0 0
0 0
0 0
0 0
0 0
0 0
0 0
0 0
0 0
0 0
0 0
0 0
0 0
0 0
0 0
0 0
0 0
0 0
0 0
0 0
0 0
0 0
0 0
0 0
0 0
0 0
0 0
0 0
0 0
0 0
0 0
0 0
0 0
0 0
0 0
0 0
0 0
0 0
0 0
0 0
0 0
0 0
0 0
0 0
0 0
0 0
0 0
0 0
0 0
0 0
0 0
0 0
0 0
0 0
0 0
0 0
0 0
0 0
0 0
0 0
0 0
0 0
0 0
0 0
0 0
0 0
0 0
0 0
0 0
0 0
0 0
0 0
0 0
0 0
0 0
0 0
0 0
0 0
0 0
0 0
0 0
0 0
0 0
0 0
0 0
0 0
0 0
0 0
0 0
0 0
0 0
0 0
0 0
0 0
0 0
0 0
0 0
0 0
0 0
0 0
0 0
0 0
0 0
0 0
0 0
0 0
0 0
0 0
0 0
0 0
0 0
0 0
0 0
0 0
0 0
0 0
0 0
0 0
0 0
0 0
0 0
0 0
0 0
0 0
0 0
0 0
0 0
0 0
0 0
0 0
0 0
0 0
0 0
0 0
0 0
0 0
0 0
0 0
0 0
0 0
0 0
0 0
0 0
0 0
0 0
0 0
0 0
0 0
0 0
0 0
0 0
0 0
0 0
0 0
0 0
0 0
0 0
0 0
0 0
0 0
0 0
0 0
0 0
0 0
0 0
0 0
0 0
0 0
0 0
0 0
0 0
0 0
0 0
0 0
0 0
0 0
0 0
0 0
0 0
0 0
0 0
0 0
0 0
0 0
0 0
0 0
0 0
0 0
0 0
0 0
0 0
0 0
0 0
0 0
0 0
0 0
0 0
0 0
0 0
0 0
0 0
0 0
0 0
0 0
0 0
0 0
0 0
0 0
0 0
0 0
0 0
0 0
0 0
0 0
0 0
0 0
0 0
0 0
0 0
0 0
0 0
0 0
0 0
0 0
0 0
0 0
0 0
0 0
0 0
0 0
0 0
0 0
0 0
0 0
0 0
0 0
0 0
0 0
0 0
0 0
0 0
0 0
0 0
0 0
0 0
0 0
0 0
0 0
0 0
0 0
0 0
0 0
0 0
0 0
0 0
0 0
0 0
0 0
0 0
0 0
0 0
0 0
0 0
0 0
0 0
0 0
0 0
0 0
0 0
0 0
0 0
0 0
0 0
0 0
0 0
0 0
0 0
0 0
0 0
0 0
0 0
0 0
0 0
0 0
0 0
0 0
0 0
0 0
0 0
0 0
0 0
0 0
0 0
0 0
0 0
0 0
0 0
0 0
0 0
0 0
0 0
0 0
0 0
0 0
0 0
0 0
0 0
0 0
0 0
0 0
0 0
0 0
0 0
0 0
0 0
0 0
0 0
0 0
0 0
0 0
0 0
0 0
0 0
0 0
0 0
0 0
0 0
0 0
0 0
0 0
0 0
0 0
0 0
0 0
0 0
0 0
0 0
0 0
0 0
0 0
0 0
0 0
0 0
0 0
0 0
0 0
0 0
0 0
0 0
0 0
0 0
0 0
0 0
0 0
0 0
0 0
0 0
0 0
0 0
0 0
0 0
0 0
0 0
0 0
0 0
0 0
0 0
0 0
0 0
0 0
0 0
0 0
0 0
0 0
0 0
0 0
0 0
0 0
0 0
0 0
0 0
0 0
0 0
0 0
0 0
0 0
0 0
0 0
0 0
0 0
0 0
0 0
0 0
0 0
0 0
0 0
0 0
0 0
0 0
0 0
0 0
0 0
0 0
0 0
0 0
0 0
0 0
0 0
0 0
0 0
0 0
0 0
0 0
0 0
0 0
0 0
0 0
0 0
0 0
0 0
0 0
0 0
0 0
0 0
0 0
0 0
0 0
0 0
0 0
0 0
0 0
0 0
0 0
0 0
0 0
0 0
0 0
0 0
0 0
0 0
0 0
0 0
0 0
0 0
0 0
0 0
0 0
0 0
0 0
0 0
0 0
0 0
0 0
0 0
0 0
0 0
0 0
0 0
0 0
0 0
0 0
0 0
0 0
0 0
0 0
0 0
0 0
0 0
0 0
0 0
0 0
0 0
0 0
0 0
0 0
0 0
0 0
0 0
0 0
0 0
0 0
0 0
0 0
0 0
0 0
0 0
0 0
0 0
0 0
0 0
0 0
0 0
0 0
0 0
0 0
0 0
0 0
0 0
0 0
0 0
0 0
0 0
0 0
0 0
0 0
0 0
0 0
0 0
0 0
0 0
0 0
0 0
0 0
0 0
0 0
0 0
0 0
0 0
0 0
0 0
0 0
0 0
0 0
0 0
0 0
0 0
0 0
0 0
0 0
0 0
0 0
0 0
0 0
0 0
0 0
0 0
0 0
0 0
0 0
0 0
0 0
0 0
0 0
0 0
0 0
0 0
0 0
0 0
0 0
0 0
0 0
0 0
0 0
0 0
0 0
0 0
0 0
0 0
0 0
0 0
0 0
0 0
0 0
0 0
0 0
0 0
0 0
0 0
0 0
0 0
0 0
0 0
0 0
0 0
0 0
0 0
0 0
0 0
0 0
0 0
0 0
0 0
0 0
0 0
0 0
0 0
0 0
0 0
0 0
0 0
0 0
0 0
0 0
0 0
0 0
0 0
0 0
0 0
0 0
0 0
0 0
0 0
0 0
0 0
0 0
0 0
0 0
0 0
0 0
0 0
0 0
0 0
0 0
0 0
0 0
0 0
0 0
0 0
0 0
0 0
0 0
0 0
0 0
0 0
0 0
0 0
0 0
0 0
0 0
0 0
0 0
0 0
0 0
0 0
0 0
0 0
0 0
0 0
0 0
0 0
0 0
0 0
0 0
0 0
0 0
0 0
0 0
0 0
0 0
0 0
0 0
0 0
0 0
0 0
0 0
0 0
0 0
0 0
0 0
0 0
0 0
0 0
0 0
0 0
0 0
0 0
0 0
0 0
0 0
0 0
0 0
0 0
0 0
0 0
0 0
0 0
0 0
0 0
0 0
0 0
0 0
0 0
0 0
0 0
0 0
0 0
0 0
0 0
0 0
0 0
0 0
0 0
0 0
0 0
0 0
0 0
0 0
0 0
0 0
0 0
0 0
0 0
0 0
0 0
0 0
0 0
0 0
0 0
0 0
0 0
0 0
0 0
0 0
0 0
0 0
0 0
0 0
0 0
0 0
0 0
0 0
0 0
0 0
0 0
0 0
0 0
0 0
0 0
0 0
0 0
0 0
0 0
0 0
0 0
0 0
0 0
0 0
0 0
0 0
0 0
0 0
0 0
0 0
0 0
0 0
0 0
0 0
0 0
0 0
0 0
0 0
0 0
0 0
0 0
0 0
0 0
0 0
0 0
0 0
0 0
0 0
0 0
0 0
0 0
0 0
0 0
0 0
0 0
0 0
0 0
0 0
0 0
0 0
0 0
0 0
0 0
0 0
0 0
0 0
0 0
0 0
0 0
0 0
0 0
0 0
0 0
0 0
0 0
0 0
0 0
0 0
0 0
0 0
0 0
0 0
0 0
0 0
0 0
0 0
0 0
0 0
0 0
0 0
0 0
0 0
0 0
0 0
0 0
0 0
0 0
0 0
0 0
0 0
0 0
0 0
0 0
0 0
0 0
0 0
0 0
0 0
0 0
0 0
0 0
0 0
0 0
0 0
0 0
0 0
0 0
0 0
0 0
0 0
0 0
0 0
0 0
0 0
0 0
0 0
0 0
0 0
0 0
0 0
0 0
0 0
0 0
0 0
0 0
0 0
0 0
0 0
0 0
0 0
0 0
0 0
0 0
0 0
0 0
0 0
0 0
0 0
0 0
0 0
0 0
0 0
0 0
0 0
0 0
0 0
0 0
0 0
0 0
0 0
0 0
0 0
0 0
0 0
0 0
0 0
0 0
0 0
0 0
0 0
0 0
0 0
0 0
0 0
0 0
0 0
0 0
0 0
0 0
0 0
0 0
0 0
0 0
0 0
0 0
0 0
0 0
0 0
0 0
0 0
0 0
0 0
0 0
0 0
0 0
0 0
0 0
0 0
0 0
0 0
0 0
0 0
0 0
0 0
0 0
0 0
0 0
0 0
0 0
0 0
0 0
0 0
0 0
0 0
0 0
0 0
0 0
0 0
0 0
0 0
0 0
0 0
0 0
0 0
0 0
0 0
0 0
0 0
0 0
0 0
0 0
0 0
0 0
0 0
0 0
0 0
0 0
0 0
0 0
0 0
0 0
0 0
0 0
0 0
0 0
0 0
0 0
0 0
0 0
0 0
0 0
0 0
0 0
0 0
0 0
0 0
0 0
0 0
0 0
0 0
0 0
0 0
0 0
0 0
0 0
0 0
0 0
0 0
0 0
0 0
0 0
0 0
0 0
0 0
0 0
0 0
0 0
0 0
0 0
0 0
0 0
0 0
0 0
0 0
0 0
0 0
0 0
0 0
0 0
0 0
0 0
0 0
0 0
0 0
0 0
0 0
0 0
0 0
0 0
0 0
0 0
0 0
0 0
0 0
0 0
0 0
0 0
0 0
0 0
0 0
0 0
0 0
0 0
0 0
0 0
0 0
0 0
0 0
0 0
0 0
0 0
0 0
0 0
0 0
0 0
0 0
0 0
0 0
0 0
0 0
0 0
0 0
0 0
0 0
0 0
0 0
0 0
0 0
0 0
0 0
0 0
0 0
0 0
0 0
0 0
0 0
0 0
0 0
0 0
0 0
0 0
0 0
0 0
0 0
0 0
0 0
0 0
0 0
0 0
0 0
0 0
0 0
0 0
0 0
0 0
0 0
0 0
0 0
0 0
0 0
0 0
0 0
0 0
0 0
0 0
0 0
0 0
0 0
0 0
0 0
0 0
0 0
0 0
0 0
0 0
0 0
0 0
0 0
0 0
0 0
0 0
0 0
0 0
0 0
0 0
0 0
0 0
0 0
0 0
0 0
0 0
0 0
0 0
0 0
0 0
0 0
0 0
0 0
0 0
0 0
0 0
0 0
0 0
0 0
0 0
0 0
0 0
0 0
0 0
0 0
0 0
0 0
0 0
0 0
0 0
0 0
0 0
0 0
0 0
0 0
0 0
0 0
0 0
0 0
0 0
0 0
0 0
0 0
0 0
0 0
0 0
0 0
0 0
0 0
0 0
0 0
0 0
0 0
0 0
0 0
0 0
0 0
0 0
0 0
0 0
0 0
0 0
0 0
0 0
0 0
0 0
0 0
0 0
0 0
0 0
0 0
0 0
0 0
0 0
0 0
0 0
0 0
0 0
0 0
0 0
0 0
0 0
0 0
0 0
0 0
0 0
0 0
0 0
0 0
0 0
0 0
0 0
0 0
0 0
0 0
0 0
0 0
0 0
0 0
0 0
0 0
0 0
0 0
0 0
0 0
0 0
0 0
0 0
0 0
0 0
0 0
0 0
0 0
0 0
0 0
0 0
0 0
0 0
0 0
0 0
0 0
0 0
0 0
0 0
0 0
0 0
0 0
0 0
0 0
0 0
0 0
0 0
0 0
0 0
0 0
0 0
0 0
0 0
0 0
0 0
0 0
0 0
0 0
0 0
0 0
0 0
0 0
0 0
0 0
0 0
0 0
0 0
0 0
0 0
0 0
0 0
0 0
0 0
0 0
0 0
0 0
0 0
0 0
0 0
0 0
0 0
0 0
0 0
0 0
0 0
0 0
0 0
0 0
0 0
0 0
0 0
0 0
0 0
0 0
0 0
0 0
0 0
0 0
0 0
0 0
0 0
0 0
0 0
0 0
0 0
0 0
0 0
0 0
0 0
0 0
0 0
0 0
0 0
0 0
0 0
0 0
0 0
0 0
0 0
0 0
0 0
0 0
0 0
0 0
0 0
0 0
0 0
0 0
0 0
0 0
0 0
0 0
0 0
0 0
0 0
0 0
0 0
0 0
0 0
0 0
0 0
0 0
0 0
0 0
0 0
0 0
0 0
0 0
0 0
0 0
0 0
0 0
0 0
0 0
0 0
0 0
0 0
0 0
0 0
0 0
0 0
0 0
0 0
0 0
0 0
0 0
0 0
0 0
0 0
0 0
0 0
0 0
0 0
0 0
0 0
0 0
0 0
0 0
0 0
0 0
0 0
0 0
0 0
0 0
0 0
0 0
0 0
0 0
0 0
0 0
0 0
0 0
0 0
0 0
0 0
0 0
0 0
0 0
0 0
0 0
0 0
0 0
0 0
0 0
0 0
0 0
0 0
0 0
0 0
0 0
0 0
0 0
0 0
0 0
0 0
0 0
0 0
0 0
0 0
0 0
0 0
0 0
0 0
0 0
0 0
0 0
0 0
0 0
0 0
0 0
0 0
0 0
0 0
0 0
0 0
0 0
0 0
0 0
0 0
0 0
0 0
0 0
0 0
0 0
0 0
0 0
0 0
0 0
0 0
0 0
0 0
0 0
0 0
0 0
0 0
0 0
0 0
0 0
0 0
0 0
0 0
0 0
0 0
0 0
0 0
0 0
0 0
0 0
0 0
0 0
0 0
0 0
0 0
0 0
0 0
0 0
0 0
0 0
0 0
0 0
0 0
0 0
0 0
0 0
0 0
0 0
0 0
0 0
0 0
0 0
0 0
0 0
0 0
0 0
0 0
0 0
0 0
0 0
0 0
0 0
0 0
0 0
0 0
0 0
0 0
0 0
0 0
0 0
0 0
0 0
0 0
0 0
0 0
0 0
0 0
0 0
0 0
0 0
0 0
0 0
0 0
0 0
0 0
0 0
0 0
0 0
0 0
0 0
0 0
0 0
0 0
0 0
0 0
0 0
0 0
0 0
0 0
0 0
0 0
0 0
0 0
0 0
0 0
0 0
0 0
0 0
0 0
0 0
0 0
0 0
0 0
0 0
0 0
0 0
0 0
0 0
0 0
0 0
0 0
0 0
0 0
0 0
0 0
0 0
0 0
0 0
0 0
0 0
0 0
0 0
0 0
0 0
0 0
0 0
0 0
0 0
0 0
0 0
0 0
0 0
0 0
0 0
0 0
0 0
0 0
0 0
0 0
0 0
0 0
0 0
0 0
0 0
0 0
0 0
0 0
0 0
0 0
0 0
0 0
0 0
0 0
0 0
0 0
0 0
0 0
0 0
0 0
0 0
0 0
0 0
0 0
0 0
0 0
0 0
0 0
0 0
0 0
0 0
0 0
0 0
0 0
0 0
0 0
0 0
0 0
0 0
0 0
0 0
0 0
0 0
0 0
0 0
0 0
0 0
0 0
0 0
0 0
0 0
0 0
0 0
0 0
0 0
0 0
0 0
0 0
0 0
0 0
0 0
0 0
0 0
0 0
0 0
0 0
0 0
0 0
0 0
0 0
0 0
0 0
0 0
0 0
0 0
0 0
0 0
0 0
0 0
0 0
0 0
0 0
0 0
0 0
0 0
0 0
0 0
0 0
0 0
0 0
0 0
0 0
0 0
0 0
0 0
0 0
0 0
0 0
0 0
0 0
0 0
0 0
0 0
0 0
0 0
0 0
0 0
0 0
0 0
0 0
0 0
0 0
0 0
0 0
0 0
0 0
0 0
0 0
0 0
0 0
0 0
0 0
0 0
0 0
0 0
0 0
0 0
0 0
0 0
0 0
0 0
0 0
0 0
0 0
0 0
0 0
0 0
0 0
0 0
0 0
0 0
0 0
0 0
0 0
0 0
0 0
0 0
0 0
0 0
0 0
0 0
0 0
0 0
0 0
0 0
0 0
0 0
0 0
0 0
0 0
0 0
0 0
0 0
0 0
0 0
0 0
0 0
0 0
0 0
0 0
0 0
0 0
0 0
0 0
0 0
0 0
0 0
0 0
0 0
0 0
0 0
0 0
0 0
0 0
0 0
0 0
0 0
0 0
0 0
0 0
0 0
0 0
0 0
0 0
0 0
0 0
0 0
0 0
0 0
0 0
0 0
0 0
0 0
0 0
0 0
0 0
0 0
0 0
0 0
0 0
0 0
0 0
0 0
0 0
0 0
0 0
0 0
0 0
0 0
0 0
0 0
0 0
0 0
0 0
0 0
0 0
0 0
0 0
0 0
0 0
0 0
0 0
0 0
0 0
0 0
0 0
0 0
0 0
0 0
0 0
0 0
0 0
0 0
0 0
0 0
0 0
0 0
0 0
0 0
0 0
0 0
0 0
0 0
0 0
0 0
0 0
0 0
0 0
0 0
0 0
0 0
0 0
0 0
0 0
0 0
0 0
0 0
0 0
0 0
0 0
0 0
0 0
0 0
0 0
0 0
0 0
0 0
0 0
0 0
0 0
0 0
0 0
0 0
0 0
0 0
0 0
0 0
0 0
0 0
0 0
0 0
0 0
0 0
0 0
0 0
0 0
0 0
0 0
0 0
0 0
0 0
0 0
0 0
0 0
0 0
0 0
0 0
0 0
0 0
0 0
0 0
0 0
0 0
0 0
0 0
0 0
0 0
0 0
0 0
0 0
0 0
0 0
0 0
0 0
0 0
0 0
0 0
0 0
0 0
0 0
0 0
0 0
0 0
0 0
0 0
0 0
0 0
0 0
0 0
0 0
0 0
0 0
0 0
0 0
0 0
0 0
0 0
0 0
0 0
0 0
0 0
0 0
0 0
0 0
0 0
0 0
0 0
0 0
0 0
0 0
0 0
0 0
0 0
0 0
0 0
0 0
0 0
0 0
0 0
0 0
0 0
0 0
0 0
0 0
0 0
0 0
0 0
0 0
0 0
0 0
0 0
0 0
0 0
0 0
0 0
0 0
0 0
0 0
0 0
0 0
0 0
0 0
0 0
0 0
0 0
0 0
0 0
0 0
0 0
0 0
0 0
0 0
0 0
0 0
0 0
0 0
0 0
0 0
0 0
0 0
0 0
0 0
0 0
0 0
0 0
0 0
0 0
0 0
0 0
      </DataArray> 
      <DataArray type="Float64" NumberOfComponents="1" Name="CauchyShearStress" format="ascii">
-4.68755
4.11325
-1.36176
0.38865
0.20841
0.280065
0.198741
0.0921602
-0.0327258
-0.0534097
-0.0500408
-0.0789185
-0.107711
-0.0795163
-0.0385746
-0.0295433
-0.031347
0.0169265
0.0573164
0.055881
0.0430683
0.0780729
0.0894038
0.0324458
-0.0417823
-0.0548473
-0.116979
-0.419711
-0.529065
-0.687266
0.466099
0.0156847
0.198519
0.455269
-5.29467
0.0301033
0.171075
0.202296
0.18632
0.0742138
0.0671323
0.129174
0.19878
0.193034
0.273557
0.22138
0.299546
0.38187
0.434361
0.433653
0.467233
0.478331
0.500066
0.214801
-0.113665
-0.224617
-0.345977
-0.438288
-0.5283
-0.303213
0.677283
0.953085
1.89147
-22.4466
-11.2559
-4.78792
-7.21805
-8.93666
-12.8319
0.164832
-21.5733
-18.7566
-14.3057
22.7323
-1.95075
-15.3277
22.6239
-4.54565
11.6119
4.96249
7.29802
8.96813
12.8541
-0.2773
-0.89295
-1.06823
-2.23524
0.00109368
-0.0913782
0.208764
0.365572
0.652946
0.67405
0.125128
-0.126519
-0.223957
-0.327528
-0.415552
-0.468722
-0.505772
-0.522217
-0.55927
-0.493388
-0.477548
-0.461794
-0.413233
-0.421479
-0.314826
-0.195921
-0.149212
-0.186465
0.507118
0.992327
5.52888
1.5118
-12.2169
-7.12135
-12.3836
13.8239
7.93372
3.4143
3.38435
-3.00225
-0.279463
-11.7439
11.748
-2.7967
-3.04975
-5.82613
-5.49888
6.23748
-4.88096
5.46198
-5.34931
-5.48769
5.92724
5.95527
-4.72327
-4.49561
-5.29007
-2.62879
1.96858
2.73774
5.99898
5.00029
6.77624
-6.14508
-7.10246
-7.45033
-7.13884
7.83385
6.57209
-2.76061
0.609704
2.55831
-4.59261
4.76453
-3.47025
-4.04502
-4.65204
-4.2675
4.50964
5.1285
4.60923
3.67197
-4.37379
-4.49571
-3.88561
-1.98175
0.855557
3.9602
-4.05451
-3.96025
4.6287
4.77722
4.22934
4.1511
4.75606
6.51033
-5.78084
-6.72849
-5.20609
-7.70771
-8.62304
7.68583
4.42396
-3.15999
-2.15064
-0.208526
-1.05269
0.825764
2.04266
1.42871
2.8822
-4.12714
-4.24467
4.16147
4.21678
-3.30949
-2.82213
-3.10282
-2.73807
-3.09945
-3.85914
4.12453
3.50943
3.12096
3.29429
2.86952
3.28122
-4.03845
-3.84692
-5.29777
0.11553
3.01858
-2.48983
2.80441
3.97219
3.74538
8.01711
-9.75949
-2.12126
-10.6688
11.1589
9.00254
6.33621
-3.19346
-2.35391
-0.830906
0.58532
1.78451
2.89429
-3.95225
3.85576
-2.78142
-1.94682
-2.75391
2.8794
2.11788
2.86497
-3.21106
-3.49416
-3.56086
-3.26037
-1.80632
-1.33514
-13.2622
-2.37365
10.3678
-0.323748
0.331499
2.10821
2.9259
3.27482
3.3273
2.70325
10.6576
-10.5513
1.33884
4.07619
-13.2603
-3.50689
-2.86214
12.3326
3.99388
-3.02274
-3.03243
-2.22552
-2.74643
-1.12391
-1.6364
0.140145
-0.34445
1.06173
0.651417
2.17176
1.66201
3.04209
2.5767
-3.11047
-3.62062
-3.78275
3.14512
3.60343
3.57831
2.79406
-2.65419
-1.21478
-1.13508
-1.81085
1.83349
1.35456
1.30597
2.81881
-1.89395
-2.6109
-2.28915
-1.81977
-0.663822
-23.3026
-8.87248
-0.70697
5.64137
24.6677
1.76677
-1.73885
1.74031
2.90485
1.91488
17.4327
9.00391
-14.7343
-9.25048
9.21763
-15.1715
1.25029
-7.01615
7.23963
10.3812
-3.08359
-1.93576
-1.04138
-0.205593
0.553807
1.32247
2.45778
-3.43867
-2.6015
2.94267
2.89894
-1.65554
-1.24488
-3.06951
2.40392
0.962926
1.70829
-2.03128
2.27071
-0.602561
-1.10726
-0.984849
-1.40037
-1.07376
-1.24829
-1.02441
-0.820416
-0.442947
-43.4629
-6.40854
5.21216
39.0499
0.118198
0.827758
1.8707
2.55548
5.73698
-4.94646
-2.54876
-1.665
-0.746408
0.0532275
0.633639
0.899586
0.796276
1.32551
0.546001
0.713895
0.830578
0.919516
13.4635
22.2057
12.5143
-13.1534
-17.6898
-22.1205
9.21779
11.5743
12.7165
-8.28715
-18.4148
-12.9891
-1.6782
-3.03003
-1.19895
-1.03579
-1.04983
-0.729565
-0.681329
-0.727058
-0.388523
-0.263317
-0.33673
0.0399645
0.167446
0.105128
0.434394
0.524177
0.493052
0.769138
0.75357
0.802474
1.37248
2.93625
1.49749
-0.737082
-0.678623
1.05728
1.16314
-3.3586
-3.67015
3.19684
3.25671
3.44624
-0.680509
-1.11234
1.26408
0.991152
-1.18269
1.0889
-1.68803
-1.34433
1.18201
1.49901
-2.62434
-5.44772
-2.71674
2.6583
2.84197
4.44666
3.68377
-4.31683
2.5878
-2.90369
0.147369
-0.0432734
3.51593
-3.69412
2.22536
-1.46579
3.24144
1.76866
0.921639
0.201739
-0.612042
-1.4647
-2.47328
-3.28763
-10.6345
15.4368
-16.9845
17.2571
1.69023
2.20436
0.372653
-4.02878
4.82749
0.205304
18.2328
-22.5513
-1.0462
-2.23973
-2.91218
-2.33946
1.92742
-2.5984
8.17442
-4.39919
-1.88159
2.37269
2.05066
-1.7273
-2.29577
3.70487
3.79396
-4.01161
-3.6811
3.23424
2.4346
1.15368
0.00574165
-1.67687
-2.94666
-3.28602
9.12948
1.65168
-3.18652
-2.11357
-9.04428
6.14096
3.7918
3.65781
2.16345
-2.33609
-2.81413
-4.15733
8.81168
-8.03041
3.26776
4.37381
4.91424
-4.36097
-3.88631
-3.3305
4.48762
-4.48638
1.68925
-0.462361
6.33816
-8.86923
5.65266
-5.62282
5.20123
-4.83663
6.80769
-6.1373
-4.93051
-23.716
-2.45485
-27.223
-19.1838
-2.98747
-14.0996
2.20112
18.3761
35.6507
3.31086
21.6425
19.2594
-20.7287
-31.3297
-32.0535
-32.5107
-16.828
-21.435
-24.6014
-18.7284
-18.1311
-17.2231
-19.9885
-15.1034
-25.9183
-32.4547
-11.0142
-15.2592
18.9762
32.6253
29.8136
24.7246
16.9427
21.5618
19.5227
16.4112
18.811
17.3775
15.3241
20.1096
11.1739
26.1128
32.6257
15.4912
16.9573
1.49637
5.83276
1.91702
51.6611
14.132
59.4826
25.8174
10.6915
-19.9751
-7.86496
-1.6911
-61.0262
-50.5727
-23.3258
-2.51
-13.6453
-30.548
17.2937
17.6535
3.17248
10.3995
-2.67777
13.1834
9.41943
-16.2557
-9.13737
-22.2858
2.34149
3.40749
-3.3426
-13.6486
-0.00157074
1.08293
-11.7874
-14.064
-6.17406
1.36259
8.99532
-5.30592
13.8276
8.32225
24.0853
34.8508
34.7833
23.3434
25.4127
18.9799
19.3472
2.44489
2.0351
6.20016
-0.148005
11.1112
1.61957
-1.31593
-4.88941
-8.51888
-3.29506
-14.8459
-5.0256
-21.2018
-33.5039
-35.3845
-22.0416
-24.7751
-18.5781
-17.7625
11.9926
13.829
10.3538
10.8147
-9.27634
-14.9066
-6.89839
-9.74828
9.96181
11.4652
10.6096
10.2544
9.76205
9.42309
10.881
7.02806
8.21867
9.76591
8.39716
-9.29272
-7.96887
-8.2031
-7.37684
-5.44019
-9.06479
5.48835
6.21479
6.3581
4.6416
4.58361
4.01723
3.39639
2.57304
-2.1887
-1.1704
-0.992825
-0.147865
1.18441
-1.22737
-5.11437
-6.01951
-4.63449
-7.00488
-3.54027
-3.07882
-4.06433
-2.92262
-2.23382
-3.12286
-1.59417
-3.18631
-3.61468
14.4113
12.5513
15.4266
14.0299
18.7216
21.6151
17.4219
9.3301
12.8962
8.84989
45.3583
51.4015
-8.69378
-12.6893
-9.11607
-13.8572
-43.7237
-49.8791
-17.2204
-15.107
-12.263
-14.5266
16.8128
2.61143
6.68594
4.72416
7.78899
0.848818
14.2013
8.25602
4.78737
12.5502
12.1946
10.4709
10.4261
16.9306
16.4342
11.4528
18.8569
-17.5619
-10.4869
-16.0747
-8.01614
-18.337
-11.4273
-10.9573
-13.197
-7.75191
-17.7391
-11.1021
-9.91448
-6.27382
-4.4998
-3.90053
-4.71358
-2.15759
-2.37945
-8.00166
-11.1684
-8.2343
-10.0132
-11.6843
-12.6743
-11.9575
-12.565
-10.3982
-10.9985
-10.0273
0.776232
2.30187
1.47912
3.89046
-0.724555
0.261784
2.51692
-0.4382
12.7521
15.98
8.19568
18.5999
14.885
6.73354
4.20494
5.29605
14.4742
25.9178
22.3504
26.943
16.9835
21.3784
27.6865
17.5515
-37.5459
-56.7176
-42.9345
-24.8632
-42.3631
-91.7567
61.4113
23.2108
41.8358
40.4912
17.1577
86.4524
18.3358
3.90009
4.46948
2.9013
-32.8388
-22.2187
-0.742573
13.0502
7.53621
-6.26386
-7.72562
-0.418463
-12.2742
-7.06223
3.65486
7.56452
-5.8391
-16.2548
15.0091
11.152
13.0843
10.3466
9.16693
8.28251
13.8249
13.8793
14.9866
-2.241
9.40837
6.54065
9.51639
-0.446357
-13.0032
-6.17765
-14.7127
-6.44072
-13.0565
29.6828
6.31209
3.04874
-8.30597
-8.31172
15.9447
-8.74588
-8.48437
-14.4797
-4.28749
-8.45098
-14.9267
-16.6985
-8.11382
-1.00046
5.85745
-12.8369
-11.4587
-9.70347
0.495048
1.20344
-1.12999
-1.63178
-5.12549
0.756723
7.70178
-4.00885
1.75629
3.90469
2.60499
5.29817
5.3488
4.89805
12.1604
10.4297
12.1156
11.4262
9.78595
13.1362
-3.1019
-1.25661
3.52601
-4.74018
0.0436049
9.1206
-10.629
-12.2732
-8.5516
-10.8695
-6.42492
-15.0835
-14.0147
-13.5683
-8.5914
-11.102
-12.5477
-13.3478
-5.65222
-10.1104
-10.46
-8.43426
7.10132
5.3784
8.21063
2.65064
3.90984
7.70067
6.86819
-16.913
-15.9181
-14.2017
-10.227
-7.78331
-11.9366
-20.5073
-12.9882
-10.7876
-22.5002
-2.64027
-23.3642
-15.5681
-4.24276
-25.3472
-23.6298
-31.5845
-4.45876
-5.74781
-10.529
-6.59106
-4.7475
-15.5317
-60.0632
-4.02544
-9.63558
31.2168
38.4671
28.7703
5.62488
6.77283
10.5413
5.2823
5.41129
4.31408
14.8982
56.4491
12.4424
1.0627
0.198939
0.376913
0.133263
-0.113266
-0.0296956
0.486637
1.81083
1.47231
0.851273
0.242417
0.114511
0.21429
-0.0107696
-0.137382
1.54924
0.304006
0.0366487
0.159694
0.025125
-0.142711
-0.0745657
0.209045
0.579857
0.201279
-0.300563
-0.227537
-0.0271533
-0.308752
0.562866
0.530429
-0.278795
-1.99396
-0.861003
-0.681104
-1.02411
0.428135
0.346623
-0.537634
-2.81619
-3.25296
-3.71826
-2.24825
-1.26078
-2.67846
0.198935
0.0894709
-4.45835
4.11253
1.20557
2.57662
0.980489
-0.561589
-0.665043
3.12503
5.34991
3.7742
2.11523
0.769467
0.86578
0.620206
-0.657626
-0.392294
3.28855
0.414244
0.0595278
0.245095
0.0336957
-0.249159
0.0179402
0.329449
0.590621
0.185466
-0.626756
-0.142018
-0.0573442
-0.227335
0.471624
0.471601
-0.00172342
-0.731114
-0.971101
-1.11566
-0.351547
-0.304959
-0.438782
0.464175
0.426058
-0.247855
-1.62248
-1.76755
0.472479
-0.289288
-0.343266
-0.437324
-1.97942
0.330282
17.7901
8.97133
10.862
-6.00746
-7.68807
-6.57001
-8.74255
-5.47701
-14.2095
-16.2666
-17.8624
7.34068
7.40161
9.35325
12.0245
6.91184
-0.222792
-9.40044
-0.699737
6.34884
2.52223
2.10214
1.47358
2.36507
1.19824
0.756105
1.31671
1.99219
1.08779
-1.79799
-1.13475
-1.24578
-0.58336
-2.80991
1.30988
1.28607
1.9466
3.10245
0.888977
-1.46544
-0.907735
-1.30972
-1.40693
-2.01682
-1.72319
-1.15576
-1.76743
-2.23897
-2.57061
13.7433
12.9392
-3.23798
-5.49484
-4.78603
-6.80143
-3.55313
-0.721535
-0.613018
-15.1311
-13.2993
2.7356
3.10583
3.3099
3.539
2.54953
1.89358
2.34706
1.20398
2.57261
3.25879
2.85615
-1.1234
-2.31498
-0.771555
0.313093
0.915858
0.433478
0.827192
1.5777
-0.0312414
3.20344
-0.429539
-1.22032
-1.61751
-1.19458
-0.976898
-1.40227
-0.896009
-0.298971
-0.507521
-2.04889
-2.29678
-2.74246
-2.76642
-3.07306
-3.73815
-3.23681
0.100142
1.16457
3.44558
3.08722
3.59403
3.90917
3.8531
1.48061
1.33152
2.41027
3.29927
2.31566
-1.90311
-0.892894
-1.39539
-2.29303
-2.67814
3.12618
5.29788
6.3974
5.35279
-6.29863
-3.8128
-4.85296
-3.67747
-2.0436
-2.53536
-7.01823
4.21175
4.33322
4.65981
5.16568
4.53642
3.65081
3.71084
4.10796
5.45237
-4.01024
-3.27879
-3.25468
-3.44121
-3.09386
-4.7959
-4.82571
-3.30802
-3.96394
-4.40881
-3.98693
-4.49265
-5.47749
4.75383
5.12862
-2.27884
-2.2904
-1.84952
-2.54696
-2.8345
-3.56403
-3.0108
-3.31668
-0.446963
-0.12033
-0.236705
-0.0465294
-0.647288
-0.0311849
-0.0412902
-0.379245
0.265849
0.123779
3.87418
6.21896
6.94029
4.13374
0.209871
-0.394149
2.37935
0.512211
0
0
0
0
0
0
0
0
0
0
0
0
0
0
0
0
0
0
0
0
0
0
0
0
0
0
0
0
0
0
0
0
0
0
0
0
0
0
0
0
0
0
0
0
0
0
0
0
0
0
0
0
0
0
0
0
0
0
0
0
0
0
0
0
0
0
0
0
0
0
0
0
0
0
0
0
0
0
0
0
0
0
0
0
0
0
0
0
0
0
0
0
0
0
0
0
0
0
0
0
0
0
0
0
0
0
0
0
0
0
0
0
0
0
0
0
0
0
0
0
0
0
0
0
0
0
0
0
0
0
0
0
0
0
0
0
0
0
0
0
0
0
0
0
0
0
0
0
0
0
0
0
0
0
0
0
0
0
0
0
0
0
0
0
0
0
0
0
0
0
0
0
0
0
0
0
0
0
0
0
0
0
0
0
0
0
0
0
0
0
0
0
0
0
0
0
0
0
0
0
0
0
0
0
0
0
0
0
0
0
0
0
0
0
0
0
0
0
0
0
0
0
0
0
0
0
0
0
0
0
0
0
0
0
0
0
0
0
0
0
0
0
0
0
0
0
0
0
0
0
0
0
0
0
0
0
0
0
0
0
0
0
0
0
0
0
0
0
0
0
0
0
0
0
0
0
0
0
0
0
0
0
0
0
0
0
0
0
0
0
0
0
0
0
0
0
0
0
0
0
0
0
0
0
0
0
0
0
0
0
0
0
0
0
0
0
0
0
0
0
0
0
0
0
0
0
0
0
0
0
0
0
0
0
0
0
0
0
0
0
0
0
0
0
0
0
0
0
0
0
0
0
0
0
0
0
0
0
0
0
0
0
0
0
0
0
0
0
0
0
0
0
0
0
0
0
0
0
0
0
0
0
0
0
0
0
0
0
0
0
0
0
0
0
0
0
0
0
0
0
0
0
0
0
0
0
0
0
0
0
0
0
0
0
0
0
0
0
0
0
0
0
0
0
0
0
0
0
0
0
0
0
0
0
0
0
0
0
0
0
0
0
0
0
0
0
0
0
0
0
0
0
0
0
0
0
0
0
0
0
0
0
0
0
0
0
0
0
0
0
0
0
0
0
0
0
0
0
0
0
0
0
0
0
0
0
0
0
0
0
0
0
0
0
0
0
0
0
0
0
0
0
0
0
0
0
0
0
0
0
0
0
0
0
0
0
0
0
0
0
0
0
0
0
0
0
0
0
0
0
0
0
0
0
0
0
0
0
0
0
0
0
0
0
0
0
0
0
0
0
0
0
0
0
0
0
0
0
0
0
0
0
0
0
0
0
0
0
0
0
0
0
0
0
0
0
0
0
0
0
0
0
0
0
0
0
0
0
0
0
0
0
0
0
0
0
0
0
0
0
0
0
0
0
0
0
0
0
0
0
0
0
0
0
0
0
0
0
0
0
0
0
0
0
0
0
0
0
0
0
0
0
0
0
0
0
0
0
0
0
0
0
0
0
0
0
0
0
0
0
0
0
0
0
0
0
0
0
0
0
0
0
0
0
0
0
0
0
0
0
0
0
0
0
0
0
0
0
0
0
0
0
0
0
0
0
0
0
0
0
0
0
0
0
0
0
0
0
0
0
0
0
0
0
0
0
0
0
0
0
0
0
0
0
0
0
0
0
0
0
0
0
0
0
0
0
0
0
0
0
0
0
0
0
0
0
0
0
0
0
0
0
0
0
0
0
0
0
0
0
0
0
0
0
0
0
0
0
0
0
0
0
0
0
0
0
0
0
0
0
0
0
0
0
0
0
0
0
0
0
0
0
0
0
0
0
0
0
0
0
0
0
0
0
0
0
0
0
0
0
0
0
0
0
0
0
0
0
0
0
0
0
0
0
0
0
0
0
0
0
0
0
0
0
0
0
0
0
0
0
0
0
0
0
0
0
0
0
0
0
0
0
0
0
0
0
0
0
0
0
0
0
0
0
0
0
0
0
0
0
0
0
0
0
0
0
0
0
0
0
0
0
0
0
0
0
0
0
0
0
0
0
0
0
0
0
0
0
0
0
0
0
0
0
0
0
0
0
0
0
0
0
0
0
0
0
0
0
0
0
0
0
0
0
0
0
0
0
0
0
0
0
0
0
0
0
0
0
0
0
0
0
0
0
0
0
0
0
0
0
0
0
0
0
0
0
0
0
0
0
0
0
0
0
0
0
0
0
0
0
0
0
0
0
0
0
0
0
0
0
0
0
0
0
0
0
0
0
0
0
0
0
0
0
0
0
0
0
0
0
0
0
0
0
0
0
0
0
0
0
0
0
0
0
0
0
0
0
0
0
0
0
0
0
0
0
0
0
0
0
0
0
0
0
0
0
0
0
0
0
0
0
0
0
0
0
0
0
0
0
0
0
0
0
0
0
0
0
0
0
0
0
0
0
0
0
0
0
0
0
0
0
0
0
0
0
0
0
0
0
0
0
0
0
0
0
0
0
0
0
0
0
0
0
0
0
0
0
0
0
0
0
0
0
0
0
0
0
0
0
0
0
0
0
0
0
0
0
0
0
0
0
0
0
0
0
0
0
0
0
0
0
0
0
0
0
0
0
0
0
0
0
0
0
0
0
0
0
0
0
0
0
0
0
0
0
0
0
0
0
0
0
0
0
0
0
0
0
0
0
0
0
0
0
0
0
0
0
0
0
0
0
0
0
0
0
0
0
0
0
0
0
0
0
0
0
0
0
0
0
0
0
0
0
0
0
0
0
0
0
0
0
0
0
0
0
0
0
0
0
0
0
0
0
0
0
0
0
0
0
0
0
0
0
0
0
0
0
0
0
0
0
0
0
0
0
0
0
0
0
0
0
0
0
0
0
0
0
0
0
0
0
0
0
0
0
0
0
0
0
0
0
0
0
0
0
0
0
0
0
0
0
0
0
0
0
0
0
0
0
0
0
0
0
0
0
0
0
0
0
0
0
0
0
0
0
0
0
0
0
0
0
0
0
0
0
0
0
0
0
0
0
0
0
0
0
0
0
0
0
0
0
0
0
0
0
0
0
0
0
0
0
0
0
0
0
0
0
0
0
0
0
0
0
0
0
0
0
0
0
0
0
0
0
0
0
0
0
0
0
0
0
0
0
0
0
0
0
0
0
0
0
0
0
0
0
0
0
0
0
0
0
0
0
0
0
0
0
0
0
0
0
0
0
0
0
0
0
0
0
0
0
0
0
0
0
0
0
0
0
0
0
0
0
0
0
0
0
0
0
0
0
0
0
0
0
0
0
0
0
0
0
0
0
0
0
0
0
0
0
0
0
0
0
0
0
0
0
0
0
0
0
0
0
0
0
0
0
0
0
0
0
0
0
0
0
0
0
0
0
0
0
0
0
0
0
0
0
0
0
0
0
0
0
0
0
0
0
0
0
0
0
0
0
0
0
0
0
0
0
0
0
0
0
0
0
0
0
0
0
0
0
0
0
0
0
0
0
0
0
0
0
0
0
0
0
0
0
0
0
0
0
0
0
0
0
0
0
0
0
0
0
0
0
0
0
0
0
0
0
0
0
0
0
0
0
0
0
0
0
0
0
0
0
0
0
0
0
0
0
0
0
0
0
0
0
0
0
0
0
0
0
0
0
0
0
0
0
0
0
0
0
0
0
0
0
0
0
0
0
0
0
0
0
0
0
0
0
0
0
0
0
0
0
0
0
0
0
0
0
0
0
0
0
0
0
0
0
0
0
0
0
0
0
0
0
0
0
0
0
0
0
0
0
0
0
0
0
0
0
0
0
0
0
0
0
0
0
0
0
0
0
0
0
0
0
0
0
0
0
0
0
0
0
0
0
0
0
0
0
0
0
0
0
0
0
0
0
0
0
0
0
0
0
0
0
0
0
0
0
0
0
0
0
0
0
0
0
0
0
0
0
0
0
0
0
0
0
0
0
0
0
0
0
0
0
0
0
0
0
0
0
0
0
0
0
0
0
0
0
0
0
0
0
0
0
0
0
0
0
0
0
0
0
0
0
0
0
0
0
0
0
0
0
0
0
0
0
0
0
0
0
0
0
0
0
0
0
0
0
0
0
0
0
0
0
0
0
0
0
0
0
0
0
0
0
0
0
0
0
0
0
0
0
0
0
0
0
0
0
0
0
0
0
0
0
0
0
0
0
0
0
0
0
0
0
0
0
0
0
0
0
0
0
0
0
0
0
0
0
0
0
0
0
0
0
0
0
0
0
0
0
0
0
0
0
0
0
0
0
0
0
0
0
0
0
0
0
0
0
0
0
0
0
0
0
0
0
0
0
0
0
0
0
0
0
0
0
0
0
0
0
0
0
0
0
0
0
0
0
0
0
0
0
0
0
0
0
0
0
0
0
0
0
0
0
0
0
0
0
0
0
0
0
0
0
0
0
0
0
0
0
0
0
0
0
0
0
0
0
0
0
0
0
0
0
0
0
0
0
0
0
0
0
0
0
0
0
0
0
0
0
0
0
0
0
0
0
0
0
0
0
0
0
0
0
0
0
0
0
0
0
0
0
0
0
0
0
0
0
0
0
0
0
0
0
0
0
0
0
0
0
0
0
0
0
0
0
0
0
0
0
0
0
0
0
0
0
0
0
0
0
0
0
0
0
0
0
0
0
0
0
0
0
0
0
0
0
0
0
0
0
0
0
0
0
0
0
0
0
0
0
0
0
0
0
0
0
0
0
0
0
0
0
0
0
0
0
0
0
0
0
0
0
0
0
0
0
0
0
0
0
0
0
0
0
0
0
0
0
0
0
0
0
0
0
0
0
0
0
0
0
0
0
0
0
0
0
0
0
0
0
0
0
0
0
0
0
0
0
0
0
0
0
0
0
0
0
0
0
0
0
0
0
0
0
0
0
0
0
0
0
0
0
0
0
0
0
0
0
0
0
0
0
0
0
0
0
0
0
0
0
0
0
0
0
0
0
0
0
0
0
0
0
0
0
0
0
0
0
0
0
0
0
0
0
0
0
0
0
0
0
0
0
0
0
0
0
0
0
0
0
0
0
0
0
0
0
0
0
0
0
0
0
0
0
0
0
0
0
0
0
0
0
0
0
0
0
0
0
0
0
0
0
0
0
0
0
0
0
0
0
0
0
0
0
0
0
0
0
0
0
0
0
0
0
0
0
0
0
0
0
0
0
0
0
0
0
0
0
0
0
0
0
0
0
0
0
0
0
0
0
0
0
0
0
0
0
      </DataArray> 
      <DataArray type="Float64" NumberOfComponents="1" Name="NormalFibers" format="ascii">
0
0
0
0
0
0
0
0
0
0
0
0
0
0
0
0
0
0
0
0
0
0
0
0
0
0
0
0
0
0
0
0
0
0
0
0
0
0
0
0
0
0
0
0
0
0
0
0
0
0
0
0
0
0
0
0
0
0
0
0
0
0
0
0
0
0
0
0
0
0
0
0
0
0
0
0
0
0
0
0
0
0
0
0
0
0
0
0
0
0
0
0
0
0
0
0
0
0
0
0
0
0
0
0
0
0
0
0
0
0
0
0
0
0
0
0
0
0
0
0
0
0
0
0
0
0
0
0
0
0
0
0
0
0
0
0
0
0
0
0
0
0
0
0
0
0
0
0
0
0
0
0
0
0
0
0
0
0
0
0
0
0
0
0
0
0
0
0
0
0
0
0
0
0
0
0
0
0
0
0
0
0
0
0
0
0
0
0
0
0
0
0
0
0
0
0
0
0
0
0
0
0
0
0
0
0
0
0
0
0
0
0
0
0
0
0
0
0
0
0
0
0
0
0
0
0
0
0
0
0
0
0
0
0
0
0
0
0
0
0
0
0
0
0
0
0
0
0
0
0
0
0
0
0
0
0
0
0
0
0
0
0
0
0
0
0
0
0
0
0
0
0
0
0
0
0
0
0
0
0
0
0
0
0
0
0
0
0
0
0
0
0
0
0
0
0
0
0
0
0
0
0
0
0
0
0
0
0
0
0
0
0
0
0
0
0
0
0
0
0
0
0
0
0
0
0
0
0
0
0
0
0
0
0
0
0
0
0
0
0
0
0
0
0
0
0
0
0
0
0
0
0
0
0
0
0
0
0
0
0
0
0
0
0
0
0
0
0
0
0
0
0
0
0
0
0
0
0
0
0
0
0
0
0
0
0
0
0
0
0
0
0
0
0
0
0
0
0
0
0
0
0
0
0
0
0
0
0
0
0
0
0
0
0
0
0
0
0
0
0
0
0
0
0
0
0
0
0
0
0
0
0
0
0
0
0
0
0
0
0
0
0
0
0
0
0
0
0
0
0
0
0
0
0
0
0
0
0
0
0
0
0
0
0
0
0
0
0
0
0
0
0
0
0
0
0
0
0
0
0
0
0
0
0
0
0
0
0
0
0
0
0
0
0
0
0
0
0
0
0
0
0
0
0
0
0
0
0
0
0
0
0
0
0
0
0
0
0
0
0
0
0
0
0
0
0
0
0
0
0
0
0
0
0
0
0
0
0
0
0
0
0
0
0
0
0
0
0
0
0
0
0
0
0
0
0
0
0
0
0
0
0
0
0
0
0
0
0
0
0
0
0
0
0
0
0
0
0
0
0
0
0
0
0
0
0
0
0
0
0
0
0
0
0
0
0
0
0
0
0
0
0
0
0
0
0
0
0
0
0
0
0
0
0
0
0
0
0
0
0
0
0
0
0
0
0
0
0
0
0
0
0
0
0
0
0
0
0
0
0
0
0
0
0
0
0
0
0
0
0
0
0
0
0
0
0
0
0
0
0
0
0
0
0
0
0
0
0
0
0
0
0
0
0
0
0
0
0
0
0
0
0
0
0
0
0
0
0
0
0
0
0
0
0
0
0
0
0
0
0
0
0
0
0
0
0
0
0
0
0
0
0
0
0
0
0
0
0
0
0
0
0
0
0
0
0
0
0
0
0
0
0
0
0
0
0
0
0
0
0
0
0
0
0
0
0
0
0
0
0
0
0
0
0
0
0
0
0
0
0
0
0
0
0
0
0
0
0
0
0
0
0
0
0
0
0
0
0
0
0
0
0
0
0
0
0
0
0
0
0
0
0
0
0
0
0
0
0
0
0
0
0
0
0
0
0
0
0
0
0
0
0
0
0
0
0
0
0
0
0
0
0
0
0
0
0
0
0
0
0
0
0
0
0
0
0
0
0
0
0
0
0
0
0
0
0
0
0
0
0
0
0
0
0
0
0
0
0
0
0
0
0
0
0
0
0
0
0
0
0
0
0
0
0
0
0
0
0
0
0
0
0
0
0
0
0
0
0
0
0
0
0
0
0
0
0
0
0
0
0
0
0
0
0
0
0
0
0
0
0
0
0
0
0
0
0
0
0
0
0
0
0
0
0
0
0
0
0
0
0
0
0
0
0
0
0
0
0
0
0
0
0
0
0
0
0
0
0
0
0
0
0
0
0
0
0
0
0
0
0
0
0
0
0
0
0
0
0
0
0
0
0
0
0
0
0
0
0
0
0
0
0
0
0
0
0
0
0
0
0
0
0
0
0
0
0
0
0
0
0
0
0
0
0
0
0
0
0
0
0
0
0
0
0
0
0
0
0
0
0
0
0
0
0
0
0
0
0
0
0
0
0
0
0
0
0
0
0
0
0
0
0
0
0
0
0
0
0
0
0
0
0
0
0
0
0
0
0
0
0
0
0
0
0
0
0
0
0
0
0
0
0
0
0
0
0
0
0
0
0
0
0
0
0
0
0
0
0
0
0
0
0
0
0
0
0
0
0
0
0
0
0
0
0
0
0
0
0
0
0
0
0
0
0
0
0
0
0
0
0
0
0
0
0
0
0
0
0
0
0
0
0
0
0
0
0
0
0
0
0
0
0
0
0
0
0
0
0
0
0
0
0
0
0
0
0
0
0
0
0
0
0
0
0
0
0
0
0
0
0
0
0
0
0
0
0
0
0
0
0
0
0
0
0
0
0
0
0
0
0
0
0
0
0
0
0
0
0
0
0.00606272
0.00606272
0.0322129
0.0322129
-0.103784
-0.103784
-0.052288
-0.052288
-0.00291875
-0.00291875
-0.0494187
-0.0494187
0.00300661
0.00300661
0.0230747
0.0230747
-0.128719
-0.128719
-0.0162621
-0.0162621
-0.042312
-0.042312
-0.0638472
-0.0638472
-0.110392
-0.110392
0.0283536
0.0283536
-0.0522888
-0.0522888
0.0736411
0.0736411
-0.0440987
-0.0440987
-0.00349931
-0.00349931
0.042937
0.042937
-0.0270675
-0.0270675
-0.0154676
-0.0154676
-0.0653615
-0.0653615
-0.253068
-0.253068
-0.025178
-0.025178
-0.0324235
-0.0324235
-0.0226341
-0.0226341
-0.0155169
-0.0155169
-0.00373104
-0.00373104
-0.126457
-0.126457
0.0108435
0.0108435
0.0102661
0.0102661
0.0122409
0.0122409
-0.17056
-0.17056
-0.0274083
-0.0274083
-0.190518
-0.190518
-0.0102356
-0.0102356
-0.0402855
-0.0402855
-0.0145507
-0.0145507
0.00885605
0.00885605
-0.0496105
-0.0496105
-0.0374864
-0.0374864
0.0617559
0.0617559
-0.0577339
-0.0577339
-0.0521901
-0.0521901
-0.182285
-0.182285
-0.0500155
-0.0500155
-0.0300245
-0.0300245
-0.032011
-0.032011
-0.0206099
-0.0206099
-0.0199749
-0.0199749
0.0904301
0.0904301
-0.0292933
-0.0292933
0.0169606
0.0169606
-0.14996
-0.14996
-0.00510808
-0.00510808
-0.0153104
-0.0153104
-0.0752333
-0.0752333
-0.0944413
-0.0944413
-0.00630617
-0.00630617
-0.019489
-0.019489
-0.0731604
-0.0731604
0.053367
0.053367
0.000557911
0.000557911
-0.0720784
-0.0720784
-0.0532478
-0.0532478
-0.0529879
-0.0529879
-0.0541019
-0.0541019
0.0506565
0.0506565
0.0705162
0.0705162
-0.117623
-0.117623
-0.080718
-0.080718
-0.0261578
-0.0261578
-0.19475
-0.19475
0.0473495
0.0473495
-0.0980478
-0.0980478
-0.000368379
-0.000368379
-0.0293825
-0.0293825
-0.0036297
-0.0036297
-0.0745414
-0.0745414
-0.0554674
-0.0554674
-0.126602
-0.126602
0.0120221
0.0120221
-0.0675671
-0.0675671
-0.178377
-0.178377
-0.111923
-0.111923
-0.0901435
-0.0901435
-0.0251352
-0.0251352
-0.00797599
-0.00797599
0.0260458
0.0260458
-0.00554884
-0.00554884
-0.0254873
-0.0254873
-0.00108143
-0.00108143
0.0462239
0.0462239
-0.0952743
-0.0952743
-0.150104
-0.150104
-0.0108859
-0.0108859
0.00690641
0.00690641
-0.0382787
-0.0382787
-0.234991
-0.234991
-0.0507444
-0.0507444
-0.00133996
-0.00133996
-0.0646132
-0.0646132
-0.0265125
-0.0265125
-0.0515495
-0.0515495
-0.00962338
-0.00962338
0.00910149
0.00910149
-0.176323
-0.176323
-0.0435435
-0.0435435
-0.0301262
-0.0301262
-0.0346563
-0.0346563
-0.110078
-0.110078
0.0866747
0.0866747
0.0565773
0.0565773
0.0130229
0.0130229
0.0434283
0.0434283
-0.010612
-0.010612
-0.00500733
-0.00500733
-0.0764995
-0.0764995
-0.121218
-0.121218
0.0126371
0.0126371
-0.00555704
-0.00555704
-0.0232476
-0.0232476
0.0132637
0.0132637
-0.0392014
-0.0392014
-0.0618897
-0.0618897
-0.141584
-0.141584
-0.00520156
-0.00520156
-0.0061012
-0.0061012
0.00373013
0.00373013
-0.182176
-0.182176
-0.0935876
-0.0935876
0.0310612
0.0310612
0.00473835
0.00473835
-0.0247416
-0.0247416
0.0524346
0.0524346
-0.0323527
-0.0323527
-0.00617507
-0.00617507
-0.0695496
-0.0695496
-0.079964
-0.079964
-0.027808
-0.027808
-0.00889112
-0.00889112
-0.0393189
-0.0393189
-0.00683651
-0.00683651
-0.0192575
-0.0192575
-0.014033
-0.014033
-0.00868055
-0.00868055
-0.0259017
-0.0259017
0.0150813
0.0150813
-0.0235653
-0.0235653
-0.0784498
-0.0784498
-0.0149551
-0.0149551
-0.00921289
-0.00921289
0.0212555
0.0212555
-0.150299
-0.150299
-0.129826
-0.129826
-0.356474
-0.356474
-0.176119
-0.176119
-0.134277
-0.134277
0.00231642
0.00231642
-0.0235382
-0.0235382
-0.0685456
-0.0685456
0.0481027
0.0481027
-0.0326692
-0.0326692
0.0341149
0.0341149
-0.00668245
-0.00668245
-0.0442334
-0.0442334
-0.0732361
-0.0732361
0.0254486
0.0254486
-0.0598083
-0.0598083
-0.0357991
-0.0357991
-0.0267578
-0.0267578
-0.0855928
-0.0855928
-0.0820595
-0.0820595
-0.0109523
-0.0109523
0.00531804
0.00531804
-0.0506309
-0.0506309
-0.0137263
-0.0137263
-0.0687537
-0.0687537
-0.061472
-0.061472
-0.0837082
-0.0837082
-0.0109265
-0.0109265
-0.0155213
-0.0155213
-0.00142796
-0.00142796
-0.159437
-0.159437
-0.0901549
-0.0901549
-0.181566
-0.181566
-0.00799128
-0.00799128
-0.00953476
-0.00953476
0.0327062
0.0327062
0.0156135
0.0156135
0.036546
0.036546
0.0640932
0.0640932
-0.0561539
-0.0561539
-0.061508
-0.061508
0.00328215
0.00328215
-0.0194005
-0.0194005
-0.000959836
-0.000959836
-0.0151888
-0.0151888
-0.0395859
-0.0395859
0.0184792
0.0184792
-0.0233448
-0.0233448
-0.121485
-0.121485
-0.0099143
-0.0099143
0.0415382
0.0415382
-0.0186314
-0.0186314
-0.242587
-0.242587
0.0410281
0.0410281
0.0106702
0.0106702
-0.0178591
-0.0178591
-0.0916765
-0.0916765
-0.00383196
-0.00383196
-0.0166753
-0.0166753
-0.103137
-0.103137
-0.048071
-0.048071
0.0408057
0.0408057
-0.0232285
-0.0232285
-0.0465479
-0.0465479
-0.116604
-0.116604
0.0684076
0.0684076
0.0677806
0.0677806
-0.00275326
-0.00275326
-0.142089
-0.142089
0.0158803
0.0158803
-0.035985
-0.035985
-0.0552518
-0.0552518
-0.010394
-0.010394
0.000364587
0.000364587
-0.0153708
-0.0153708
-0.111978
-0.111978
-0.0348249
-0.0348249
-0.0104385
-0.0104385
-0.0092904
-0.0092904
-0.0362993
-0.0362993
-0.144728
-0.144728
0.00411472
0.00411472
-0.0305928
-0.0305928
-0.0438802
-0.0438802
-0.183173
-0.183173
-0.129074
-0.129074
-0.111901
-0.111901
-0.033127
-0.033127
-0.00755124
-0.00755124
-0.00661282
-0.00661282
0.0739107
0.0739107
-0.00319855
-0.00319855
-0.014638
-0.014638
-0.00880267
-0.00880267
0.0668232
0.0668232
-0.130297
-0.130297
-0.0574258
-0.0574258
-0.00949489
-0.00949489
-0.174422
-0.174422
-0.177344
-0.177344
-0.00668371
-0.00668371
-0.197121
-0.197121
-0.00188857
-0.00188857
-0.114788
-0.114788
0.0350512
0.0350512
-0.0170902
-0.0170902
-0.000751036
-0.000751036
-0.0291025
-0.0291025
-0.265938
-0.265938
-0.0338292
-0.0338292
-0.0152815
-0.0152815
-0.034399
-0.034399
-0.119126
-0.119126
-0.0555488
-0.0555488
-0.054717
-0.054717
0.0807997
0.0807997
-0.0107035
-0.0107035
-0.134444
-0.134444
-0.015892
-0.015892
-0.00691487
-0.00691487
-0.175444
-0.175444
-0.0241786
-0.0241786
-0.141591
-0.141591
-0.0173023
-0.0173023
-0.003645
-0.003645
-0.0693431
-0.0693431
0.0263369
0.0263369
0.00171953
0.00171953
-0.0419716
-0.0419716
-0.052573
-0.052573
-0.0375578
-0.0375578
-0.0677824
-0.0677824
-0.161499
-0.161499
0.0519444
0.0519444
-0.142205
-0.142205
0.00759014
0.00759014
-0.167008
-0.167008
-0.0492805
-0.0492805
-0.0670241
-0.0670241
-0.00898833
-0.00898833
0.0293932
0.0293932
-0.191591
-0.191591
0.0384972
0.0384972
0.0143786
0.0143786
0.0751879
0.0751879
-0.16141
-0.16141
-0.0481955
-0.0481955
-0.00293487
-0.00293487
-0.0856431
-0.0856431
-0.119772
-0.119772
-0.0328915
-0.0328915
-0.147215
-0.147215
-0.057975
-0.057975
-0.0170163
-0.0170163
-0.027461
-0.027461
0.0304056
0.0304056
-0.132302
-0.132302
0.0514263
0.0514263
-0.042323
-0.042323
0.000732294
0.000732294
-0.0527798
-0.0527798
0.0079286
0.0079286
0.0281746
0.0281746
-0.048456
-0.048456
-0.0806744
-0.0806744
-0.122287
-0.122287
0.00716728
0.00716728
-0.179052
-0.179052
0.0346227
0.0346227
-0.0232573
-0.0232573
-0.0714423
-0.0714423
-0.114214
-0.114214
-0.156338
-0.156338
-0.145498
-0.145498
-0.0194411
-0.0194411
-0.0695487
-0.0695487
-0.000979382
-0.000979382
-0.0108732
-0.0108732
-0.196211
-0.196211
-0.0205097
-0.0205097
0.0627484
0.0627484
0.0297502
0.0297502
-0.0231505
-0.0231505
-0.00147865
-0.00147865
0.00122161
0.00122161
-0.000382762
-0.000382762
-0.0564541
-0.0564541
-0.0538032
-0.0538032
0.0136756
0.0136756
-0.00932974
-0.00932974
-0.0813442
-0.0813442
0.0180817
0.0180817
-0.0434891
-0.0434891
-0.0283876
-0.0283876
-0.0331029
-0.0331029
-0.0148814
-0.0148814
-0.014244
-0.014244
-0.100819
-0.100819
-0.0104462
-0.0104462
0.0066135
0.0066135
-0.00555988
-0.00555988
0.0686114
0.0686114
-0.0816125
-0.0816125
-0.0658809
-0.0658809
-0.0586025
-0.0586025
-0.0674561
-0.0674561
-0.0241294
-0.0241294
-0.101768
-0.101768
-0.110259
-0.110259
-0.0516465
-0.0516465
-0.213135
-0.213135
0.0336634
0.0336634
-0.0152902
-0.0152902
-0.0103944
-0.0103944
0.068775
0.068775
0.0342247
0.0342247
-0.00993089
-0.00993089
-0.000431422
-0.000431422
-0.0187997
-0.0187997
-0.0208865
-0.0208865
-0.0811246
-0.0811246
-0.0542352
-0.0542352
-0.0542489
-0.0542489
-0.0486677
-0.0486677
-0.0721967
-0.0721967
-0.0171437
-0.0171437
0.0181551
0.0181551
0.0509168
0.0509168
-0.0341716
-0.0341716
-0.0519491
-0.0519491
-0.0213203
-0.0213203
-0.307868
-0.307868
0.00876389
0.00876389
0.0331542
0.0331542
-0.162568
-0.162568
0.0394538
0.0394538
-0.0254997
-0.0254997
0.021504
0.021504
-0.280622
-0.280622
-0.0345098
-0.0345098
0.0311476
0.0311476
-0.201118
-0.201118
-0.0945217
-0.0945217
-0.051881
-0.051881
-0.201246
-0.201246
-0.0196721
-0.0196721
-0.0189755
-0.0189755
-0.0663257
-0.0663257
-0.278887
-0.278887
-0.069145
-0.069145
-0.00809583
-0.00809583
-0.0218708
-0.0218708
0.00510672
0.00510672
-0.13919
-0.13919
-0.0735468
-0.0735468
0.0116633
0.0116633
-0.0630786
-0.0630786
-0.0247019
-0.0247019
-0.0226407
-0.0226407
-0.105072
-0.105072
-0.114387
-0.114387
-0.163343
-0.163343
-0.00237238
-0.00237238
-0.0373116
-0.0373116
-0.063147
-0.063147
-0.0345246
-0.0345246
-0.0402024
-0.0402024
0.00398391
0.00398391
-0.0546936
-0.0546936
0.0220203
0.0220203
-0.0398688
-0.0398688
-0.0311489
-0.0311489
-0.0126823
-0.0126823
0.0388271
0.0388271
-0.0886856
-0.0886856
-0.11388
-0.11388
-0.0115479
-0.0115479
-0.129258
-0.129258
-0.0303627
-0.0303627
-0.201421
-0.201421
-0.334469
-0.334469
0.0199301
0.0199301
0.0376076
0.0376076
0.01981
0.01981
-0.0800736
-0.0800736
0.000777025
0.000777025
-0.00414454
-0.00414454
-0.137528
-0.137528
-0.00924959
-0.00924959
-0.010514
-0.010514
0.00562969
0.00562969
-0.00676615
-0.00676615
-0.0808131
-0.0808131
-0.222148
-0.222148
-0.00468719
-0.00468719
-0.000390592
-0.000390592
-0.0228603
-0.0228603
-0.0249295
-0.0249295
-0.167071
-0.167071
-0.00834591
-0.00834591
-0.127354
-0.127354
0.0063668
0.0063668
-0.0596558
-0.0596558
-0.039473
-0.039473
0.0230405
0.0230405
-0.0340915
-0.0340915
0.0134651
0.0134651
0.0116288
0.0116288
-0.0313048
-0.0313048
-0.00603189
-0.00603189
-0.0430701
-0.0430701
-0.0465495
-0.0465495
-0.014983
-0.014983
0.0381559
0.0381559
-0.0350619
-0.0350619
-0.0553697
-0.0553697
0.0374961
0.0374961
-0.00809784
-0.00809784
-0.09922
-0.09922
-0.00427551
-0.00427551
-0.064039
-0.064039
-0.190904
-0.190904
-0.0250582
-0.0250582
-0.0475548
-0.0475548
-0.0835452
-0.0835452
0.056013
0.056013
0.0208701
0.0208701
-0.046131
-0.046131
0.0141755
0.0141755
-0.00608702
-0.00608702
-0.0515903
-0.0515903
-0.0437022
-0.0437022
-0.0410923
-0.0410923
-0.010268
-0.010268
0.000259438
0.000259438
-0.0374354
-0.0374354
-0.0390701
-0.0390701
-0.0136456
-0.0136456
-0.0264776
-0.0264776
-0.276642
-0.276642
-0.00956064
-0.00956064
-0.0330812
-0.0330812
-0.042435
-0.042435
-0.018445
-0.018445
0.020408
0.020408
-0.0243654
-0.0243654
-0.0397468
-0.0397468
0.0188941
0.0188941
0.00638421
0.00638421
-0.0653484
-0.0653484
-0.0492447
-0.0492447
-0.124873
-0.124873
-0.0201505
-0.0201505
0.00494209
0.00494209
-0.016235
-0.016235
-0.0128594
-0.0128594
-0.0756363
-0.0756363
-0.00916739
-0.00916739
-0.0262704
-0.0262704
-0.0244705
-0.0244705
-0.141843
-0.141843
-0.0154
-0.0154
-0.0165248
-0.0165248
-0.0377633
-0.0377633
-0.118145
-0.118145
-0.00384336
-0.00384336
-0.133323
-0.133323
-0.00414264
-0.00414264
-0.17162
-0.17162
-0.142459
-0.142459
-0.000706589
-0.000706589
0.0353315
0.0353315
0.0113451
0.0113451
-0.104789
-0.104789
-0.00317333
-0.00317333
-0.0312374
-0.0312374
-0.162266
-0.162266
0.0449463
0.0449463
-0.103897
-0.103897
-0.0366947
-0.0366947
-0.0970591
-0.0970591
-0.135472
-0.135472
0.058664
0.058664
-0.0213807
-0.0213807
-0.0538489
-0.0538489
-0.0123944
-0.0123944
-0.0577676
-0.0577676
-0.0136202
-0.0136202
-0.0181042
-0.0181042
-0.0367542
-0.0367542
-0.0994833
-0.0994833
-0.0649888
-0.0649888
0.00647534
0.00647534
-0.110453
-0.110453
-0.0473548
-0.0473548
-0.0556666
-0.0556666
-0.0851576
-0.0851576
-0.1087
-0.1087
-0.0675551
-0.0675551
0.0219236
0.0219236
-0.250403
-0.250403
0.013045
0.013045
-0.0637739
-0.0637739
-0.0291025
-0.0291025
-0.157092
-0.157092
-0.0919072
-0.0919072
0.047089
0.047089
-0.0816803
-0.0816803
-0.119866
-0.119866
-0.0358854
-0.0358854
-0.103996
-0.103996
-0.167271
-0.167271
0.0515397
0.0515397
-0.0380579
-0.0380579
-0.000124819
-0.000124819
-0.0134366
-0.0134366
-0.144207
-0.144207
-0.138905
-0.138905
-0.00706953
-0.00706953
-0.0413475
-0.0413475
0.0265519
0.0265519
-0.100534
-0.100534
-0.00740087
-0.00740087
-0.227018
-0.227018
-0.164066
-0.164066
-0.0248122
-0.0248122
-0.0260425
-0.0260425
-0.137094
-0.137094
-0.0541044
-0.0541044
0.081306
0.081306
-0.116955
-0.116955
0.0757551
0.0757551
-0.031007
-0.031007
-0.0294067
-0.0294067
-0.1326
-0.1326
-0.0179597
-0.0179597
-0.00458704
-0.00458704
-0.0264705
-0.0264705
-0.0384984
-0.0384984
-0.031175
-0.031175
-0.0314402
-0.0314402
0.00146197
0.00146197
-0.0206284
-0.0206284
-0.0836356
-0.0836356
-0.0275658
-0.0275658
-0.0341481
-0.0341481
-0.0240853
-0.0240853
-0.0113662
-0.0113662
-0.0410253
-0.0410253
0.0146038
0.0146038
-0.0280979
-0.0280979
0.00500482
0.00500482
-0.0167833
-0.0167833
-0.182302
-0.182302
-0.0332498
-0.0332498
-0.0537151
-0.0537151
0.0296196
0.0296196
-0.0149646
-0.0149646
0.0105193
0.0105193
-0.0303478
-0.0303478
-0.145756
-0.145756
-0.0108086
-0.0108086
-0.121737
-0.121737
-0.026782
-0.026782
-0.00537152
-0.00537152
-0.0314455
-0.0314455
-0.03164
-0.03164
-0.0295579
-0.0295579
-0.040623
-0.040623
-0.0624549
-0.0624549
0.0615048
0.0615048
0.00193943
0.00193943
-0.00479094
-0.00479094
-0.0629934
-0.0629934
0.0377305
0.0377305
-0.0172889
-0.0172889
-0.00965113
-0.00965113
-0.0347073
-0.0347073
-0.0292345
-0.0292345
-0.00477763
-0.00477763
-0.0216393
-0.0216393
-0.000990685
-0.000990685
-0.0118405
-0.0118405
-0.0421208
-0.0421208
0.00809272
0.00809272
-0.0790794
-0.0790794
-0.0387976
-0.0387976
0.0786757
0.0786757
-0.0104612
-0.0104612
0.0248425
0.0248425
-0.0242145
-0.0242145
-0.214846
-0.214846
-0.181742
-0.181742
-0.077825
-0.077825
0.0475997
0.0475997
-0.120199
-0.120199
-0.00301052
-0.00301052
-0.0131594
-0.0131594
-0.0147514
-0.0147514
-0.00403746
-0.00403746
-0.0321277
-0.0321277
-0.0405576
-0.0405576
-0.0120308
-0.0120308
-0.0588551
-0.0588551
-0.268592
-0.268592
-0.020661
-0.020661
-0.0317264
-0.0317264
-0.0214845
-0.0214845
-0.0732213
-0.0732213
0.0229406
0.0229406
-0.120499
-0.120499
-0.00577443
-0.00577443
0.0345861
0.0345861
-0.00597334
-0.00597334
-0.0147214
-0.0147214
-0.187432
-0.187432
-0.187184
-0.187184
-0.162734
-0.162734
-0.00306207
-0.00306207
0.00766154
0.00766154
-0.0362379
-0.0362379
-0.00865601
-0.00865601
-0.0125047
-0.0125047
-0.0141717
-0.0141717
-0.00714471
-0.00714471
0.0443202
0.0443202
-0.200889
-0.200889
-0.0122262
-0.0122262
-0.00130305
-0.00130305
-0.00722052
-0.00722052
-0.0175358
-0.0175358
-0.00926857
-0.00926857
0.0151915
0.0151915
-0.112643
-0.112643
-0.0239333
-0.0239333
-0.0635944
-0.0635944
-0.122076
-0.122076
-0.0414635
-0.0414635
-0.163369
-0.163369
-0.0546828
-0.0546828
-0.052219
-0.052219
-0.00398269
-0.00398269
-0.0193339
-0.0193339
0.0434952
0.0434952
0.063324
0.063324
-0.0132062
-0.0132062
-0.00699815
-0.00699815
0.0138366
0.0138366
-0.0847587
-0.0847587
-0.00798992
-0.00798992
0.0317443
0.0317443
-0.030755
-0.030755
-0.00011026
-0.00011026
-0.011967
-0.011967
-0.0172724
-0.0172724
-0.156353
-0.156353
0.0627288
0.0627288
-0.00860863
-0.00860863
-0.0576623
-0.0576623
-0.0861658
-0.0861658
-0.0948734
-0.0948734
-0.0126274
-0.0126274
-0.00713186
-0.00713186
-0.116305
-0.116305
0.0160342
0.0160342
-0.155054
-0.155054
-0.203085
-0.203085
0.0160523
0.0160523
-0.0131142
-0.0131142
-0.144199
-0.144199
-0.0275099
-0.0275099
-0.0362996
-0.0362996
-0.06023
-0.06023
-0.0198114
-0.0198114
0.0326901
0.0326901
-0.135096
-0.135096
-0.0528567
-0.0528567
0.0208706
0.0208706
-0.117917
-0.117917
-0.0322146
-0.0322146
-0.0272702
-0.0272702
-0.0118465
-0.0118465
-0.00942628
-0.00942628
-0.0379189
-0.0379189
-0.0700952
-0.0700952
-0.0135242
-0.0135242
0.0352545
0.0352545
-0.329417
-0.329417
0.00416634
0.00416634
-0.017059
-0.017059
-0.0476347
-0.0476347
0.0207786
0.0207786
-0.0457854
-0.0457854
-0.0220821
-0.0220821
-0.0314932
-0.0314932
-0.00431382
-0.00431382
0.00947657
0.00947657
0.00627194
0.00627194
0.0116158
0.0116158
-0.165479
-0.165479
-0.0457492
-0.0457492
0.00639088
0.00639088
0.0436849
0.0436849
0.00872286
0.00872286
0.0416386
0.0416386
-0.0202562
-0.0202562
0.00988611
0.00988611
-0.0200087
-0.0200087
-0.0230795
-0.0230795
-0.281753
-0.281753
0.0154655
0.0154655
-0.236622
-0.236622
0.0399587
0.0399587
0.00276656
0.00276656
-0.043672
-0.043672
-0.0240577
-0.0240577
-0.0758133
-0.0758133
-0.0854196
-0.0854196
-0.0280616
-0.0280616
-0.00343068
-0.00343068
0.043403
0.043403
-0.0994522
-0.0994522
-0.0257938
-0.0257938
-0.0215055
-0.0215055
0.0594028
0.0594028
0.00123116
0.00123116
-0.00545166
-0.00545166
0.000580136
0.000580136
-0.00980123
-0.00980123
-0.0628752
-0.0628752
-0.134118
-0.134118
-0.153876
-0.153876
-0.0236506
-0.0236506
0.0318967
0.0318967
-0.156563
-0.156563
-0.0613033
-0.0613033
0.0584948
0.0584948
-0.00740177
-0.00740177
0.00146394
0.00146394
-0.0431304
-0.0431304
-0.0352556
-0.0352556
-0.0100558
-0.0100558
-0.149783
-0.149783
0.0903513
0.0903513
-0.107239
-0.107239
-0.00998642
-0.00998642
-0.0458127
-0.0458127
-0.196853
-0.196853
0.00787271
0.00787271
-0.0375633
-0.0375633
-0.172174
-0.172174
0.0646637
0.0646637
-0.0046997
-0.0046997
0.00896748
0.00896748
-0.0272454
-0.0272454
0.0368107
0.0368107
-0.00237433
-0.00237433
-0.00737557
-0.00737557
-0.0507892
-0.0507892
-0.0828534
-0.0828534
-0.251937
-0.251937
-0.197053
-0.197053
0.0233072
0.0233072
-0.186142
-0.186142
-0.0361742
-0.0361742
-0.0179556
-0.0179556
0.00253194
0.00253194
-0.0588456
-0.0588456
0.0140572
0.0140572
-0.00750455
-0.00750455
0.0120434
0.0120434
-0.00660789
-0.00660789
9.53162e-05
9.53162e-05
-0.0508689
-0.0508689
-0.0306163
-0.0306163
-0.0065905
-0.0065905
-0.0995613
-0.0995613
0.00484842
0.00484842
-0.0381508
-0.0381508
-0.0441827
-0.0441827
0.0320722
0.0320722
-0.0500746
-0.0500746
-0.0233195
-0.0233195
0.0501181
0.0501181
0.0130698
0.0130698
0.0462679
0.0462679
-0.0609497
-0.0609497
-0.00238844
-0.00238844
-0.126647
-0.126647
-0.0382942
-0.0382942
-0.187779
-0.187779
-0.102354
-0.102354
-0.188069
-0.188069
-0.0151211
-0.0151211
-0.130958
-0.130958
0.00435973
0.00435973
-0.0344591
-0.0344591
-0.165119
-0.165119
-0.18805
-0.18805
0.0281123
0.0281123
-0.0378197
-0.0378197
0.0346479
0.0346479
0.0446791
0.0446791
-0.069149
-0.069149
-0.175367
-0.175367
-0.00627251
-0.00627251
0.0160748
0.0160748
0.0114723
0.0114723
0.0339699
0.0339699
-0.0933873
-0.0933873
-0.0344446
-0.0344446
0.00373
0.00373
-0.0347108
-0.0347108
-0.0382339
-0.0382339
-0.0481167
-0.0481167
0.0187934
0.0187934
-0.103607
-0.103607
-0.0126439
-0.0126439
-0.0115501
-0.0115501
-0.0233738
-0.0233738
-0.0341794
-0.0341794
-0.00994117
-0.00994117
-0.113995
-0.113995
-0.161926
-0.161926
-0.0247181
-0.0247181
-0.0057025
-0.0057025
-0.0365659
-0.0365659
0.00774211
0.00774211
-0.167889
-0.167889
-0.00252203
-0.00252203
0.0471334
0.0471334
-0.203793
-0.203793
-0.00354327
-0.00354327
-0.0519443
-0.0519443
-0.0573786
-0.0573786
-0.127458
-0.127458
-0.0285772
-0.0285772
-0.0310278
-0.0310278
-0.00441108
-0.00441108
-0.144668
-0.144668
-0.0364592
-0.0364592
-0.0969045
-0.0969045
0.00280229
0.00280229
-0.0141074
-0.0141074
0.0162609
0.0162609
0.0240888
0.0240888
-0.0683878
-0.0683878
0.00454728
0.00454728
0.00482412
0.00482412
0.00360218
0.00360218
0.000921681
0.000921681
-0.00617993
-0.00617993
-0.0395566
-0.0395566
-0.0398974
-0.0398974
-0.0845796
-0.0845796
-0.0131633
-0.0131633
0.0386094
0.0386094
-0.0437591
-0.0437591
-0.131478
-0.131478
0.029353
0.029353
-0.0432007
-0.0432007
-0.0144921
-0.0144921
-0.0401375
-0.0401375
-0.0294497
-0.0294497
-0.0236592
-0.0236592
-0.0131449
-0.0131449
-0.109734
-0.109734
-0.0149796
-0.0149796
-0.0235874
-0.0235874
-0.0230463
-0.0230463
-0.136739
-0.136739
-0.220919
-0.220919
-0.0286422
-0.0286422
-0.0145424
-0.0145424
-0.140736
-0.140736
-0.0318825
-0.0318825
-0.0138994
-0.0138994
-0.0920965
-0.0920965
-0.0988509
-0.0988509
-0.0409858
-0.0409858
-0.00935802
-0.00935802
-0.077363
-0.077363
0.0130736
0.0130736
0.0265826
0.0265826
0.00261393
0.00261393
-0.00818593
-0.00818593
-0.0271342
-0.0271342
0.0265163
0.0265163
0.0693024
0.0693024
-0.141632
-0.141632
-0.0200327
-0.0200327
-0.0270818
-0.0270818
-0.0600069
-0.0600069
-0.0434938
-0.0434938
0.0162533
0.0162533
-0.0495772
-0.0495772
0.0263202
0.0263202
-0.115221
-0.115221
-0.164499
-0.164499
0.0778272
0.0778272
-0.131792
-0.131792
-0.159343
-0.159343
-0.105467
-0.105467
-0.0556001
-0.0556001
-0.0209423
-0.0209423
-0.0206381
-0.0206381
-0.0801869
-0.0801869
-0.0557788
-0.0557788
0.00154527
0.00154527
-0.0184337
-0.0184337
-0.00905059
-0.00905059
0.0178971
0.0178971
-0.0517233
-0.0517233
-0.115735
-0.115735
-0.241266
-0.241266
-0.16669
-0.16669
-0.0934713
-0.0934713
-0.0644005
-0.0644005
-0.286881
-0.286881
-0.0136947
-0.0136947
-0.124197
-0.124197
0.0294718
0.0294718
-0.00419983
-0.00419983
-0.166773
-0.166773
-0.0551175
-0.0551175
-0.0481836
-0.0481836
-0.127823
-0.127823
-0.0107291
-0.0107291
-0.0171292
-0.0171292
-0.0103375
-0.0103375
-0.0248179
-0.0248179
-0.125832
-0.125832
-0.0159004
-0.0159004
-0.012363
-0.012363
-0.0113573
-0.0113573
-0.00246281
-0.00246281
-0.0945157
-0.0945157
-0.00565837
-0.00565837
-0.17222
-0.17222
-0.282899
-0.282899
-0.0289379
-0.0289379
0.0239278
0.0239278
-0.0517892
-0.0517892
-0.0537852
-0.0537852
-0.0200038
-0.0200038
-0.0712979
-0.0712979
0.013527
0.013527
-0.0135254
-0.0135254
-0.0103193
-0.0103193
-0.0083905
-0.0083905
-0.00726063
-0.00726063
-0.00571009
-0.00571009
-0.00450909
-0.00450909
-0.00336484
-0.00336484
-0.00233055
-0.00233055
-0.00147142
-0.00147142
-0.000609587
-0.000609587
0.000112753
0.000112753
0.000756348
0.000756348
0.00137896
0.00137896
0.00176731
0.00176731
0.00212215
0.00212215
0.0024516
0.0024516
0.002577
0.002577
0.00269314
0.00269314
0.00263025
0.00263025
0.00261436
0.00261436
0.0023753
0.0023753
0.00201175
0.00201175
0.0017399
0.0017399
0.00123996
0.00123996
0.000687943
0.000687943
-7.9243e-05
-7.9243e-05
-0.000725335
-0.000725335
-0.00142535
-0.00142535
-0.00253844
-0.00253844
-0.00343779
-0.00343779
-0.00506133
-0.00506133
-0.00598939
-0.00598939
-0.00700337
-0.00700337
-0.00938893
-0.00938893
-0.0111947
-0.0111947
-0.0118458
-0.0118458
-0.0140428
-0.0140428
-0.0181675
-0.0181675
-0.0199774
-0.0199774
-0.0220679
-0.0220679
-0.0273216
-0.0273216
-0.0323029
-0.0323029
-0.0380346
-0.0380346
-0.0461606
-0.0461606
-0.0601244
-0.0601244
-0.0737881
-0.0737881
-0.101721
-0.101721
-0.119784
-0.119784
-0.0582746
-0.0582746
0.00693506
0.00693506
-0.016948
-0.016948
-0.0247333
-0.0247333
-0.0197737
-0.0197737
-0.0198777
-0.0198777
-0.0187075
-0.0187075
-0.0255176
-0.0255176
-0.0367241
-0.0367241
-0.0435471
-0.0435471
-0.050744
-0.050744
-0.0575589
-0.0575589
-0.0623321
-0.0623321
-0.0634936
-0.0634936
-0.0618399
-0.0618399
-0.0586802
-0.0586802
-0.0538591
-0.0538591
-0.0479738
-0.0479738
-0.0413286
-0.0413286
-0.0351845
-0.0351845
-0.0292472
-0.0292472
-0.0246399
-0.0246399
-0.0226094
-0.0226094
-0.0206136
-0.0206136
-0.0117947
-0.0117947
-0.0109503
-0.0109503
-0.00947775
-0.00947775
-0.00722179
-0.00722179
-0.00600029
-0.00600029
-0.00517301
-0.00517301
-0.00342817
-0.00342817
-0.00266723
-0.00266723
-0.00141646
-0.00141646
-0.000709442
-0.000709442
-7.59165e-05
-7.59165e-05
0.000717492
0.000717492
0.00123731
0.00123731
0.00172798
0.00172798
0.00198306
0.00198306
0.00242848
0.00242848
0.00253335
0.00253335
0.00262187
0.00262187
0.00255819
0.00255819
0.00264118
0.00264118
0.00241522
0.00241522
0.00209741
0.00209741
0.00181877
0.00181877
0.00128954
0.00128954
0.000776769
0.000776769
0.000135
0.000135
-0.00063576
-0.00063576
-0.001421
-0.001421
-0.0023856
-0.0023856
-0.00341201
-0.00341201
-0.00461159
-0.00461159
-0.00576316
-0.00576316
-0.00711513
-0.00711513
-0.0085514
-0.0085514
-0.01047
-0.01047
-0.0137441
-0.0137441
-0.0202449
-0.0202449
-0.0226698
-0.0226698
-0.0246694
-0.0246694
-0.0293525
-0.0293525
-0.0351771
-0.0351771
-0.0417351
-0.0417351
-0.0486466
-0.0486466
-0.0544833
-0.0544833
-0.0593945
-0.0593945
-0.0625436
-0.0625436
-0.0636498
-0.0636498
-0.0623112
-0.0623112
-0.0585209
-0.0585209
-0.0501036
-0.0501036
-0.0414633
-0.0414633
-0.0326581
-0.0326581
-0.0262499
-0.0262499
-0.0225894
-0.0225894
-0.0174523
-0.0174523
-0.0180369
-0.0180369
-0.0195676
-0.0195676
-0.0160508
-0.0160508
-0.00522478
-0.00522478
-0.0485791
-0.0485791
-0.111736
-0.111736
-0.110287
-0.110287
-0.0806511
-0.0806511
-0.0570269
-0.0570269
-0.048506
-0.048506
-0.0363715
-0.0363715
-0.0316487
-0.0316487
-0.0285687
-0.0285687
-0.0227422
-0.0227422
-0.0191272
-0.0191272
-0.0179106
-0.0179106
-0.0150609
-0.0150609
      </DataArray> 
    </PointData>
    <CellData>
    </CellData>
  </Piece>
  </UnstructuredGrid>
</VTKFile>
