<?xml version="1.0"?>
<VTKFile type="UnstructuredGrid">
  <UnstructuredGrid>
  <Piece NumberOfPoints="3487"  NumberOfCells="1698">
    <Points>
      <DataArray type="Float64" NumberOfComponents="3" format="ascii">
39.9722 48.4478 0
60.0286 48.4465 0
40.6337 48.5788 0
41.2966 48.701 0
41.9605 48.8141 0
42.6257 48.9182 0
43.2922 49.0133 0
43.9598 49.0993 0
44.6284 49.1763 0
45.2979 49.2442 0
45.9682 49.303 0
46.6393 49.3528 0
47.3109 49.3936 0
47.9829 49.4253 0
48.6553 49.4479 0
49.328 49.4614 0
50.0007 49.4659 0
50.6735 49.4613 0
51.3461 49.4477 0
52.0185 49.425 0
52.6906 49.3932 0
53.3621 49.3524 0
54.0331 49.3025 0
54.7034 49.2435 0
55.3729 49.1755 0
56.0415 49.0984 0
56.709 49.0123 0
57.3754 48.9172 0
58.0406 48.8131 0
58.7044 48.6999 0
59.3671 48.5776 0
39.99 49.4645 0
39.9903 49.2104 0
39.9872 48.9563 0
39.9811 48.7021 0
19.8437 69.3193 0
39.9865 49.7261 0
39.9796 49.9877 0
39.9636 50.3661 0
39.9403 50.744 0
39.894 51.29 0
39.8326 51.8345 0
39.7174 52.6191 0
39.5711 53.3984 0
39.3047 54.5144 0
38.9745 55.6134 0
38.6966 56.3958 0
38.3862 57.166 0
38.0441 57.9226 0
37.6709 58.6644 0
37.077 59.7089 0
36.4213 60.7159 0
35.7064 61.6816 0
-0.0799602 49.2426 0
17.2345 69.1343 0
14.6716 68.6114 0
12.1984 67.7597 0
9.85715 66.5933 0
7.68768 65.132 0
11.6004 31.4255 0
0.13356 46.4247 0
0.745074 43.6663 0
1.74286 41.023 0
0 0 0
0.101797 3.69539 0
0.503499 7.38176 0
1.19417 11.031 0
2.16788 14.6142 0
3.08129 17.2501 0
49.9996 -0.512976 0
5.1116 0 0
10.2232 0 0
15.3348 0 0
100 0 0
57.4184 -0.497071 0
64.8372 -0.43896 0
72.2449 -0.316588 0
88.4007 31.4243 0
99.8984 3.69541 0
99.4967 7.3815 0
98.8061 11.0307 0
97.8324 14.6138 0
96.919 17.2496 0
100.08 49.242 0
99.8667 46.4242 0
99.2553 43.6657 0
98.2574 41.0223 0
80.1562 69.3184 0
99.9201 51.8523 0
99.4193 54.4195 0
98.5869 56.8989 0
97.4375 59.2485 0
95.9913 61.4277 0
60.0105 49.4631 0
77.645 69.1747 0
75.1714 68.7181 0
72.7744 67.9555 0
70.4917 66.899 0
69.0001 66.0057 0
67.5915 64.9864 0
66.2766 63.8489 0
65.0653 62.6015 0
64.2937 61.6804 0
63.5788 60.7146 0
62.9232 59.7076 0
62.3293 58.6631 0
61.614 57.1647 0
61.0257 55.6121 0
60.6956 54.5132 0
60.4293 53.3971 0
60.283 52.6177 0
60.0104 49.209 0
60.0134 48.9549 0
60.0196 48.7007 0
52.8119 29.7276 0
26.5608 36.5518 0
40.3576 23.8667 0
24.9787 22.1992 0
71.8916 22.2102 0
72.6988 43.5818 0
54.7903 23.6822 0
15.2718 46.993 0
38.3549 49.0711 0
23.5095 64.8093 0
7.66895 7.6925 0
91.9722 7.66995 0
29.116 56.4879 0
37.1658 51.5371 0
28.083 46.8185 0
29.7199 47.7805 0
71.5185 46.3048 0
30.9758 48.6795 0
70.523 47.7808 0
31.6397 45.2758 0
30.8848 46.7263 0
70.0658 46.296 0
68.978 44.6259 0
31.2756 49.773 0
30.8823 50.9925 0
28.1735 48.7701 0
45.3139 40.9262 0
53.8394 40.547 0
56.02 40.0959 0
73.1361 47.0544 0
70.1279 49.0193 0
68.3187 42.0622 0
32.3242 42.393 0
26.1348 45.3019 0
27.6809 44.3121 0
30.3151 42.9477 0
70.4006 42.2588 0
72.6785 45.5709 0
44.8538 42.718 0
51.4294 41.6246 0
55.4048 42.2105 0
32.4408 48.7188 0
68.568 49.2585 0
39.4879 41.7084 0
35.4503 43.0199 0
32.8957 46.1741 0
33.5721 47.9202 0
67.1096 47.863 0
67.9822 46.1023 0
65.0616 42.6824 0
60.4082 41.3455 0
32.3474 51.0328 0
28.1933 50.6241 0
41.7919 36.9347 0
46.8288 37.3382 0
52.0465 39.5099 0
58.666 38.8795 0
26.5759 51.5144 0
24.2741 49.9466 0
74.2491 49.5577 0
71.1861 50.2654 0
69.1682 51.8476 0
67.9424 51.9843 0
59.7457 36.0019 0
66.4856 40.313 0
34.1241 40.6898 0
36.0494 35.4364 0
23.1702 46.7848 0
21.6481 42.9011 0
28.3679 41.4335 0
74.3161 44.332 0
76.6563 48.1629 0
43.0599 43.3056 0
46.2722 42.5918 0
49.9684 42.6395 0
48.4345 42.4225 0
51.7621 43.6767 0
54.0857 43.7923 0
52.9044 44.0879 0
56.268 43.3409 0
33.8723 49.0144 0
33.7663 50.5253 0
66.5575 51.3379 0
66.6071 49.3498 0
41.8382 43.5428 0
40.7102 43.28 0
38.4701 42.886 0
37.1512 43.4893 0
35.3513 45.1927 0
34.3268 46.4685 0
66.0221 46.1917 0
65.0132 44.9219 0
63.1804 43.1723 0
61.6947 42.7248 0
58.8717 43.1399 0
57.5337 43.4565 0
33.3729 51.7458 0
29.1318 53.3415 0
40.8545 30.6641 0
50.8839 35.6525 0
55.6564 33.936 0
23.519 53.0485 0
76.9537 51.5193 0
70.2706 52.9498 0
66.4341 52.5779 0
65.4458 34.8221 0
30.985 34.2448 0
19.4249 46.8955 0
26.1483 39.6751 0
71.967 33.7695 0
72.0374 41.0217 0
77.491 44.927 0
43.1711 44.7474 0
45.8123 44.3839 0
48.7658 44.4746 0
51.4429 45.1029 0
53.7673 45.2185 0
56.215 45.0387 0
34.898 49.7269 0
65.0986 49.9422 0
40.8206 44.7216 0
38.3732 45.0615 0
36.029 46.9401 0
64.1394 46.6841 0
61.6442 44.9674 0
58.8199 44.8374 0
36.0459 52.0021 0
34.8904 52.7606 0
33.4716 53.2673 0
31.8608 55.0519 0
26.0297 58.4956 0
22.9368 56.8921 0
32.4355 22.4005 0
47.0443 26.3488 0
63.1071 22.7279 0
19.9349 54.5964 0
80.2404 53.8625 0
75.8525 55.3811 0
71.9865 55.7451 0
69.1332 55.0762 0
65.8061 53.5874 0
64.1284 53.4376 0
68.1148 28.6826 0
26.8208 29.7789 0
17.1928 51.3277 0
14.5894 42.0558 0
22.4438 33.7451 0
84.9256 46.4554 0
84.7717 51.5907 0
75.1421 37.5937 0
81.2207 43.5597 0
42.4593 46.0775 0
41.4193 45.8856 0
44.9678 45.9233 0
43.6819 45.8402 0
47.7375 45.8645 0
46.3874 45.7971 0
50.6201 46.1776 0
49.2727 46.0816 0
53.05 46.5725 0
51.7629 46.5888 0
55.5116 46.1847 0
54.2321 46.2768 0
58.0592 46.1379 0
56.7782 46.3005 0
36.3691 48.2616 0
36.0179 49.2611 0
35.9117 50.7732 0
63.4061 51.7076 0
63.8449 50.6942 0
63.8948 48.7045 0
63.8402 47.803 0
40.2906 45.6222 0
39.3748 45.8007 0
38.0547 46.4031 0
37.3942 46.9855 0
62.831 46.5328 0
62.0142 46.21 0
60.5274 45.7637 0
59.3982 45.8207 0
38.0371 52.2104 0
36.1442 53.5251 0
34.0255 56.376 0
29.5295 59.4243 0
22.791 60.9443 0
21.7641 15.219 0
39.986 15.8999 0
48.9024 11.1649 0
56.9276 16.6209 0
76.6152 15.4412 0
15.5628 56.6234 0
84.5979 57.0567 0
73.4812 59.0774 0
66.5631 55.243 0
62.4855 53.2148 0
82.9427 7.75254 0
79.704 22.3656 0
16.3035 7.83781 0
18.3813 22.0944 0
10.6784 46.3328 0
16.6137 35.6687 0
15.5806 30.116 0
89.4594 49.1987 0
83.2542 30.9511 0
81.5596 38.9436 0
41.9297 46.9787 0
44.2568 47.2537 0
46.8938 47.4042 0
49.5921 47.5676 0
52.2272 47.6473 0
54.7944 47.5389 0
57.3559 47.2842 0
37.3833 49.3078 0
37.9032 50.9803 0
62.2018 50.4698 0
62.5858 48.5542 0
39.9731 46.9654 0
38.3959 47.7257 0
38.5083 48.4954 0
61.7681 48.1925 0
61.7141 47.3299 0
59.7674 47.065 0
38.8744 50.7447 0
61.3628 50.6774 0
39.1728 52.526 0
38.4355 53.0822 0
38.1373 54.1895 0
36.982 54.9473 0
36.468 56.7173 0
34.8111 58.2311 0
33.2931 60.08 0
30.6646 62.1763 0
27.8927 64.3136 0
27.188 7.62235 0
38.663 8.04491 0
59.8701 8.26198 0
71.7489 7.68716 0
19.1354 64.2372 0
14.8427 62.4893 0
10.6495 59.6901 0
6.20815 56.6348 0
5.93442 50.7087 0
94.303 51.8028 0
93.4017 56.8541 0
89.4245 60.2083 0
84.6774 62.7339 0
79.5737 64.4231 0
74.6683 63.4771 0
70.3521 62.2159 0
66.9063 60.7797 0
65.2768 58.1171 0
62.7685 56.8037 0
62.1168 55.2783 0
61.8186 54.171 0
61.0961 52.4402 0
93.5167 14.462 0
89.7922 20.5655 0
86.0778 24.8398 0
6.22945 14.4568 0
13.0364 24.3182 0
9.79177 20.5594 0
5.71676 45.1496 0
5.63581 40.2144 0
12.337 34.3869 0
94.2788 46.6924 0
88.1066 36.7053 0
93.3867 41.9796 0
41.0923 47.7439 0
40.4311 47.6172 0
42.1335 47.9358 0
43.4648 48.1348 0
42.7978 48.0443 0
44.7514 48.218 0
46.091 48.3447 0
45.4204 48.2904 0
47.4418 48.4122 0
48.7861 48.4664 0
48.1136 48.4484 0
50.134 48.5625 0
51.4792 48.5442 0
50.8067 48.5624 0
52.7666 48.5279 0
54.109 48.4372 0
53.4384 48.4916 0
55.389 48.345 0
56.7249 48.1819 0
56.058 48.2725 0
58.0069 48.0194 0
59.3326 47.7841 0
58.6713 47.9107 0
39.3574 51.1989 0
39.3035 51.7441 0
60.9654 51.6584 0
60.9116 51.1132 0
38.0031 50.0715 0
39.1282 49.2594 0
61.8015 49.6631 0
61.8229 49.0949 0
60.9836 49.3019 0
39.5144 47.7953 0
39.1697 47.9132 0
60.9505 47.8703 0
60.4629 47.7266 0
39.4574 50.2895 0
60.5113 50.3064 0
39.4822 49.6498 0
39.477 49.9114 0
60.4916 49.9283 0
60.4864 49.6667 0
39.6362 49.0736 0
39.627 48.5656 0
39.6347 48.8195 0
60.5075 49.0978 0
60.509 48.8438 0
60.5169 48.59 0
61.005 48.7333 0
39.282 48.6833 0
60.9624 49.8705 0
38.9743 49.8354 0
60.8972 47.0072 0
39.0566 47.1431 0
62.6408 49.4563 0
37.0316 50.3077 0
61.7632 51.4841 0
38.7744 51.6539 0
58.6376 47.1215 0
56.0743 47.4466 0
53.5146 47.631 0
50.9399 47.6636 0
48.2443 47.4716 0
45.5431 47.3367 0
42.9703 47.1704 0
40.8892 46.7865 0
89.1853 44.3707 0
10.9117 40.5175 0
13.2798 16.0416 0
85.8789 16.2418 0
63.2081 54.9452 0
68.9767 58.0873 0
79.0197 59.4443 0
89.3611 54.4694 0
11.7089 52.4267 0
19.1571 59.2655 0
66.6817 15.4794 0
30.7916 15.2174 0
26.2755 61.73 0
32.1065 57.6077 0
34.9886 54.2833 0
37.2996 52.7668 0
62.5314 47.6523 0
37.7346 48.3077 0
75.8953 28.3953 0
20.5602 28.3135 0
47.9196 18.9686 0
60.1583 44.52 0
63.131 45.4136 0
37.0531 45.6636 0
39.6923 44.4581 0
65.1492 47.9536 0
65.0494 51.9316 0
34.7917 51.2385 0
35.0035 48.2156 0
57.4812 45.1543 0
54.9489 44.9228 0
52.5856 45.5141 0
50.3005 44.6917 0
47.2312 44.2576 0
44.3931 44.51 0
41.949 44.9846 0
74.336 42.3444 0
80.2929 48.4911 0
17.9902 42.9681 0
21.2783 50.4008 0
34.4752 29.3952 0
59.9629 29.9369 0
67.8189 53.2239 0
73.4357 52.6458 0
54.4553 38.4325 0
46.516 32.5926 0
26.1887 55.0092 0
31.9538 52.2529 0
69.7417 39.6962 0
30.9991 40.066 0
57.5862 41.759 0
63.2306 40.9314 0
66.8955 44.431 0
33.6495 44.7225 0
37.2483 41.3151 0
41.7273 42.1013 0
68.0661 50.745 0
32.7407 49.8128 0
53.223 42.6617 0
49.6366 40.5875 0
74.2963 46.3203 0
25.7332 42.7979 0
71.976 47.7889 0
26.5364 47.8077 0
69.0703 47.7727 0
32.1407 47.6252 0
71.0615 44.8205 0
29.6287 45.8283 0
29.8104 49.7333 0
88.1221 34.0702 0
96.8927 38.5493 0
91.2832 35.3725 0
92.2327 38.2163 0
96.0808 37.3926 0
88.5067 40.4141 0
3.10757 38.5498 0
11.9176 32.8604 0
10.0275 34.6759 0
3.91962 37.3932 0
8.32166 37.1443 0
11.7036 36.6982 0
11.4133 22.4407 0
11.0141 26.2704 0
9.39142 24.3984 0
11.9081 28.7175 0
4.1453 19.8262 0
5.35651 22.3335 0
8.24723 22.6563 0
11.5342 18.2978 0
13.1551 20.1814 0
8.00861 17.5127 0
6.96664 20.1941 0
5.1846 17.138 0
6.71008 24.763 0
7.81796 26.5313 0
4.19771 14.5359 0
9.75229 15.2523 0
87.9359 22.7042 0
90.4008 24.4 0
88.5432 26.5275 0
91.5451 22.6584 0
95.8549 19.8257 0
94.6436 22.3329 0
87.6705 29.0221 0
85.9816 20.5425 0
87.8371 18.401 0
91.6565 17.5186 0
94.6887 17.1401 0
92.8258 20.197 0
95.6756 14.5384 0
93.29 24.7622 0
92.1822 26.5304 0
89.7005 15.3555 0
65.8114 7.95355 0
62.3415 3.90695 0
68.291 3.61452 0
54.9462 3.86426 0
79.5536 0 0
84.6652 0 0
75.6507 3.80875 0
69.2126 11.5771 0
63.2752 11.8699 0
32.9241 7.81188 0
31.1773 3.57984 0
36.9234 3.80044 0
23.8181 3.78294 0
20.4464 0 0
27.7561 -0.315499 0
44.3184 3.75297 0
34.7294 11.6303 0
28.9916 11.4156 0
81.6195 34.7843 0
85.3896 34.2788 0
85.0406 37.8313 0
86.2373 31.3592 0
85.0355 41.881 0
77.2543 33.7236 0
79.9868 30.9191 0
16.1088 32.6146 0
14.1366 34.9964 0
13.9675 32.5653 0
14.17 38.1935 0
13.5875 30.7778 0
17.6665 29.7647 0
18.7928 32.7115 0
16.5658 27.1075 0
14.1497 28.0688 0
15.7088 23.2034 0
15.8303 19.0669 0
19.4741 25.1999 0
81.5734 27.0348 0
82.8906 23.6005 0
84.8065 28.4459 0
82.7903 19.3003 0
77.7952 25.3754 0
79.7769 11.5914 0
74.1756 11.577 0
77.3336 7.7393 0
71.6421 15.4564 0
81.2532 3.86858 0
84.4126 11.9948 0
81.2446 15.8435 0
52.9171 13.8891 0
54.3835 9.70336 0
58.395 12.4402 0
49.4496 5.32367 0
61.8033 16.0421 0
52.4226 17.7895 0
48.411 15.0671 0
44.4425 13.5278 0
39.3279 11.9723 0
43.7855 9.59566 0
35.3905 15.551 0
43.9542 17.4295 0
19.0342 11.5259 0
21.7552 7.75302 0
24.4819 11.4342 0
18.37 3.9106 0
26.2838 15.2169 0
17.5231 15.6319 0
14.7897 11.9372 0
74.6104 33.7466 0
78.7355 37.1439 0
78.088 40.7168 0
74.7389 39.9685 0
21.5061 31.0276 0
19.3982 36.4195 0
17.0774 39.2127 0
19.7518 40.0184 0
73.9289 31.08 0
73.5529 35.6828 0
72.4419 38.6441 0
70.8536 36.7313 0
68.7057 34.2949 0
66.7791 31.7503 0
70.0389 31.2279 0
62.7027 32.3806 0
64.0377 29.3075 0
72.0038 28.5392 0
67.5915 37.2609 0
32.7315 31.821 0
35.2631 32.4146 0
33.5175 34.8399 0
33.5266 37.7531 0
36.6492 38.3749 0
30.9931 37.1552 0
59.8537 32.9689 0
62.5954 35.4113 0
64.338 37.8753 0
61.4867 38.4676 0
57.8097 31.9352 0
57.7005 34.9691 0
57.1008 37.2166 0
55.0559 36.1839 0
46.6725 34.9652 0
48.6996 34.1221 0
48.8567 36.4953 0
50.2606 38.1199 0
52.6691 37.0424 0
48.2323 38.9627 0
38.9208 36.1849 0
38.4533 33.0511 0
41.3235 33.7987 0
37.6654 30.0282 0
43.6852 31.6276 0
44.155 34.7638 0
39.5217 39.126 0
44.3104 37.1364 0
46.0717 39.1322 0
43.5209 41.514 0
47.4754 40.7569 0
43.5525 38.93 0
41.76 39.5176 0
90.8799 3.83427 0
87.46 7.71727 0
86.3766 3.89178 0
88.9326 11.9656 0
89.7768 0 0
94.8884 0 0
95.9971 3.84156 0
96.513 10.9322 0
92.7476 11.064 0
95.7351 7.53015 0
90.9989 28.2435 0
90.3767 29.077 0
4.08569 7.54132 0
6.94589 11.0727 0
3.36031 10.9292 0
10.4677 11.8759 0
9.00133 28.2448 0
9.62342 29.0788 0
3.8237 3.85227 0
13.2473 3.93241 0
11.9838 7.77033 0
8.94082 3.84522 0
35.1623 -0.438277 0
42.5809 -0.496569 0
58.9478 23.2015 0
55.8579 20.1513 0
60.0167 19.675 0
51.3553 21.3236 0
64.8926 19.101 0
61.5338 26.331 0
57.3755 26.8106 0
67.4967 22.4662 0
70.0006 25.4431 0
65.6095 25.7078 0
73.8928 25.3055 0
69.285 18.85 0
78.1612 18.9055 0
75.7948 22.2874 0
74.2502 18.8185 0
23.3733 18.7037 0
21.6824 22.1457 0
20.0709 18.6584 0
22.7691 25.2593 0
27.8865 18.7152 0
29.6299 26.094 0
25.9033 25.9861 0
28.7095 22.2988 0
23.6916 29.0458 0
31.6146 18.8078 0
33.457 25.8966 0
30.6491 29.5867 0
40.6069 27.2657 0
43.7015 25.1055 0
43.9504 28.5068 0
44.1388 21.4165 0
47.4822 22.6594 0
46.7805 29.4713 0
37.4179 26.6328 0
36.2123 19.152 0
40.1733 19.8838 0
36.398 23.1298 0
26.6939 33.1651 0
24.5022 35.1474 0
24.6343 31.7641 0
22.6127 38.6894 0
28.9039 32.0095 0
28.774 35.3992 0
28.7797 38.3073 0
51.8483 32.6897 0
54.2337 31.8317 0
53.2704 34.7939 0
56.387 29.831 0
49.6645 31.1594 0
50.9172 25.0131 0
53.8009 26.705 0
49.9278 28.0375 0
6.56668 36.7196 0
6.97792 38.6767 0
5.22192 38.2576 0
9.61462 38.8341 0
8.27184 40.3658 0
4.37114 39.382 0
4.81262 36.2984 0
5.78283 35.2716 0
7.57055 35.7331 0
10.8639 35.69 0
10.0112 36.9212 0
9.17341 35.9073 0
11.3062 38.6055 0
8.42546 34.4938 0
11.1807 34.5328 0
12.0192 35.5407 0
11.7521 30.0821 0
10.2641 29.8945 0
11.083 29.3002 0
12.4699 26.5186 0
10.4528 28.4802 0
10.9209 30.6842 0
89.7361 29.8924 0
88.0362 30.2312 0
88.7068 29.4502 0
89.3371 28.6309 0
86.8767 26.9317 0
89.0806 30.6823 0
85.8122 32.8182 0
87.1727 32.7231 0
86.7548 34.1804 0
87.3187 31.3953 0
88.2648 32.7434 0
88.1153 35.3862 0
86.7482 35.4951 0
84.3161 32.6185 0
84.7463 31.1559 0
86.7747 39.1234 0
86.7714 41.1497 0
85.0392 39.8546 0
88.8467 42.3911 0
87.1114 43.1258 0
83.2975 40.4139 0
83.2997 38.3889 0
86.5736 37.2718 0
88.3078 38.5579 0
79.4359 34.2553 0
78.6199 32.3204 0
80.7997 32.8527 0
76.572 31.0596 0
77.9408 29.6583 0
81.6208 30.9354 0
82.4345 32.8667 0
81.5895 36.8636 0
80.178 35.9635 0
14.152 36.5935 0
12.9365 37.4482 0
12.9196 35.8491 0
12.5397 39.3554 0
13.237 34.6936 0
15.3754 35.3337 0
15.3923 36.933 0
12.9444 32.7178 0
12.7626 31.8274 0
13.7804 31.6712 0
11.7584 32.142 0
12.5949 31.1061 0
14.5838 30.4475 0
14.7784 31.3424 0
13.1543 33.4801 0
12.1268 33.6227 0
16.8905 31.1906 0
18.2318 31.2374 0
17.4507 32.6634 0
19.1132 29.0398 0
19.6796 30.513 0
17.7059 34.1921 0
16.3619 34.1415 0
15.8477 31.3649 0
16.6234 29.9407 0
13.8693 29.4239 0
12.7517 29.7406 0
13.0291 28.389 0
13.5921 26.1939 0
14.8677 29.09 0
16.0739 28.6121 0
17.1181 28.435 0
18.5647 27.709 0
17.4724 24.602 0
86.2377 28.7296 0
86.947 30.1837 0
85.5202 29.9036 0
84.0271 29.6964 0
85.4421 26.6416 0
82.4119 28.9933 0
80.7767 28.9753 0
80.6393 24.7008 0
78.7325 27.7136 0
80.1466 38.0451 0
79.8237 39.8303 0
78.4118 38.9299 0
76.6139 39.1565 0
76.2119 41.5304 0
76.9386 37.369 0
15.6239 38.7045 0
15.833 40.6347 0
14.3787 40.1233 0
17.5331 41.0894 0
16.2899 42.5132 0
12.7501 41.289 0
16.8448 37.4398 0
19.5748 38.2184 0
18.4148 39.616 0
18.2387 37.8175 0
18.871 41.4935 0
18.0061 36.0444 0
20.9228 35.0838 0
21.0052 37.5539 0
20.6997 41.4592 0
21.1829 39.3548 0
24.588 37.6219 0
22.5296 36.2171 0
19.8196 42.9356 0
22.1307 40.7954 0
24.1726 40.7423 0
23.6912 42.8501 0
79.6539 42.1394 0
79.3556 44.2437 0
77.7898 42.8212 0
80.7573 46.0241 0
78.8921 46.7093 0
75.9129 43.6365 0
81.3909 41.2505 0
90.3716 39.3184 0
92.8108 40.097 0
90.9482 41.1952 0
94.5631 38.3791 0
95.1415 40.2652 0
91.2872 43.1771 0
90.1715 37.4588 0
93.2354 35.8301 0
93.7114 37.257 0
91.7592 36.7936 0
95.1876 36.2981 0
89.6973 36.0428 0
92.2299 34.8447 0
94.2178 35.2709 0
89.5148 33.3723 0
91.0934 34.0169 0
89.7047 34.718 0
93.1755 34.3181 0
92.0656 33.445 0
93.8336 44.3353 0
96.3217 42.8183 0
96.7681 45.1789 0
90.893 32.6594 0
89.6711 31.9764 0
97.1804 47.9636 0
91.7333 45.5295 0
10.5069 32.759 0
10.9697 33.7618 0
9.56222 33.6707 0
6.82462 34.3186 0
7.93454 33.4454 0
5.67466 42.6823 0
3.23013 44.4068 0
3.18958 41.9361 0
2.81717 47.1914 0
9.10562 32.6594 0
10.3308 31.9756 0
8.31199 42.8277 0
66.0916 59.4484 0
65.2424 60.7468 0
64.4276 59.4154 0
65.9857 61.6903 0
60.1678 51.8332 0
60.1065 51.2886 0
63.8028 58.3897 0
67.1265 58.1019 0
67.9412 59.4329 0
68.6292 61.4977 0
68.9715 63.6005 0
67.249 62.8827 0
70.4219 64.5568 0
60.0602 50.7426 0
60.0369 50.3647 0
69.6645 60.1513 0
77.1211 63.9497 0
77.3717 66.5694 0
74.92 66.0967 0
79.8651 66.8699 0
60.0209 49.9864 0
60.014 49.7248 0
72.5793 65.1869 0
76.8432 61.4596 0
79.2968 61.9328 0
82.1253 63.5781 0
85.003 65.6711 0
82.4521 66.5154 0
87.4112 64.6615 0
94.273 63.3999 0
92.3123 65.1313 0
81.8494 61.0883 0
91.413 58.5312 0
93.8377 60.1257 0
91.8496 61.8025 0
95.4201 58.0499 0
90.1428 66.5925 0
87.8015 67.7589 0
89.7839 63.399 0
89.393 57.3378 0
91.382 55.6607 0
93.8525 54.3282 0
96.8619 53.1087 0
96.411 55.6361 0
97.1924 50.5217 0
85.3283 68.6106 0
82.7654 69.1334 0
91.8323 53.1365 0
6.0709 53.6712 0
3.39406 55.5268 0
3.25659 52.5612 0
4.38485 57.9407 0
5.72702 63.4006 0
4.00876 61.4284 0
2.92639 49.9744 0
8.821 51.568 0
8.95716 54.5281 0
8.42888 58.1625 0
8.18731 61.5435 0
5.96728 60.0165 0
10.2531 63.1401 0
2.56257 59.2491 0
1.41317 56.8995 0
11.1787 56.0562 0
16.9893 63.363 0
16.9026 66.4231 0
14.7571 65.5491 0
19.4897 66.7774 0
0.58087 54.4201 0
0.0800657 51.8529 0
12.3489 64.5397 0
16.9993 60.8767 0
19.1462 61.7504 0
29.2785 63.2448 0
31.5368 63.5814 0
30.1509 64.6499 0
32.8 62.3889 0
34.9348 62.6028 0
33.7235 63.8501 0
28.7007 65.6064 0
27.0843 63.0214 0
28.4704 61.9527 0
34.0521 59.1556 0
35.6164 59.473 0
34.8574 60.3975 0
36.2412 58.4474 0
32.4085 64.9876 0
30.9999 66.0068 0
34.1141 61.3409 0
32.6999 58.8435 0
33.4589 57.9191 0
29.5083 66.9001 0
37.0696 57.6906 0
37.4272 56.9414 0
37.7214 56.1653 0
35.7285 55.4998 0
27.2255 67.9566 0
83.5041 34.5332 0
85.2166 36.0537 0
83.3277 36.3118 0
91.8821 50.499 0
91.8698 47.9466 0
94.2914 49.2472 0
89.3229 46.7836 0
89.4105 51.8331 0
15.1257 33.8087 0
14.0518 33.7805 0
15.0381 32.5905 0
8.30505 48.5176 0
5.82473 47.9289 0
8.19659 45.7418 0
10.7938 43.4233 0
11.1932 49.3789 0
15.3579 27.5878 0
14.8027 25.709 0
83.1902 27.7406 0
83.8224 25.9322 0
67.7699 56.6652 0
65.9197 56.6796 0
64.2424 56.5313 0
64.8854 55.0938 0
74.0749 61.2767 0
72.5103 62.8463 0
71.9162 60.6458 0
71.2288 58.5822 0
76.2503 59.2607 0
87.0121 58.6313 0
87.0507 61.4709 0
84.6377 59.8941 0
81.8084 58.2503 0
86.9794 55.7633 0
15.2025 59.555 0
12.7464 61.0896 0
13.1053 58.1557 0
13.6361 54.5251 0
17.3603 57.9443 0
31.4116 59.7517 0
31.9788 61.1281 0
30.0972 60.7999 0
27.9024 60.5771 0
30.818 58.516 0
35.2469 56.5464 0
35.6396 57.4742 0
34.4184 57.3034 0
33.066 56.9919 0
34.5071 55.3297 0
77.9935 35.4346 0
76.198 35.6578 0
84.8491 49.0218 0
87.1935 47.8264 0
87.1156 50.3956 0
87.0557 45.4148 0
87.0672 53.0292 0
82.5329 50.0409 0
82.609 47.4742 0
19.0965 34.5652 0
20.6181 33.228 0
69.0549 56.5814 0
67.848 55.1595 0
67.1909 54.2332 0
68.4761 54.1501 0
73.9193 55.563 0
74.6665 57.2285 0
72.7339 57.4111 0
77.4365 57.4123 0
70.4812 56.9155 0
72.7109 54.1949 0
74.6442 54.0134 0
82.5058 52.7269 0
84.685 54.3225 0
82.4198 55.4591 0
79.6299 56.6522 0
80.2669 51.1755 0
18.5641 52.9617 0
17.7484 55.6098 0
16.3773 53.9742 0
19.5458 56.9301 0
14.4503 51.8773 0
19.2355 50.8647 0
20.6064 52.498 0
24.4835 57.6936 0
24.4101 59.7198 0
22.8639 58.9176 0
26.1527 60.1124 0
24.5334 61.3369 0
20.9743 60.1047 0
21.0466 58.0786 0
24.5627 55.9507 0
26.1092 56.752 0
31.9837 56.3296 0
32.9434 55.7136 0
33.4249 54.6675 0
31.9075 53.6522 0
84.9813 44.1668 0
83.0735 45.0081 0
83.1279 42.7215 0
71.1285 54.3474 0
70.5598 55.4106 0
69.7018 54.0127 0
69.0447 53.0868 0
71.853 52.7977 0
78.5972 52.691 0
78.0461 54.6218 0
76.4029 53.4495 0
75.1945 52.0825 0
78.623 50.0048 0
23.2279 54.9698 0
21.4361 55.744 0
21.7269 53.8226 0
22.3989 51.7243 0
24.8541 54.0286 0
78.4744 48.3275 0
77.0738 46.5444 0
75.8935 45.6235 0
75.4761 47.2419 0
22.409 44.8421 0
21.2978 46.8408 0
20.5364 44.8984 0
22.2242 48.5927 0
20.3516 48.6476 0
18.7073 44.931 0
24.4522 44.792 0
72.3108 51.4557 0
70.7282 51.6073 0
69.6259 50.5051 0
71.5809 49.0269 0
75.4526 48.8602 0
76.805 49.8407 0
75.6013 50.5387 0
73.8423 51.1013 0
74.2726 47.9387 0
25.4252 50.7303 0
25.0475 52.2816 0
23.8966 51.4973 0
26.3824 53.2614 0
22.7763 50.1739 0
25.4054 48.8774 0
26.5563 49.6606 0
27.6603 54.1755 0
27.8541 52.4276 0
29.4713 51.5372 0
30.5429 52.7973 0
23.7222 48.3652 0
24.8535 47.2963 0
72.7174 49.9115 0
73.1124 48.6736 0
27.5728 57.4918 0
29.3228 57.9558 0
27.7799 58.9596 0
30.6114 57.0475 0
27.6526 55.7483 0
30.4966 54.1963 0
30.4884 55.77 0
29.124 54.9144 0
23.1503 62.8762 0
21.3225 64.5229 0
20.9627 62.5902 0
21.6759 67.0635 0
24.8922 63.2694 0
26.3601 66.5158 0
24.1692 66.7636 0
25.7011 64.5611 0
24.8285 68.7191 0
22.355 69.1757 0
14.9299 44.523 0
12.9748 46.6641 0
12.6324 44.1924 0
13.4891 49.7076 0
16.6303 44.9801 0
18.3084 49.1109 0
16.2323 49.1598 0
17.3484 46.9452 0
58.3998 7.95862 0
59.9979 9.8825 0
79.5112 20.067 0
77.0118 20.2452 0
69.2219 13.735 0
67.5677 15.5847 0
37.2058 13.0805 0
34.861 12.2406 0
72.227 44.2071 0
70.3867 42.5157 0
36.7341 21.8052 0
37.3318 24.2237 0
46.0461 7.93227 0
45.1622 10.2714 0
1.8131 10.3768 0
4.02122 9.19581 0
16.1325 3.96099 0
14.3535 2.23754 0
37.8228 13.1484 0
37.7839 10.6515 0
72.3084 0.983449 0
69.8421 1.34518 0
65.3398 24.8004 0
65.7965 22.3539 0
17.0807 0.16154 0
19.0955 1.60785 0
30.7172 0.169835 0
28.9975 1.9914 0
20.2076 28.7219 0
18.0799 27.4271 0
87.2104 22.7229 0
89.6935 23.1102 0
80.4347 11.7515 0
79.019 9.70047 0
53.4907 14.0775 0
52.9644 16.5209 0
79.8462 20.4736 0
77.3394 20.408 0
95.4397 2.45724 0
96.8569 4.51098 0
40.4219 38.1288 0
38.2154 39.2982 0
34.4026 26.8147 0
35.0617 29.2143 0
88.3214 30.2448 0
87.7171 27.8662 0
42.4599 31.6607 0
44.3365 30.0157 0
26.0974 12.6938 0
26.9286 10.3421 0
40.5695 37.2049 0
42.797 36.0789 0
65.8983 38.3759 0
67.4299 40.3484 0
21.6905 36.261 0
24.1818 36.4599 0
87.2988 17.8728 0
88.9341 16.0119 0
31.3207 9.74511 0
28.8924 10.3476 0
60.2725 8.0248 0
61.568 10.165 0
62.41 9.10836 0
60.9633 7.06688 0
18.7642 6.90348 0
18.1865 9.3043 0
63.0366 43.5251 0
62.3478 45.9233 0
84.2549 25.6291 0
83.5578 27.9942 0
47.3548 43.9743 0
49.2172 42.3092 0
30.7312 4.58274 0
33.1068 5.33869 0
37.1756 2.04741 0
36.8671 -0.430812 0
39.4993 0.280038 0
37.8356 2.14817 0
66.8289 34.2409 0
64.5753 35.3024 0
25.2728 21.1255 0
23.702 23.0617 0
89.1775 30.0071 0
86.9187 28.9101 0
74.2655 9.89996 0
76.6476 9.17601 0
80.338 12.6715 0
81.7421 14.7287 0
81.0799 16.7848 0
80.1608 19.0745 0
78.3971 10.6201 0
79.7432 12.7162 0
67.6369 27.2214 0
65.1451 27.1054 0
62.4054 24.6247 0
59.9812 24.0378 0
61.6975 24.4478 0
62.4666 26.8228 0
69.4838 32.6002 0
67.0002 32.3486 0
82.5739 12.3855 0
85.0242 12.9577 0
51.4553 17.8791 0
53.5306 19.2638 0
66.9612 15.7565 0
65.1421 14.0372 0
20.0542 22.2055 0
20.504 19.7737 0
53.0566 23.7741 0
52.9487 21.2772 0
62.0575 33.6636 0
64.0215 35.206 0
67.913 27.9826 0
69.8759 26.4561 0
27.3889 19.1591 0
25.4577 17.5981 0
43.3781 3.69895 0
43.9058 1.25646 0
90.242 10.2282 0
88.4414 8.49898 0
67.94 36.5073 0
68.6173 34.1143 0
9.50742 8.15584 0
11.9686 7.66536 0
49.9622 6.28735 0
52.337 7.06908 0
81.0974 28.9562 0
83.043 27.4068 0
43.1551 19.7388 0
45.543 20.446 0
72.9813 25.3089 0
75.2052 24.1877 0
59.2914 18.2971 0
57.0499 19.3821 0
94.8501 14.8349 0
92.4269 14.1843 0
8.74322 19.3695 0
11.2082 18.8828 0
17.4809 22.5696 0
15.8112 20.7374 0
16.968 36.1994 0
18.1872 34.0333 0
59.7733 41.6895 0
57.584 42.8866 0
84.5976 20.2567 0
84.6392 22.7214 0
9.90293 19.9718 0
7.80217 21.3426 0
16.8847 29.809 0
15.2606 31.6863 0
46.6489 3.16505 0
48.1047 5.19735 0
57.7762 40.1044 0
55.7413 41.5477 0
67.4965 36.799 0
69.5711 38.1928 0
68.3531 7.34239 0
70.2454 5.72885 0
24.8157 8.41792 0
27.2437 8.97121 0
16.1286 15.3991 0
15.2266 17.7063 0
97.0012 4.62908 0
94.5287 5.01267 0
25.26 33.6108 0
26.0807 31.262 0
16.8216 15.5925 0
17.9541 17.7853 0
86.8965 15.5883 0
88.6115 13.7969 0
27.004 36.1681 0
28.2739 38.3028 0
45.0649 36.8263 0
42.7717 37.8107 0
26.0146 33.4614 0
28.4909 33.1296 0
70.5226 15.7798 0
72.4916 17.3277 0
49.826 47.4275 0
50.9703 45.2058 0
82.7524 18.2249 0
81.0714 16.3805 0
12.3986 5.57088 0
9.97117 4.97349 0
18.295 2.63924 0
20.5318 1.50398 0
98.9211 4.25124 0
97.7301 6.43002 0
80.2765 37.1788 0
80.8589 34.7754 0
48.5349 3.35924 0
48.4408 0.862998 0
46.082 5.02656 0
43.9275 6.29708 0
61.0946 37.8115 0
59.0114 39.181 0
81.1981 11.0172 0
81.7867 8.63107 0
79.2862 30.2449 0
76.9618 31.1399 0
52.3962 7.88071 0
50.9322 5.85451 0
25.9312 29.7612 0
23.7989 28.4784 0
94.5794 17.3906 0
96.8641 16.3872 0
29.5998 31.8856 0
31.904 32.8312 0
65.8353 4.19672 0
65.8035 6.6948 0
53.2618 1.66447 0
51.4528 3.39237 0
14.5671 9.00855 0
15.0958 6.59755 0
7.21048 18.7679 0
5.0093 17.599 0
61.2039 40.0936 0
59.8893 42.2138 0
74.1977 7.17201 0
73.795 4.71094 0
23.6133 30.0848 0
23.8537 27.6161 0
78.7976 6.8283 0
76.6382 5.53794 0
79.0301 11.194 0
81.1507 12.5371 0
7.62691 2.5231 0
5.12565 2.59527 0
76.4297 15.823 0
74.4458 14.2891 0
47.9026 9.09682 0
49.6886 10.8435 0
80.0455 2.01668 0
82.5052 1.5745 0
29.2041 29.7222 0
27.2522 28.1821 0
70.9499 16.1868 0
71.5052 13.7715 0
4.49814 13.5207 0
6.45695 11.9637 0
40.5412 -0.0257657 0
39.5098 2.25045 0
60.3998 12.1479 0
59.8264 14.5771 0
41.2002 3.31186 0
39.1663 4.76961 0
33.678 29.2239 0
36.1643 29.4041 0
33.2191 20.7534 0
32.9988 18.2741 0
79.5863 15.4265 0
80.139 17.8386 0
72.636 34.4755 0
70.5004 33.1776 0
56.7276 8.03078 0
54.3218 7.35503 0
44.5387 8.65605 0
43.2127 10.7762 0
82.5608 16.4024 0
83.6795 14.2034 0
11.5866 0.310875 0
10.6837 2.62425 0
77.9985 15.9936 0
80.0327 17.4564 0
59.4377 2.77431 0
60.7559 4.89947 0
72.3188 1.1114 0
72.2058 3.60427 0
66.8284 2.48309 0
68.1358 0.341058 0
13.321 3.74412 0
15.1456 2.04342 0
71.9386 26.3295 0
74.3937 26.7946 0
16.8525 17.3669 0
15.4422 19.4161 0
72.1948 38.0688 0
72.1141 35.5844 0
43.4925 20.5242 0
41.2344 21.5852 0
57.2467 18.996 0
57.5111 21.4805 0
64.659 28.5467 0
67.1379 28.2836 0
24.6874 31.661 0
27.092 30.9818 0
50.1165 28.5222 0
49.1099 30.807 0
59.7964 36.9178 0
58.5314 34.7642 0
22.4822 28.8504 0
24.8957 28.2051 0
39.7122 35.6366 0
37.2649 36.1232 0
5.87914 10.0191 0
3.84796 11.4812 0
54.7932 20.5239 0
56.8212 21.9786 0
68.486 19.4263 0
68.7962 16.9597 0
42.0204 42.4162 0
42.7823 44.7945 0
19.1146 24.3668 0
16.9654 25.6405 0
69.2726 3.96217 0
66.9305 3.07663 0
18.739 12.7154 0
19.4411 10.3441 0
97.8462 0.546488 0
97.0423 2.8892 0
21.3115 0.576875 0
21.7851 2.9657 0
13.4297 5.93691 0
14.5711 8.12549 0
94.843 5.77972 0
95.3652 3.35939 0
58.6641 11.3531 0
59.4604 13.7233 0
26.7483 39.6692 0
25.2441 41.6608 0
62.4079 18.497 0
64.5126 17.1706 0
9.50527 7.70567 0
11.9237 7.03925 0
44.2912 17.8201 0
41.9095 18.5604 0
89.0379 10.7529 0
91.5071 10.3245 0
65.483 41.3291 0
63.0586 40.7241 0
51.2687 34.1199 0
53.6748 33.4711 0
12.737 8.52242 0
14.7338 10.0049 0
75.0279 18.2428 0
72.5318 18.0374 0
69.1373 26.1781 0
69.5915 28.6257 0
19.5851 11.6911 0
21.8525 12.729 0
36.9061 39.7566 0
34.5022 39.088 0
29.346 28.0338 0
30.9599 29.9232 0
12.3839 19.4538 0
13.5831 17.2769 0
42.042 42.8607 0
39.6494 43.5789 0
34.2155 4.917 0
33.7325 7.37083 0
94.9738 16.9891 0
93.8916 14.7455 0
53.7684 25.9964 0
54.3471 28.4262 0
68.2714 36.023 0
67.5017 38.3887 0
71.2243 36.7401 0
69.2871 38.3029 0
30.4926 15.3309 0
32.6482 16.5675 0
62.747 7.80743 0
65.228 8.09959 0
52.3899 17.0431 0
51.123 19.1952 0
68.8616 3.42483 0
68.9097 5.92414 0
24.0222 7.61494 0
26.0631 9.00883 0
31.7963 14.4321 0
33.5132 16.2272 0
72.4444 5.84025 0
74.7152 4.87474 0
47.2273 14.9592 0
45.6888 16.928 0
36.6746 41.5355 0
38.7072 40.0829 0
22.8298 10.3067 0
24.4698 8.41208 0
22.9873 37.4649 0
25.3712 36.7028 0
79.5306 20.3065 0
81.7858 21.4005 0
80.4287 15.9648 0
78.1489 14.9113 0
68.1556 33.9319 0
68.4058 36.4094 0
32.8076 26.6954 0
35.0338 27.8086 0
49.0957 3.31081 0
47.4558 5.19859 0
34.1964 40.3284 0
32.8305 42.4183 0
47.6825 12.2936 0
48.2033 14.7386 0
50.2579 18.5104 0
51.6283 16.4226 0
33.8531 30.3581 0
34.5392 27.9613 0
2.32919 13.7661 0
4.81839 14.0313 0
40.0959 39.9366 0
40.8366 42.32 0
10.1154 16.0598 0
9.50308 18.4613 0
32.9552 15.8579 0
31.9153 18.1294 0
43.2436 0.673233 0
45.6649 0.0213583 0
37.1411 36.5434 0
39.381 35.4407 0
81.2502 9.98983 0
81.7498 7.58493 0
30.435 3.43642 0
28.2945 4.7422 0
49.4052 1.07011 0
47.6062 2.80893 0
60.7532 30.9627 0
62.5268 32.7201 0
26.196 36.9626 0
24.5262 35.1241 0
33.9124 2.97059 0
36.4024 3.18885 0
46.8735 28.7769 0
45.8523 31.0557 0
19.5044 35.8912 0
21.2219 37.6821 0
56.1077 27.9747 0
58.5987 28.0122 0
92.8504 9.41733 0
95.2715 10.0688 0
22.118 28.7813 0
24.5877 29.1406 0
48.2818 17.4148 0
50.7268 17.8948 0
28.8369 21.4381 0
27.7818 19.1945 0
88.6646 17.9101 0
91.0239 18.7733 0
85.3179 15.3969 0
82.8087 15.5175 0
59.5408 44.9011 0
60.8272 47.0444 0
89.5382 2.51027 0
89.7536 4.97543 0
95.4881 9.75409 0
93.3907 8.38843 0
64.4495 41.1481 0
62.9679 43.1538 0
56.0057 25.767 0
58.3216 24.8519 0
71.0516 1.69649 0
71.0352 4.19449 0
51.4171 11.5165 0
50.5036 9.18923 0
58.3163 27.5439 0
57.6428 25.1391 0
9.30742 7.80928 0
7.76125 5.87027 0
51.6876 13.1259 0
49.2114 12.8301 0
49.7143 24.0608 0
50.1422 26.5222 0
72.5687 28.1274 0
70.1685 27.4345 0
81.2702 36.0519 0
78.9599 36.9897 0
80.7484 18.1107 0
81.3988 20.4977 0
63.0478 6.04737 0
60.7654 5.02519 0
49.6096 11.4927 0
47.1207 11.3239 0
44.4862 28.1998 0
42.0372 28.6614 0
88.653 7.76499 0
88.1201 10.1738 0
72.3001 6.19436 0
71.0025 8.30425 0
87.7022 13.8193 0
88.6461 16.1126 0
36.5748 40.5719 0
38.2917 42.3809 0
62.5662 3.34332 0
63.7558 1.14597 0
39.9641 14.8182 0
40.1061 12.3234 0
19.3832 6.36336 0
21.5296 5.05582 0
36.3654 45.5363 0
38.7278 46.3526 0
34.6008 31.0441 0
32.37 32.1667 0
58.8966 19.2599 0
60.6839 21.0057 0
78.2343 16.0234 0
75.804 15.3884 0
15.9018 28.6934 0
17.2573 26.621 0
80.5561 1.64848 0
78.1461 2.27435 0
37.6543 41.3744 0
35.1729 41.6643 0
84.0568 21.2202 0
84.5422 23.6407 0
86.5778 7.27415 0
86.2342 4.83006 0
44.7621 5.72436 0
46.5622 7.45747 0
84.1472 19.5827 0
84.0075 22.0433 0
71.9316 17.3371 0
74.4172 17.0717 0
77.0837 24.7644 0
76.4758 22.3607 0
97.1735 15.2242 0
94.7074 14.7777 0
38.3653 23.323 0
40.4454 21.9419 0
40.9041 1.45709 0
39.847 3.72238 0
60.1542 22.2164 0
57.826 21.3205 0
23.1153 0.87049 0
24.5928 2.82739 0
71.8779 31.9306 0
69.4159 32.3272 0
44.2133 37.8959 0
42.2686 39.4628 0
34.1331 4.12078 0
35.5946 6.14165 0
19.9682 15.4214 0
21.7258 17.1692 0
1.45797 8.32645 0
3.14903 10.1544 0
85.5855 24.7937 0
87.7172 23.5066 0
82.6776 14.734 0
80.2421 14.1089 0
60.7757 2.97112 0
60.1682 5.39419 0
17.3196 24.072 0
15.8176 22.1037 0
51.8033 38.5787 0
50.5929 36.3945 0
59.729 46.5381 0
62.0294 45.5626 0
81.6763 19.0299 0
81.9667 21.4812 0
60.0439 14.8172 0
57.6388 14.151 0
21.6326 24.2483 0
21.5277 26.7207 0
50.5578 36.3609 0
51.4994 34.0483 0
68.799 23.8642 0
66.7376 22.451 0
85.3642 31.7721 0
83.0241 32.6148 0
10.0072 12.642 0
7.94125 14.0581 0
90.6893 3.16903 0
88.5866 1.81608 0
85.5665 8.39494 0
87.7308 7.15841 0
32.9775 40.1457 0
33.1365 42.6313 0
16.5707 0.837045 0
18.9312 1.64008 0
80.3813 27.3002 0
82.3286 25.7517 0
21.4276 10.9238 0
19.7388 9.11999 0
93.5429 17.0259 0
91.2427 16.0231 0
19.4334 35.3843 0
19.2995 32.9134 0
18.0112 35.0167 0
20.2666 33.935 0
76.6074 11.9382 0
75.0341 13.8425 0
20.8998 4.65878 0
18.546 3.84254 0
26.3579 33.5278 0
24.2062 32.2789 0
55.3269 6.75431 0
57.4775 5.48263 0
69.3562 3.61938 0
70.4229 5.88616 0
22.4368 16.8701 0
21.7378 14.5057 0
89.5118 6.1175 0
87.005 6.09383 0
60.1639 3.95591 0
57.6746 3.6977 0
86.6883 11.2618 0
84.2752 10.5585 0
80.8976 22.3466 0
82.0815 20.1777 0
69.7479 32.1906 0
68.9468 29.8314 0
42.4541 48.624 0
40.5309 47.0274 0
30.6843 29.1139 0
31.6061 31.4214 0
19.9585 37.2088 0
20.2769 34.7508 0
64.2218 5.35913 0
62.4827 7.14713 0
91.4441 1.96393 0
90.9939 4.39625 0
85.7669 10.0547 0
87.2484 12.0556 0
16.1069 1.2656 0
14.0626 2.69946 0
71.9209 36.3196 0
74.3421 35.7175 0
14.9022 16.1296 0
17.3379 16.7166 0
85.8085 30.6139 0
87.5003 32.4221 0
8.12072 21.9337 0
10.6249 21.7752 0
49.9339 35.2647 0
52.4192 35.078 0
9.11124 20.4199 0
10.8318 18.6059 0
62.5075 31.6351 0
60.2451 32.6764 0
37.5424 6.51592 0
39.0227 4.49961 0
9.74543 9.14883 0
11.928 7.9194 0
60.1242 25.6649 0
57.6343 25.7444 0
32.8733 16.9182 0
33.8209 19.2162 0
92.6445 11.4163 0
92.9705 13.8729 0
50.0439 4.07897 0
52.1279 5.46223 0
21.7845 11.6904 0
23.2565 13.6712 0
16.4356 4.86967 0
18.7562 3.92307 0
38.9683 33.4466 0
41.1009 32.1499 0
2.02143 4.96547 0
2.94093 2.65435 0
17.4409 16.9534 0
16.4154 19.2109 0
81.4394 37.2476 0
82.4499 34.9918 0
72.8819 12.3388 0
74.72 10.6829 0
66.3014 41.1088 0
63.9128 41.8346 0
63.7144 26.134 0
65.6966 24.631 0
49.8631 5.72908 0
48.3251 7.69984 0
60.1681 40.3828 0
62.3898 41.5249 0
23.4093 10.7193 0
24.518 12.9206 0
60.0651 30.9009 0
61.0112 33.2111 0
85.0335 22.2216 0
87.5443 22.1758 0
74.5431 19.564 0
72.1157 18.9443 0
56.0404 12.0506 0
58.4782 12.5857 0
61.6899 3.92969 0
60.653 1.6552 0
60.7157 47.1442 0
58.2174 47.2442 0
50.645 16.4661 0
50.9602 18.9461 0
26.1804 32.8935 0
27.1725 30.6097 0
43.7109 22.2564 0
41.663 20.8393 0
70.212 18.2786 0
72.6847 18.6632 0
72.5764 1.33789 0
72.7286 3.83143 0
33.4441 16.7652 0
35.0794 18.637 0
55.2486 3.17423 0
57.6928 3.71503 0
62.7057 26.6421 0
60.2137 26.6597 0
59.5475 35.1458 0
59.6904 32.6548 0
41.7562 30.9893 0
39.3792 31.7443 0
65.68 33.4913 0
63.659 32.0242 0
41.2929 35.8052 0
39.9895 37.9357 0
73.1929 29.4299 0
72.7637 31.8746 0
50.7624 39.7988 0
51.8548 42.0455 0
59.8103 9.71991 0
58.3185 7.71242 0
82.5398 19.7845 0
84.8501 18.8318 0
66.2905 0.423358 0
68.7941 0.210773 0
72.74 32.3172 0
74.612 30.6824 0
66.4946 33.1857 0
65.2229 35.3245 0
67.8012 45.8697 0
68.5173 43.4853 0
63.696 22.6811 0
64.793 20.4479 0
80.4207 11.1373 0
82.0312 13.0438 0
31.0304 20.151 0
30.0795 17.8585 0
25.3434 20.419 0
26.9185 22.3351 0
53.977 28.3374 0
56.4546 28.0833 0
85.6835 28.0391 0
85.1664 25.6326 0
37.8844 1.48796 0
40.371 1.80082 0
42.1193 29.1843 0
43.1026 26.8886 0
19.991 35.0361 0
22.4764 35.2872 0
84.4682 11.4176 0
86.9802 11.3786 0
30.487 1.01486 0
32.9541 0.572673 0
61.9816 42.0924 0
59.817 40.845 0
40.0412 13.1149 0
38.053 14.6303 0
71.8737 28.8332 0
70.0295 27.1503 0
60.3394 29.9299 0
59.5786 27.5523 0
6.57388 10.6067 0
5.70459 12.9352 0
33.6238 6.54236 0
31.9986 4.65525 0
57.2751 24.4008 0
59.7044 23.8535 0
61.722 27.6967 0
59.2422 27.9351 0
12.9784 2.02033 0
15.1332 3.26234 0
72.4133 4.75934 0
69.9328 4.47274 0
30.5181 5.97974 0
28.1291 6.72727 0
80.7966 3.69183 0
78.2881 3.7563 0
54.3763 35.6098 0
52.37 37.091 0
30.619 14.0157 0
33.0392 14.604 0
80.5731 9.07881 0
82.8697 8.10052 0
12.0687 31.2667 0
13.0389 29.0239 0
46.3762 5.00856 0
48.8274 5.50844 0
2.71047 5.29676 0
5.21438 5.19762 0
10.1973 9.49477 0
11.2039 11.7513 0
4.32539 17.7824 0
6.57446 16.6748 0
29.3991 8.23428 0
26.9036 8.22927 0
43.6819 1.69137 0
45.9947 2.65074 0
77.3428 2.71836 0
75.568 4.40651 0
55.2005 26.4232 0
57.4441 27.5119 0
24.8408 19.0919 0
27.0279 17.8697 0
12.8483 30.6069 0
14.0865 28.4773 0
13.7598 17.7066 0
15.6288 19.3414 0
31.5702 35.7125 0
33.6693 37.0531 0
85.1022 18.7776 0
85.4381 16.3368 0
54.956 42.0302 0
56.1281 39.8259 0
56.8557 42.6846 0
54.3694 42.4573 0
69.3412 40.7528 0
68.4258 43.0665 0
81.6183 5.16232 0
81.1801 7.57235 0
67.2755 28.4362 0
69.3642 27.0851 0
23.4182 27.9697 0
20.9259 28.1434 0
76.5324 32.7822 0
74.6374 31.1576 0
40.385 1.50347 0
41.9305 -0.462805 0
21.4867 3.40698 0
19.2732 2.2993 0
32.7505 27.7109 0
34.5524 29.4249 0
39.7449 1.95315 0
37.9636 3.71024 0
68.5819 6.00398 0
66.5144 7.38961 0
7.1762 2.09848 0
8.72537 0.141825 0
59.0613 33.0867 0
57.1076 31.5334 0
22.6859 35.08 0
24.2114 37.0368 0
76.6665 24.6645 0
76.1174 22.2466 0
8.86365 16.6155 0
9.7146 18.935 0
27.055 16.431 0
28.4773 14.3756 0
31.9667 36.6384 0
32.7998 34.2882 0
22.2372 34.5983 0
20.0027 33.5031 0
73.3001 36.7556 0
71.9698 34.6461 0
15.0269 2.06975 0
16.9718 0.510369 0
52.2258 11.8315 0
52.0947 9.33421 0
33.8354 8.4755 0
32.6909 6.26371 0
24.9832 41.4345 0
27.3779 40.7031 0
57.5665 12.2112 0
59.7871 11.0782 0
84.1583 34.832 0
82.3444 33.1196 0
40.4003 46.7996 0
38.8922 44.8084 0
18.0821 12.0324 0
20.5489 12.4798 0
92.7286 8.12724 0
94.4112 6.29964 0
81.3239 32.6912 0
80.6057 30.3178 0
38.849 14.5345 0
38.716 17.029 0
28.6066 11.3387 0
29.9954 13.3897 0
51.9085 39.1894 0
54.3943 39.3985 0
86.5144 27.8197 0
85.8575 25.4453 0
22.1661 2.26996 0
23.5727 4.26313 0
49.3538 2.86119 0
47.2302 1.53521 0
18.8817 19.4931 0
21.3705 19.7926 0
2.07388 8.98831 0
4.26079 7.76974 0
20.261 3.53645 0
18.8553 5.58646 0
62.934 44.0728 0
65.1566 45.2178 0
34.5204 20.8985 0
36.6032 19.5172 0
94.5995 1.02855 0
93.9697 3.42251 0
49.745 42.0616 0
49.3596 39.5931 0
58.6679 10.492 0
56.3204 9.63771 0
36.6244 10.4276 0
34.3444 11.4554 0
56.8204 43.5207 0
56.749 46.0186 0
2.41045 12.5608 0
1.74657 10.1654 0
82.4293 4.91425 0
83.323 2.62236 0
37.6754 46.9591 0
35.4199 45.8827 0
65.9561 39.1934 0
68.286 40.0996 0
24.6884 33.7603 0
27.1622 34.0907 0
68.444 39.1035 0
70.843 38.4162 0
13.866 30.3381 0
12.2348 28.4834 0
58.857 44.0871 0
61.2911 44.6507 0
24.3371 5.4891 0
24.2105 7.96303 0
81.0991 20.69 0
78.7111 21.434 0
29.8925 39.3943 0
29.5231 41.8561 0
23.739 16.8267 0
21.4742 15.7846 0
2.71088 8.19033 0
4.93989 7.04931 0
48.0312 30.5251 0
49.9852 28.9754 0
87.0379 22.9489 0
84.6447 23.6802 0
34.6805 10.6452 0
32.3503 11.5564 0
47.5637 25.7045 0
46.1105 23.677 0
67.3946 24.0024 0
65.4066 22.4884 0
58.1954 29.8272 0
56.8558 31.929 0
32.3519 34.5722 0
34.6394 35.56 0
57.399 36.025 0
56.0394 33.93 0
26.6746 3.19118 0
28.7671 1.81068 0
11.2038 26.4341 0
12.7352 24.4659 0
63.4865 32.7769 0
61.8946 34.6918 0
28.5131 11.176 0
26.0663 11.7207 0
44.5073 45.4588 0
42.0096 45.525 0
30.8694 14.2133 0
32.0004 16.423 0
13.2001 1.81376 0
15.3307 0.507344 0
76.1029 14.8068 0
73.8414 15.8455 0
12.6628 6.4807 0
13.3135 8.85898 0
35.4777 4.66705 0
36.3499 7.00525 0
53.9878 17.3757 0
51.5353 17.8145 0
31.3276 8.24942 0
29.0234 7.31841 0
24.3014 6.48929 0
21.8039 6.74038 0
48.6107 3.31496 0
51.0498 3.88066 0
32.1865 13.5288 0
32.1151 11.038 0
1.56514 3.44302 0
4.0468 3.76529 0
62.8069 43.9637 0
60.4884 43.0315 0
42.6558 24.1513 0
40.1701 23.9932 0
48.3496 30.4596 0
50.5224 31.6803 0
58.8621 35.0022 0
56.3788 35.2176 0
50.0163 46.2749 0
52.0699 44.8523 0
26.9568 5.51405 0
26.3379 7.93633 0
43.5261 35.7427 0
42.1114 33.6895 0
52.87 27.6555 0
50.9787 29.2798 0
60.9387 39.656 0
62.0772 41.8791 0
46.9413 23.3598 0
45.6782 21.2077 0
19.2515 2.91603 0
18.5393 0.571832 0
48.2313 41.5969 0
49.1927 39.2909 0
47.822 39.1873 0
45.3742 38.7094 0
73.1935 11.3344 0
72.6696 8.89762 0
52.5198 17.5383 0
50.781 15.7467 0
25.0219 41.4853 0
27.509 41.1981 0
51.9649 23.7968 0
50.5556 25.8566 0
25.8846 30.0485 0
28.308 30.6324 0
5.33712 7.96913 0
2.85289 7.66031 0
20.9133 34.9523 0
18.7879 36.2708 0
31.9261 18.9235 0
34.1983 19.9379 0
30.1373 19.0182 0
27.7878 18.1899 0
78.7042 17.3277 0
79.4386 19.6939 0
41.9327 31.8452 0
42.479 29.4092 0
44.7989 12.2519 0
45.255 9.7929 0
44.2111 19.7905 0
46.0543 18.1059 0
36.1097 2.18746 0
35.7755 4.66262 0
94.4956 4.83784 0
95.3134 7.18608 0
41.93 21.5036 0
40.3837 23.466 0
57.7606 25.8716 0
55.7254 24.4279 0
62.6687 26.6727 0
65.0727 27.3421 0
8.54055 15.5509 0
8.46659 18.0244 0
70.787 30.6597 0
68.3461 30.1328 0
45.89 35.3829 0
46.1365 32.8978 0
87.0851 2.72626 0
88.7805 4.55439 0
22.5359 38.1891 0
22.8952 40.6418 0
66.2316 42.8407 0
64.1971 41.3889 0
77.3234 11.8093 0
77.8584 14.227 0
50.845 46.6952 0
49.1607 48.5417 0
14.9007 13.2743 0
15.4046 10.8571 0
75.5821 18.737 0
75.3688 21.2023 0
59.0452 45.2819 0
61.099 46.7072 0
83.7433 9.3623 0
86.199 8.86049 0
6.95773 1.79224 0
4.45749 1.88638 0
80.718 18.7841 0
82.5299 17.0889 0
13.6035 0.197778 0
11.1058 0.104827 0
14.959 31.8765 0
17.3344 31.1162 0
14.2013 12.7425 0
15.5798 14.793 0
66.7482 0.685957 0
64.2743 1.10023 0
72.2183 24.1923 0
71.2618 26.4821 0
52.0147 31.1133 0
50.0644 29.5597 0
29.3579 28.8823 0
28.0925 26.7462 0
76.0183 25.1013 0
76.2566 22.637 0
88.1061 17.1125 0
90.3506 18.2371 0
56.5851 8.74172 0
54.2963 9.73802 0
30.6147 41.9819 0
32.0947 43.9847 0
49.5619 37.9291 0
50.1525 35.502 0
33.6087 30.331 0
35.8393 31.4368 0
51.2921 19.8665 0
50.1617 22.0937 0
48.0118 19.8728 0
46.7686 17.7074 0
56.299 36.4149 0
54.2116 37.7786 0
27.9637 27.729 0
28.5426 30.1429 0
32.601 34.1611 0
33.2294 36.5689 0
91.757 14.6231 0
93.5902 16.3246 0
6.66756 6.13311 0
6.33947 8.59161 0
30.6209 35.4786 0
31.2933 33.0793 0
65.1774 34.5811 0
64.2471 36.891 0
70.9162 2.00298 0
72.5274 0.11139 0
72.165 24.7887 0
72.6452 22.3549 0
12.9565 14.5098 0
14.966 15.9767 0
48.3592 3.13103 0
50.7933 3.71864 0
17.3633 5.80233 0
17.568 8.24851 0
6.47355 18.4852 0
3.98295 18.2433 0
31.8682 33.5914 0
32.0461 36.0738 0
59.305 32.5541 0
59.0108 35.0317 0
80.5472 24.2113 0
80.9258 26.6539 0
96.0502 18.3194 0
96.4724 15.8719 0
81.6312 13.0189 0
84.1079 12.6209 0
31.4436 34.1182 0
30.3691 31.877 0
95.0835 8.6084 0
94.2112 10.9285 0
92.6858 17.7986 0
94.9105 16.672 0
25.3465 37.59 0
25.0637 35.1247 0
11.1452 26.984 0
12.9687 28.6499 0
25.2343 16.8812 0
22.7704 17.3557 0
33.0843 21.969 0
35.5712 22.1449 0
75.0575 22.8077 0
72.5578 22.8392 0
50.0604 27.2733 0
49.6807 29.742 0
21.0136 18.4799 0
20.5047 20.9011 0
93.0948 7.18754 0
92.2714 9.52174 0
49.1256 47.794 0
47.6833 45.7535 0
60.2855 38.7416 0
62.1595 37.0981 0
68.4791 12.3651 0
66.4261 10.9303 0
74.7324 11.3055 0
72.5606 12.5071 0
59.6015 41.5761 0
61.2382 43.4643 0
83.0163 11.9138 0
83.7031 9.55264 0
12.3008 9.6913 0
11.2143 7.47246 0
46.2401 42.7154 0
44.2398 41.2233 0
78.0908 4.10873 0
75.6237 4.48401 0
79.2093 34.319 0
79.6637 31.8856 0
50.3176 25.9927 0
47.861 25.5846 0
15.9041 14.7995 0
18.386 14.3952 0
24.6405 1.70376 0
27.1156 1.84846 0
21.7912 5.8251 0
23.7494 4.24925 0
38.4667 26.4612 0
36.0277 26.9835 0
39.6154 37.6366 0
37.1249 37.4921 0
20.476 23.0295 0
19.0708 20.9906 0
55.8189 8.36571 0
53.5414 9.38913 0
30.8191 38.414 0
33.266 37.906 0
56.7751 41.4624 0
59.2423 41.0894 0
59.0446 12.098 0
61.4917 11.6212 0
84.7939 1.93092 0
82.4351 2.74236 0
54.6782 35.3948 0
52.913 37.1572 0
27.9257 39.0451 0
30.4205 38.8817 0
56.8981 32.281 0
56.6098 29.8012 0
77.5844 21.0441 0
75.6983 22.6623 0
36.7017 36.2383 0
36.0626 38.6503 0
70.6338 32.091 0
68.1703 32.478 0
48.9452 32.1078 0
50.2817 30 0
64.3525 19.0955 0
65.3569 21.3827 0
36.9459 30.2586 0
39.4381 30.3006 0
52.1026 2.72609 0
54.2122 4.07252 0
16.1503 26.7027 0
13.9337 25.5573 0
28.8524 37.3515 0
26.3827 37.7449 0
66.284 34.4999 0
64.6947 32.5739 0
86.849 13.6611 0
85.7534 15.8717 0
79.879 37.1449 0
77.5805 38.1128 0
1.0507 9.61059 0
2.7392 11.4413 0
22.3229 6.90278 0
19.828 6.67361 0
28.0514 23.9131 0
25.5772 23.5742 0
48.7813 5.15905 0
46.4088 4.36467 0
39.4185 8.08875 0
37.1237 7.11036 0
13.1959 16.0566 0
11.7544 14.0461 0
35.2181 37.5564 0
33.4016 39.2713 0
76.1183 7.86285 0
78.1925 6.50677 0
38.898 43.5414 0
38.0885 41.181 0
46.196 9.19577 0
48.2306 7.7446 0
39.9205 30.666 0
37.502 31.2763 0
37.349 28.9128 0
36.682 31.3165 0
36.7409 26.651 0
34.2705 26.9979 0
30.6644 4.26488 0
33.0155 5.09374 0
71.8032 31.6483 0
73.9762 30.435 0
24.1869 12.2116 0
26.5782 11.4456 0
33.227 43.3562 0
35.5162 42.3507 0
26.1188 22.2344 0
24.0987 23.7056 0
5.62325 2.55092 0
6.55535 0.243206 0
94.4084 5.86376 0
96.8222 6.54007 0
53.4024 18.6496 0
51.7005 16.8226 0
53.803 45.1325 0
52.3223 47.1447 0
94.7507 5.2115 0
93.3412 3.1542 0
30.2638 20.9047 0
27.8176 20.4152 0
57.5109 1.86832 0
58.1174 4.29269 0
94.6354 11.4268 0
92.9925 9.54757 0
43.726 6.93335 0
46.1873 6.49552 0
49.3937 42.0714 0
47.4365 43.6235 0
42.4384 27.0248 0
44.8446 26.3753 0
24.2811 22.3934 0
21.8053 22.036 0
69.9646 33.8755 0
70.1294 31.395 0
18.391 13.3727 0
20.6188 14.4917 0
9.43149 28.5717 0
11.7129 27.5155 0
62.008 24.2359 0
60.7794 22.0607 0
81.7029 24.9336 0
79.1997 24.8562 0
22.8696 29.0191 0
20.7509 30.3377 0
14.2735 29.3816 0
14.3877 31.8403 0
12.6228 12.9177 0
13.6588 15.157 0
67.3393 22.5414 0
67.7868 20.0958 0
79.3005 21.6394 0
81.7149 22.3199 0
15.2811 21.5136 0
14.2149 23.751 0
21.2699 13.4232 0
18.9109 12.5967 0
44.9091 44.7223 0
42.414 44.6075 0
62.22 37.7812 0
60.8018 35.7254 0
59.6096 46.9761 0
61.9392 46.0711 0
39.9862 37.5091 0
42.4799 37.4597 0
55.7173 30.0074 0
53.3825 29.1345 0
67.609 40.4771 0
65.1238 40.728 0
71.074 5.48078 0
73.5623 5.56026 0
80.917 3.25222 0
80.8447 0.801809 0
59.6875 6.83916 0
57.9437 8.62561 0
32.3995 19.3012 0
31.5988 21.6635 0
43.9608 32.2011 0
44.0714 34.695 0
97.8328 14.083 0
97.9875 11.6008 0
74.0858 18.363 0
72.1353 16.7928 0
77.04 31.2992 0
76.3323 33.6745 0
55.9597 48.3753 0
56.3184 45.9022 0
40.1652 0.975946 0
37.7472 1.63526 0
72.0134 19.8485 0
74.49 19.5156 0
41.8393 44.4286 0
44.3173 44.7397 0
87.1006 2.73349 0
86.5305 5.133 0
19.396 21.7745 0
18.9476 19.3492 0
17.547 36.0266 0
16.32 33.8823 0
26.0929 37.7684 0
24.205 39.4065 0
61.6703 6.08774 0
59.7029 4.54292 0
39.7479 29.8443 0
40.0621 32.3181 0
63.2638 5.31659 0
60.7927 5.68638 0
60.5809 6.43528 0
61.4378 4.08907 0
79.2967 36.6711 0
76.8615 37.2248 0
46.8309 23.1558 0
47.7863 20.8469 0
81.9534 12.2366 0
79.4676 12.5695 0
17.6999 12.8648 0
18.5218 15.1876 0
48.211 40.3741 0
46.3987 42.0931 0
65.3501 19.585 0
64.1249 17.4061 0
42.9333 39.7859 0
41.7558 41.9899 0
54.4994 16.7307 0
53.4286 18.9864 0
22.9506 29.1642 0
25.3397 28.4341 0
23.259 14.7759 0
20.8126 14.2479 0
92.3512 7.76127 0
90.8301 9.71986 0
32.1671 31.844 0
33.6322 29.8235 0
68.6944 28.3346 0
68.9304 30.8122 0
97.6855 2.40724 0
96.2042 4.39403 0
67.3396 14.8168 0
69.8001 14.4181 0
78.3252 23.1586 0
78.7891 20.7318 0
37.5887 15.8174 0
35.2108 15.0775 0
68.8967 9.14808 0
69.4574 6.72125 0
32.9684 20.0415 0
34.3113 17.9337 0
33.3006 31.4118 0
34.9494 29.5372 0
87.872 25.8157 0
89.8429 27.3664 0
84.2474 23.4952 0
86.6748 24.1393 0
38.5288 11.0029 0
36.1045 11.6038 0
65.6717 40.1234 0
63.5015 38.8847 0
37.6918 1.38259 0
35.5194 2.62495 0
75.4625 39.6895 0
75.8974 42.136 0
67.363 2.0251 0
67.1313 4.51291 0
71.9629 15.0294 0
70.1207 13.3311 0
63.3492 31.6839 0
65.8386 31.8418 0
39.5779 2.98015 0
38.8486 5.37133 0
46.2315 18.4912 0
47.7965 16.5443 0
37.5298 38.5131 0
36.3195 40.6972 0
90.1923 7.27971 0
90.9153 4.91582 0
92.5972 19.9626 0
90.1905 19.2456 0
55.8848 19.0154 0
56.1377 16.5297 0
22.8884 18.6414 0
21.5091 20.7141 0
32.7575 15.8583 0
34.5394 17.59 0
72.9545 38.1171 0
73.3079 35.6593 0
61.7329 40.4907 0
63.1657 42.5368 0
27.4847 32.6508 0
29.7786 31.6602 0
27.6669 16.4472 0
25.8218 14.7912 0
39.485 2.18424 0
37.4595 3.65457 0
18.6524 28.261 0
17.8189 25.9335 0
73.4988 2.54311 0
75.2363 0.79663 0
75.7636 41.7901 0
73.2646 41.9279 0
57.3499 43.6579 0
54.9301 43.0392 0
27.2648 8.89383 0
28.8971 10.7532 0
24.2163 7.69693 0
23.0548 9.90522 0
76.6057 41.2768 0
74.4976 42.6085 0
30.396 38.3005 0
32.0774 40.136 0
47.734 27.2215 0
48.515 29.5928 0
78.4266 6.89319 0
80.9133 6.58319 0
75.9959 10.2561 0
76.2596 12.7178 0
69.5069 33.8314 0
68.8926 31.4177 0
77.7073 16.9258 0
79.693 18.4508 0
84.4493 32.2867 0
85.6254 34.4689 0
64.8852 34.1741 0
64.2011 31.7753 0
32.4223 9.97129 0
29.9273 9.93882 0
29.5326 44.1427 0
31.8255 45.1338 0
20.0961 28.8153 0
22.5564 28.3827 0
45.1577 28.0648 0
47.364 26.9037 0
19.3173 33.5728 0
20.5938 31.4377 0
66.1199 9.14416 0
66.1501 6.64672 0
61.7161 1.43464 0
64.0769 0.592852 0
80.9535 1.37933 0
79.8132 3.53691 0
40.5935 47.2233 0
38.096 47.0952 0
58.7868 25.7886 0
59.6041 28.1481 0
14.8275 23.2299 0
16.9334 24.5614 0
4.08497 14.3773 0
6.13367 12.9381 0
84.2579 21.4912 0
82.6304 19.6043 0
8.18032 0.604165 0
5.72052 0.180376 0
75.4139 19.8748 0
73.0622 20.7064 0
52.431 9.5906 0
50.7793 7.71494 0
43.3113 5.48864 0
45.7096 4.77659 0
39.2624 2.5277 0
37.8554 4.59555 0
3.30458 8.61235 0
0.865041 8.05653 0
87.9013 12.0296 0
88.224 14.4787 0
39.7077 11.0589 0
37.4431 10.019 0
57.9423 7.04242 0
56.0216 5.44041 0
16.2882 26.6039 0
13.7979 26.8997 0
52.5481 5.05662 0
55.0218 5.42953 0
89.8483 6.92721 0
92.2342 7.69852 0
93.5159 4.62308 0
91.8625 2.75262 0
95.0985 0.407893 0
96.8694 2.17517 0
16.0852 29.0996 0
18.4512 28.304 0
62.4799 9.28673 0
61.7691 11.6794 0
18.5826 7.09442 0
17.9386 4.73161 0
70.1828 44.7733 0
67.8009 44.0048 0
79.676 8.25708 0
80.5714 5.96872 0
91.9089 15.5742 0
89.7489 14.3016 0
59.5335 8.4627 0
59.3383 5.96985 0
21.4291 28.2467 0
23.7316 29.2001 0
24.872 41.6872 0
26.379 39.6977 0
22.3908 13.0974 0
24.5936 14.2508 0
9.8465 12.006 0
11.0273 9.81981 0
33.52 45.0501 0
34.4832 42.7484 0
67.6011 35.5275 0
69.865 36.5866 0
25.3547 10.5084 0
26.866 8.5072 0
83.9997 24.2875 0
82.6621 22.1967 0
87.5811 2.02743 0
89.3668 3.77049 0
51.1083 40.61 0
53.4421 41.4956 0
82.1994 9.32169 0
80.1077 7.93287 0
65.0964 14.2622 0
66.098 16.553 0
42.9471 6.42486 0
42.7599 3.93287 0
53.513 5.1393 0
55.4291 3.53321 0
44.3506 38.5265 0
42.8833 40.5486 0
90.5984 10.7707 0
92.5762 9.25976 0
23.2809 16.6715 0
24.8184 18.6124 0
23.7841 9.90549 0
23.8216 7.43339 0
60.701 35.3534 0
60.9412 37.8378 0
44.6409 0.850431 0
42.284 1.70111 0
78.2665 24.0056 0
79.0046 21.6464 0
68.8466 37.5277 0
68.7388 35.0409 0
27.5593 6.25083 0
29.4584 4.60897 0
58.9207 12.8999 0
59.0109 15.397 0
57.7147 9.17219 0
59.6415 10.7655 0
51.7566 19.1546 0
54.1642 19.7987 0
50.6763 37.8035 0
48.1827 37.8023 0
47.4695 22.4649 0
46.4212 24.7326 0
22.6526 20.8584 0
22.8626 23.3226 0
81.0282 2.08861 0
78.5665 1.56756 0
95.2863 4.84554 0
95.4388 7.32176 0
48.3807 40.7578 0
46.786 42.6809 0
26.3935 16.4076 0
25.2552 18.6242 0
89.317 21.322 0
88.3455 23.5871 0
43.8406 3.22743 0
46.1134 4.27239 0
53.2775 27.4773 0
55.5092 28.5888 0
78.2742 8.20712 0
79.9455 6.38971 0
13.6809 13.8889 0
16.1847 14.0872 0
54.079 47.1185 0
53.9824 44.6212 0
52.4101 5.63444 0
49.986 5.01627 0
54.1044 40.1732 0
51.81 41.1537 0
8.32972 21.7801 0
6.37941 23.3545 0
11.1475 27.4208 0
8.65314 27.2601 0
49.7345 46.8027 0
47.236 46.8308 0
43.5721 18.0041 0
45.914 18.8528 0
28.4334 43.0585 0
27.7525 40.6684 0
87.0912 31.157 0
86.3833 28.8071 0
85.7814 22.2373 0
86.6521 19.9317 0
85.9791 0.784082 0
88.4161 1.36007 0
83.487 35.3024 0
84.5069 33.0569 0
24.185 32.3054 0
25.7515 30.3653 0
45.6045 41.8792 0
47.1194 43.8639 0
21.4298 34.5756 0
23.7094 33.5481 0
6.25324 12.021 0
4.33695 10.4318 0
34.5612 14.3667 0
36.1708 12.4506 0
31.2805 45.525 0
33.0114 43.723 0
18.3092 22.7193 0
20.7311 23.3481 0
10.2955 22.353 0
11.9958 20.5218 0
50.2245 7.22975 0
47.8893 6.33687 0
47.5023 30.4039 0
45.1753 29.5155 0
38.8861 20.6315 0
41.2917 19.9718 0
43.601 9.57922 0
41.3985 10.7596 0
77.4652 36.5537 0
79.2319 34.8104 0
39.9155 8.56172 0
39.0905 10.9226 0
74.852 39.9713 0
73.5928 37.8194 0
60.7747 11.4803 0
58.9042 13.1272 0
96.2775 12.4587 0
94.0514 11.3085 0
43.7808 24.9676 0
41.29 24.985 0
54.2752 42.473 0
56.7466 42.1248 0
84.5545 23.2867 0
82.049 23.4193 0
2.48542 9.55738 0
4.55349 8.14862 0
82.1274 4.88002 0
84.6197 5.1631 0
36.583 16.0854 0
38.7015 17.3922 0
44.0152 9.01475 0
42.0316 10.5356 0
21.2388 26.1738 0
22.2429 28.4385 0
43.0723 26.8373 0
45.3818 25.8983 0
15.062 19.4216 0
14.8938 21.8821 0
20.1658 8.45671 0
21.0294 6.13022 0
12.2568 24.5905 0
10.9859 22.477 0
49.8774 41.1228 0
48.6876 38.9271 0
9.6106 24.2385 0
9.4265 26.7083 0
35.1034 43.6366 0
32.8893 44.7992 0
13.4118 18.1327 0
11.2157 16.9508 0
12.2829 23.5752 0
12.7126 21.1425 0
84.208 17.2357 0
84.0524 14.7744 0
97.1303 15.3718 0
94.9251 14.1836 0
76.1543 36.3508 0
77.5489 38.4177 0
4.70873 2.92588 0
2.24956 3.40893 0
13.936 26.5308 0
11.4405 26.2805 0
9.89082 5.14533 0
8.619 7.28329 0
87.0201 9.888 0
86.7126 7.43875 0
50.8074 18.5748 0
49.8852 16.2523 0
22.8328 2.86547 0
23.4912 0.450994 0
24.074 40.0308 0
21.5926 39.7106 0
4.28044 10.4612 0
1.86839 11.141 0
73.9629 27.7801 0
72.3955 29.7063 0
51.6058 16.2232 0
49.441 17.4613 0
94.7071 5.48533 0
96.5879 7.13331 0
92.4102 0.894289 0
90.0133 1.58249 0
54.6715 27.6767 0
56.9933 28.5849 0
3.92046 2.09865 0
2.78923 4.31852 0
25.6296 41.6746 0
28.1162 41.3854 0
24.3414 32.8613 0
25.8053 34.8649 0
64.8428 37.493 0
63.0288 35.7759 0
45.7899 38.6221 0
46.3362 36.1845 0
59.1298 39.0581 0
58.3295 41.4223 0
42.8549 19.0987 0
41.6556 16.912 0
48.5283 16.5706 0
47.4709 14.3071 0
92.8899 4.8318 0
91.369 6.79028 0
17.6579 6.53313 0
16.0788 4.63267 0
31.5928 30.3848 0
33.1073 28.4013 0
49.5587 44.8104 0
50.5156 47.1189 0
51.6906 13.4939 0
49.2491 14.0006 0
35.2061 5.27398 0
34.5618 7.6909 0
90.7108 7.70151 0
90.2768 10.133 0
55.2524 45.4342 0
54.002 43.2698 0
16.7367 18.0213 0
18.9274 16.7994 0
14.6072 7.00128 0
14.2675 4.5615 0
24.3331 34.0422 0
21.8414 34.2365 0
62.5956 33.2808 0
60.6327 34.814 0
11.5596 19.5255 0
13.6732 20.8414 0
76.8414 0.315763 0
74.3686 0.159838 0
59.8932 25.755 0
57.6453 24.6728 0
70.4217 26.7652 0
67.9385 27.0006 0
46.2389 22.5125 0
46.9827 20.1264 0
76.571 3.74991 0
74.1766 4.37357 0
47.854 14.8239 0
50.1327 15.8361 0
88.1862 13.4738 0
89.9668 11.7438 0
71.0542 -0.0887172 0
73.3511 0.900318 0
56.275 45.3674 0
57.2025 43.0486 0
68.1836 3.06703 0
65.9656 1.90711 0
22.8812 17.471 0
24.8006 15.8625 0
81.1642 38.3775 0
83.1382 36.8637 0
49.4117 2.68159 0
51.1133 4.51425 0
66.0311 3.11713 0
63.7026 2.20451 0
53.2941 11.8721 0
53.0624 9.38218 0
12.5998 15.3031 0
10.7796 17.0172 0
43.1721 4.39223 0
43.6218 6.85032 0
56.1449 20.3 0
58.5882 20.7947 0
60.8109 22.1091 0
58.3378 21.7969 0
28.8678 26.9316 0
27.0521 25.2351 0
40.7084 6.6741 0
38.2347 7.01972 0
17.3961 2.32751 0
19.8809 1.99529 0
42.8605 25.564 0
40.3908 25.8971 0
7.01043 17.6058 0
8.34655 19.6909 0
20.3149 11.8574 0
22.1611 10.1639 0
67.373 39.7385 0
65.4683 41.3458 0
45.1335 41.2273 0
45.9869 43.5744 0
70.7657 17.0236 0
73.1491 16.2929 0
88.2992 4.84172 0
90.0434 6.62537 0
49.8864 19.8958 0
48.168 21.7059 0
56.3422 37.4185 0
56.3451 39.9162 0
82.3202 25.8019 0
80.7936 27.757 0
39.5721 4.17832 0
41.5642 5.68462 0
55.1588 43.2851 0
56.9975 41.5974 0
55.3722 43.17 0
57.0501 41.3223 0
25.0862 15.2023 0
23.263 13.5278 0
14.4082 27.5886 0
13.5846 29.9066 0
52.9935 16.7688 0
51.1934 18.4963 0
32.547 42.5362 0
34.8965 43.3828 0
19.7249 10.7488 0
21.4889 12.4845 0
61.5017 40.8493 0
63.7337 39.736 0
33.0041 27.1993 0
31.0592 28.7659 0
31.0534 20.9671 0
32.0255 23.2526 0
72.0109 27.2008 0
71.181 29.5404 0
38.1078 12.8505 0
40.5774 13.1892 0
47.3041 47.6821 0
45.4853 45.9693 0
70.5834 11.3337 0
70.4431 13.8159 0
98.6949 10.1569 0
96.6297 8.74397 0
96.4912 15.8586 0
93.987 15.9094 0
58.9375 9.96852 0
59.6684 12.3598 0
54.9818 18.1136 0
56.4588 20.1288 0
53.9023 41.3672 0
56.3626 40.952 0
5.02488 4.41056 0
7.50846 4.08594 0
84.4892 18.6633 0
86.8189 19.604 0
19.3423 29.9959 0
19.5667 32.4604 0
64.3803 35.5476 0
63.1323 33.3854 0
66.4382 23.2643 0
68.9322 23.1907 0
60.3575 25.2068 0
62.6477 24.2314 0
55.8991 20.9018 0
57.5878 19.0688 0
21.6157 36.0912 0
19.1204 36.2857 0
55.9328 32.0605 0
58.3593 31.497 0
67.9663 1.49129 0
70.1463 2.72485 0
16.2133 6.21334 0
17.6113 4.16576 0
91.7999 24.106 0
91.1148 26.4797 0
89.1999 19.031 0
86.7236 18.5978 0
88.0994 12.51 0
86.5324 14.4276 0
76.3731 18.6911 0
77.5717 16.5298 0
70.963 20.7824 0
70.0508 23.0899 0
26.675 25.2808 0
25.4583 27.4533 0
55.7853 26.0864 0
55.539 28.5707 0
59.1553 42.8187 0
57.5165 44.7017 0
66.1827 18.5407 0
68.2256 17.1245 0
81.2136 33.3264 0
79.6747 31.3688 0
50.4278 8.75213 0
49.7705 11.1645 0
26.1173 27.279 0
24.0863 28.7308 0
49.6506 27.0458 0
49.89 24.5587 0
89.2783 25.3299 0
91.781 25.2805 0
78.9229 31.8671 0
76.5949 32.7522 0
76.1637 37.1643 0
76.5968 34.7231 0
22.6798 1.41171 0
23.5232 3.71874 0
17.2454 11.8551 0
15.7594 9.88202 0
76.4932 35.5224 0
78.3519 33.8757 0
25.5475 42.5137 0
23.7677 40.7745 0
24.9571 3.44362 0
23.1347 1.80856 0
86.8707 24.2882 0
85.0157 22.6158 0
84.0198 33.2434 0
83.129 30.9312 0
67.9844 8.95666 0
65.8892 7.58336 0
6.40974 3.77208 0
4.63272 5.52953 0
88.4981 7.22317 0
89.3808 4.91619 0
68.0596 40.5732 0
69.8917 38.8868 0
33.624 18.6408 0
33.5267 21.1304 0
18.4192 18.2161 0
20.0275 20.1 0
51.0035 20.4078 0
51.99 18.1126 0
81.1531 27.0244 0
78.9566 25.8374 0
33.6867 33.4342 0
31.5075 34.6555 0
42.0956 36.405 0
44.2813 35.2006 0
9.46987 8.05295 0
8.09672 5.99079 0
46.3977 8.80167 0
43.9241 9.14413 0
38.9273 45.5432 0
36.7467 44.3251 0
56.6664 44.5236 0
57.0765 42.0594 0
50.8191 7.53681 0
52.1396 9.6591 0
69.2871 9.40163 0
68.1714 11.6201 0
52.7834 10.4199 0
53.9913 8.23219 0
87.9591 0.587389 0
87.4473 3.00286 0
87.5234 29.477 0
88.4632 27.2158 0
27.8244 27.5984 0
29.3779 25.6463 0
41.1356 2.96747 0
43.5588 2.33522 0
47.3907 29.0265 0
44.9012 28.9497 0
44.9149 22.9219 0
42.4466 22.5915 0
57.5374 35.944 0
55.6778 34.2783 0
79.9231 4.71624 0
81.3132 6.77876 0
32.9679 1.30083 0
31.3184 3.18261 0
37.9894 49.4534 0
37.9104 51.0203 0
37.9104 51.0203 0
37.6945 52.5746 0
37.6945 52.5746 0
37.3434 54.1043 0
37.3434 54.1043 0
36.8599 55.5975 0
36.8599 55.5975 0
36.2479 57.0429 0
36.2479 57.0429 0
35.5119 58.4296 0
35.5119 58.4296 0
34.6578 59.7469 0
34.6578 59.7469 0
33.6921 60.9848 0
33.6921 60.9848 0
32.6222 62.1341 0
32.6222 62.1341 0
31.4563 63.1859 0
31.4563 63.1859 0
30.2032 64.1323 0
30.2032 64.1323 0
28.8725 64.9662 0
28.8725 64.9662 0
27.4743 65.6813 0
27.4743 65.6813 0
26.0192 66.2723 0
26.0192 66.2723 0
24.5182 66.7345 0
24.5182 66.7345 0
22.9828 67.0647 0
22.9828 67.0647 0
21.4244 67.2603 0
21.4244 67.2603 0
19.8549 67.3198 0
19.8549 67.3198 0
18.2862 67.2427 0
18.2862 67.2427 0
16.7301 67.0298 0
16.7301 67.0298 0
15.1984 66.6825 0
15.1984 66.6825 0
13.7027 66.2035 0
13.7027 66.2035 0
12.2543 65.5963 0
12.2543 65.5963 0
10.8642 64.8657 0
10.8642 64.8657 0
9.5429 64.0169 0
9.5429 64.0169 0
8.30049 63.0566 0
8.30049 63.0566 0
7.14637 61.9919 0
7.14637 61.9919 0
6.08938 60.8308 0
6.08938 60.8308 0
5.13759 59.5821 0
5.13759 59.5821 0
4.29823 58.2554 0
4.29823 58.2554 0
3.57778 56.8608 0
3.57778 56.8608 0
2.98184 55.4086 0
2.98184 55.4086 0
2.51498 53.9101 0
2.51498 53.9101 0
2.18082 52.3769 0
2.18082 52.3769 0
1.98211 50.8204 0
1.98211 50.8204 0
1.92041 49.2526 0
1.92041 49.2526 0
1.99628 47.6857 0
1.99628 47.6857 0
2.20929 46.1319 0
2.20929 46.1319 0
2.55793 44.6031 0
2.55793 44.6031 0
3.03959 43.111 0
3.03959 43.111 0
3.65072 41.6678 0
3.65072 41.6678 0
4.38666 40.2846 0
4.38666 40.2846 0
5.24182 38.9726 0
5.24182 38.9726 0
6.20991 37.7426 0
6.20991 37.7426 0
7.28304 36.6054 0
7.28304 36.6054 0
8.45337 35.5706 0
8.45337 35.5706 0
9.71179 34.6504 0
9.71179 34.6504 0
11.0492 33.8535 0
11.0492 33.8535 0
12.4604 33.1796 0
12.4604 33.1796 0
13.9222 32.6036 0
13.9222 32.6036 0
15.4205 32.1402 0
15.4205 32.1402 0
16.9513 31.8036 0
16.9513 31.8036 0
18.5058 31.5988 0
18.5058 31.5988 0
20.0721 31.5282 0
20.0721 31.5282 0
21.6388 31.5931 0
21.6388 31.5931 0
23.1933 31.7931 0
23.1933 31.7931 0
24.7234 32.127 0
24.7234 32.127 0
26.2179 32.5924 0
26.2179 32.5924 0
27.6653 33.1863 0
27.6653 33.1863 0
29.0543 33.9048 0
29.0543 33.9048 0
30.3742 34.7423 0
30.3742 34.7423 0
31.6154 35.6926 0
31.6154 35.6926 0
32.7683 36.7484 0
32.7683 36.7484 0
33.8242 37.9018 0
33.8242 37.9018 0
34.7751 39.1438 0
34.7751 39.1438 0
35.6138 40.465 0
35.6138 40.465 0
36.3339 41.8553 0
36.3339 41.8553 0
36.9298 43.304 0
36.9298 43.304 0
37.3968 44.7998 0
37.3968 44.7998 0
37.7312 46.3313 0
37.7312 46.3313 0
37.9297 47.8865 0
37.9297 47.8865 0
37.9894 49.4534 0
98.0798 49.252 0
98.0181 50.8198 0
98.0181 50.8198 0
97.8193 52.3763 0
97.8193 52.3763 0
97.4852 53.9095 0
97.4852 53.9095 0
97.0183 55.408 0
97.0183 55.408 0
96.4223 56.8601 0
96.4223 56.8601 0
95.7019 58.2547 0
95.7019 58.2547 0
94.8625 59.5814 0
94.8625 59.5814 0
93.9107 60.83 0
93.9107 60.83 0
92.8537 61.9911 0
92.8537 61.9911 0
91.6995 63.0558 0
91.6995 63.0558 0
90.4571 64.0162 0
90.4571 64.0162 0
89.1358 64.8649 0
89.1358 64.8649 0
87.7457 65.5955 0
87.7457 65.5955 0
86.2973 66.2026 0
86.2973 66.2026 0
84.8016 66.6816 0
84.8016 66.6816 0
83.2699 67.0289 0
83.2699 67.0289 0
81.7138 67.2419 0
81.7138 67.2419 0
80.1451 67.3188 0
80.1451 67.3188 0
78.5756 67.2593 0
78.5756 67.2593 0
77.0172 67.0637 0
77.0172 67.0637 0
75.4818 66.7335 0
75.4818 66.7335 0
73.9808 66.2712 0
73.9808 66.2712 0
72.5257 65.6803 0
72.5257 65.6803 0
71.1275 64.9651 0
71.1275 64.9651 0
69.7968 64.1312 0
69.7968 64.1312 0
68.5438 63.1847 0
68.5438 63.1847 0
67.3779 62.1329 0
67.3779 62.1329 0
66.308 60.9836 0
66.308 60.9836 0
65.3423 59.7457 0
65.3423 59.7457 0
64.4883 58.4284 0
64.4883 58.4284 0
63.7524 57.0417 0
63.7524 57.0417 0
63.1404 55.5962 0
63.1404 55.5962 0
62.6569 54.103 0
62.6569 54.103 0
62.3059 52.5733 0
62.3059 52.5733 0
62.09 51.019 0
62.09 51.019 0
62.0112 49.4522 0
62.0112 49.4522 0
62.0709 47.8852 0
62.0709 47.8852 0
62.2694 46.33 0
62.2694 46.33 0
62.6038 44.7985 0
62.6038 44.7985 0
63.0708 43.3027 0
63.0708 43.3027 0
63.6666 41.854 0
63.6666 41.854 0
64.3866 40.4637 0
64.3866 40.4637 0
65.2252 39.1425 0
65.2252 39.1425 0
66.1761 37.9006 0
66.1761 37.9006 0
67.2319 36.7473 0
67.2319 36.7473 0
68.3849 35.6915 0
68.3849 35.6915 0
69.6261 34.7414 0
69.6261 34.7414 0
70.9462 33.9041 0
70.9462 33.9041 0
72.3351 33.1857 0
72.3351 33.1857 0
73.7823 32.5912 0
73.7823 32.5912 0
75.2769 32.1252 0
75.2769 32.1252 0
76.8074 31.7911 0
76.8074 31.7911 0
78.3618 31.5912 0
78.3618 31.5912 0
79.9281 31.5267 0
79.9281 31.5267 0
81.4947 31.5975 0
81.4947 31.5975 0
83.0493 31.8026 0
83.0493 31.8026 0
84.5808 32.1391 0
84.5808 32.1391 0
86.0791 32.6027 0
86.0791 32.6027 0
87.5391 33.1795 0
87.5391 33.1795 0
88.9516 33.8531 0
88.9516 33.8531 0
90.2895 34.6511 0
90.2895 34.6511 0
91.5471 35.5708 0
91.5471 35.5708 0
92.7172 36.6045 0
92.7172 36.6045 0
93.7906 37.7421 0
93.7906 37.7421 0
94.7584 38.9719 0
94.7584 38.9719 0
95.6137 40.2841 0
95.6137 40.2841 0
96.3497 41.6673 0
96.3497 41.6673 0
96.9607 43.1104 0
96.9607 43.1104 0
97.4423 44.6024 0
97.4423 44.6024 0
97.791 46.1314 0
97.791 46.1314 0
98.004 47.6852 0
98.004 47.6852 0
98.0798 49.252 0
      </DataArray>
    </Points>
    <Cells>
      <DataArray type="Int32" Name="connectivity" format="ascii">
247 120 114 753 754 755 
213 114 214 748 749 750 
487 220 257 647 745 730 
257 115 260 741 742 743 
246 300 116 738 739 740 
212 116 247 731 732 733 
246 257 117 724 725 726 
299 117 312 719 720 721 
303 310 118 716 717 718 
248 118 256 711 712 713 
513 495 483 150 224 119 
507 513 483 151 119 184 
248 120 302 704 705 706 
221 258 121 1196 1197 1198 
259 121 313 1191 1192 1193 
464 430 432 332 409 122 
436 464 432 326 122 408 
346 1189 123 1186 1187 1188 
298 123 351 1181 1182 1183 
71 311 124 699 700 701 
65 124 372 692 693 694 
79 369 125 687 688 689 
684 125 309 680 681 682 
211 243 126 1178 1179 1180 
244 126 297 1173 1174 1175 
462 474 436 240 281 127 
438 462 436 294 127 327 
512 515 514 131 129 134 
513 509 511 130 132 135 
514 515 510 129 139 128 
508 514 510 148 128 147 
496 500 514 146 133 149 
513 499 495 136 145 150 
507 509 513 143 130 151 
505 491 497 141 142 154 
504 515 512 137 131 155 
174 503 511 1151 156 144 
512 514 500 134 133 159 
499 513 511 136 135 162 
494 515 504 138 137 165 
171 510 515 1164 139 166 
140 167 168 678 674 675 
167 492 168 672 661 674 
491 505 506 141 153 169 
177 498 497 656 164 170 
173 490 174 1156 1149 1171 
217 489 503 1126 176 175 
495 499 498 145 163 178 
501 500 496 158 146 179 
172 486 181 1162 1145 1169 
496 514 508 149 148 183 
480 481 140 227 152 187 
479 506 505 188 153 190 
477 505 497 191 154 193 
504 512 475 155 160 194 
472 511 503 161 156 197 
501 502 471 157 199 200 
500 501 470 158 201 202 
475 512 500 160 159 203 
499 511 472 162 161 204 
498 499 469 163 205 206 
497 498 468 164 207 208 
494 504 474 165 195 210 
211 493 171 1165 1161 1166 
167 180 212 667 668 669 
168 492 213 661 662 663 
214 488 177 657 653 658 
172 171 215 1158 1159 1160 
173 185 216 1153 1154 1155 
174 490 217 1149 1127 1150 
473 503 489 196 176 218 
177 488 219 653 643 654 
220 487 180 647 648 649 
182 181 221 1142 1143 1144 
496 508 115 183 222 747 
225 484 185 886 1138 1139 
482 502 481 198 186 226 
506 480 140 189 187 677 
480 506 479 189 188 228 
479 505 478 190 192 229 
478 505 477 192 191 230 
477 497 476 193 209 231 
474 504 475 195 194 232 
472 503 473 197 196 233 
471 502 482 199 198 234 
470 501 471 201 200 235 
475 500 470 203 202 236 
469 499 472 205 204 237 
468 498 469 207 206 238 
476 497 468 209 208 239 
494 474 461 210 241 242 
215 245 249 1133 1134 1135 
216 250 251 1128 1129 1130 
217 252 253 1123 1124 1125 
307 451 473 1047 255 254 
223 219 256 640 641 642 
583 263 223 1074 637 628 
582 261 264 1120 1121 1122 
445 482 481 265 226 268 
444 481 480 267 227 270 
443 480 479 269 228 272 
442 479 478 271 229 274 
441 478 477 273 230 276 
440 477 476 275 231 278 
474 475 436 232 280 281 
472 473 435 233 283 284 
471 482 446 234 266 286 
470 471 434 235 287 288 
464 475 470 279 236 289 
469 472 463 237 285 290 
468 469 433 238 291 292 
439 476 468 277 239 293 
461 474 462 241 240 295 
296 460 243 1071 1116 1117 
245 244 298 1107 1108 1109 
258 249 304 1100 1101 1102 
250 262 305 1095 1096 1097 
252 251 306 1088 1089 1090 
253 452 307 1084 1044 1085 
437 473 451 282 255 308 
633 314 591 871 832 1082 
262 261 316 1075 1076 1077 
318 629 578 854 810 809 
446 482 445 266 265 319 
445 481 444 268 267 320 
444 480 443 270 269 321 
443 479 442 272 271 322 
442 478 441 274 273 323 
441 477 440 276 275 324 
440 476 439 278 277 325 
436 475 464 280 279 326 
435 473 437 283 282 328 
463 472 435 285 284 329 
434 471 446 287 286 330 
464 470 434 289 288 331 
433 469 463 291 290 334 
439 468 433 293 292 335 
462 438 43 294 338 339 
461 462 45 295 340 341 
296 342 343 1068 1069 1070 
297 344 345 1063 1064 1065 
299 311 347 621 622 623 
301 300 348 616 617 618 
302 301 349 609 610 611 
309 303 350 602 603 604 
304 352 353 1058 1059 1060 
305 358 359 1053 1054 1055 
306 361 362 1048 1049 1050 
307 452 364 1044 934 1045 
437 451 109 308 367 368 
599 317 597 848 850 1042 
592 315 593 841 840 1040 
313 355 375 1035 1036 1037 
585 586 587 1032 1033 1034 
356 316 378 1027 1028 1029 
578 579 580 1024 1025 1026 
3 446 445 381 319 383 
7 445 444 384 320 386 
11 444 443 387 321 389 
15 443 442 390 322 392 
19 442 441 393 323 395 
23 441 440 396 324 398 
27 440 439 399 325 401 
432 438 436 336 327 408 
435 437 431 328 337 410 
429 463 435 333 329 411 
434 446 0 330 382 413 
430 464 434 332 331 414 
433 463 429 334 333 415 
1 439 433 402 335 416 
39 438 432 404 336 417 
431 437 940 337 407 418 
43 438 41 338 405 42 
45 462 43 340 339 44 
47 49 342 48 1019 1020 
344 343 51 1009 1010 1011 
346 345 1013 1000 1001 1002 
348 347 702 569 570 571 
350 349 75 560 561 562 
352 351 55 991 992 993 
354 353 979 984 985 986 
355 354 995 975 976 977 
357 356 89 968 969 970 
358 357 956 959 960 961 
360 359 972 952 953 954 
361 360 95 943 944 945 
363 362 99 936 937 938 
364 363 103 927 928 929 
107 451 105 366 365 106 
109 451 107 367 366 108 
931 437 109 406 368 110 
370 369 548 553 554 555 
371 370 690 544 545 546 
372 374 532 537 538 539 
374 373 696 528 529 530 
376 375 61 920 921 922 
924 523 524 915 916 917 
378 380 85 908 909 910 
516 911 518 903 904 905 
0 446 3 382 381 2 
3 445 5 383 385 4 
5 445 7 385 384 6 
7 444 9 386 388 8 
9 444 11 388 387 10 
11 443 13 389 391 12 
13 443 15 391 390 14 
15 442 17 392 394 16 
17 442 19 394 393 18 
19 441 21 395 397 20 
21 441 23 397 396 22 
23 440 25 398 400 24 
25 440 27 400 399 26 
27 439 29 401 403 28 
29 439 1 403 402 30 
41 438 39 405 404 40 
940 437 931 407 406 932 
432 430 31 409 423 419 
429 435 431 411 410 412 
93 429 431 426 412 422 
430 434 0 414 413 424 
1 433 429 416 415 428 
39 432 37 417 420 38 
947 431 940 421 418 941 
37 432 31 420 419 36 
93 431 947 422 421 948 
31 430 33 423 425 32 
33 430 0 425 424 34 
112 429 93 427 426 111 
1 429 112 428 427 113 
220 115 257 746 741 745 
518 899 519 896 897 898 
521 519 380 889 890 891 
630 264 225 882 883 884 
491 177 497 659 170 142 
481 502 140 186 676 152 
744 182 635 879 874 875 
120 247 467 753 735 707 
247 114 492 755 752 736 
114 120 488 754 710 751 
114 213 492 748 662 752 
213 214 491 750 660 665 
214 114 488 749 751 657 
115 220 496 746 652 747 
257 260 466 743 632 727 
182 485 635 878 870 874 
300 246 458 738 728 619 
246 116 487 740 737 729 
116 300 467 739 620 734 
116 212 487 731 670 737 
212 247 492 733 736 671 
247 116 467 732 734 735 
257 246 487 724 729 730 
246 117 458 726 723 728 
117 257 466 725 727 722 
117 299 458 719 625 723 
299 312 449 721 595 626 
312 117 466 720 722 596 
310 303 450 716 608 600 
303 118 457 718 715 605 
118 310 465 717 601 714 
118 248 457 711 708 715 
248 256 488 713 644 709 
256 118 465 712 714 645 
120 248 488 704 709 710 
248 302 457 706 613 708 
302 120 467 705 707 614 
311 71 573 699 72 624 
71 124 63 701 698 70 
124 311 449 700 627 695 
124 65 63 692 64 698 
65 372 67 694 542 66 
372 124 449 693 695 543 
369 79 81 687 80 556 
79 125 73 689 686 78 
125 369 450 688 559 683 
125 684 73 680 685 686 
684 309 564 682 606 565 
309 125 450 681 683 607 
167 140 502 678 676 679 
501 167 502 673 679 157 
140 168 506 675 666 677 
180 167 501 667 673 651 
167 212 492 669 671 672 
212 180 487 668 648 670 
506 168 213 666 663 664 
491 506 213 169 664 665 
491 214 177 660 658 659 
498 177 219 656 654 655 
495 498 219 178 655 646 
496 220 180 652 649 650 
501 496 180 179 650 651 
219 223 495 640 639 646 
223 256 465 642 645 636 
256 219 488 641 643 644 
495 223 263 639 637 638 
483 495 263 224 638 631 
633 635 634 867 868 869 
588 634 259 860 861 862 
629 318 630 854 855 856 
311 299 449 621 626 627 
299 347 458 623 577 625 
347 311 573 622 624 572 
300 301 467 616 615 620 
301 348 69 618 575 612 
348 300 458 617 619 576 
301 302 467 609 614 615 
302 349 457 611 568 613 
349 301 69 610 612 563 
303 309 450 602 607 608 
309 350 564 604 566 606 
350 303 457 603 605 567 
597 317 584 850 807 851 
599 550 581 845 846 847 
371 310 450 598 600 551 
590 315 592 835 841 842 
312 373 449 594 536 595 
593 589 531 836 837 838 
585 590 591 827 828 829 
587 523 589 818 819 820 
586 588 527 811 812 813 
578 583 584 802 803 804 
580 521 582 793 794 795 
579 581 516 784 785 786 
347 348 458 569 576 577 
348 702 69 571 703 575 
702 347 573 570 572 574 
349 350 457 560 567 568 
350 75 564 562 76 566 
75 349 69 561 563 74 
369 370 450 553 552 559 
370 548 557 555 549 547 
548 369 81 554 556 82 
370 371 450 544 551 552 
778 77 550 783 779 780 
690 370 557 545 547 558 
374 372 449 537 543 535 
372 532 67 539 68 542 
532 374 540 538 534 533 
373 374 449 528 535 536 
374 696 540 530 541 534 
531 59 773 772 777 774 
524 527 526 765 766 767 
762 526 376 756 757 758 
744 635 633 875 867 873 
260 744 633 877 873 872 
211 171 515 1166 166 1167 
494 211 515 1168 1167 138 
509 174 511 1152 144 132 
174 217 503 1150 175 1151 
629 583 578 1073 802 810 
465 583 223 805 628 636 
489 307 473 1086 254 218 
258 221 486 1196 1146 1105 
221 121 485 1198 1195 1147 
121 258 455 1197 1104 1194 
121 259 485 1191 864 1195 
259 313 448 1193 1038 865 
313 121 455 1192 1194 1039 
1189 346 1018 1186 1006 1023 
346 123 459 1188 1185 1007 
123 1189 35 1187 1190 1184 
123 298 459 1181 1111 1185 
298 351 456 1183 999 1112 
351 123 35 1182 1184 994 
243 211 494 1178 1168 1119 
211 126 493 1180 1177 1165 
126 243 460 1179 1116 1176 
126 244 493 1173 1115 1177 
244 297 459 1175 1066 1110 
297 126 460 1174 1176 1067 
173 174 509 1171 1152 1172 
507 173 509 1157 1172 143 
510 172 181 1163 1169 1170 
508 510 181 147 1170 1148 
171 172 510 1158 1163 1164 
172 215 486 1160 1136 1162 
215 171 493 1159 1161 1137 
185 173 507 1153 1157 1141 
173 216 490 1155 1131 1156 
216 185 484 1154 1138 1132 
181 182 508 1142 881 1148 
182 221 485 1144 1147 878 
221 181 486 1143 1145 1146 
225 185 507 1139 1141 1140 
483 225 507 887 1140 184 
245 215 493 1133 1137 1114 
215 249 486 1135 1106 1136 
249 245 456 1134 1113 1103 
250 216 484 1128 1132 1099 
216 251 490 1130 1094 1131 
251 250 453 1129 1098 1091 
252 217 490 1123 1127 1093 
217 253 489 1125 1087 1126 
253 252 452 1124 1092 1084 
261 582 447 1120 797 1078 
582 264 318 1122 888 798 
264 261 484 1121 1081 885 
461 296 243 1072 1117 1118 
494 461 243 242 1118 1119 
244 245 493 1107 1114 1115 
245 298 456 1109 1112 1113 
298 244 459 1108 1110 1111 
249 258 486 1100 1105 1106 
258 304 455 1102 1061 1104 
304 249 456 1101 1103 1062 
262 250 484 1095 1099 1080 
250 305 453 1097 1056 1098 
305 262 454 1096 1079 1057 
251 252 490 1088 1093 1094 
252 306 452 1090 1051 1092 
306 251 453 1089 1091 1052 
489 253 307 1087 1085 1086 
260 633 591 872 1082 1083 
466 260 591 632 1083 831 
261 262 484 1075 1080 1081 
262 316 454 1077 1031 1079 
316 261 447 1076 1078 1030 
583 629 263 1073 859 1074 
342 296 461 1068 1072 1022 
296 343 460 1070 1017 1071 
343 342 49 1069 1019 1012 
344 297 460 1063 1067 1016 
297 345 459 1065 1008 1066 
345 344 1004 1064 1015 1003 
352 304 456 1058 1062 998 
304 353 455 1060 990 1061 
353 352 57 1059 997 987 
358 305 454 1053 1057 966 
305 359 453 1055 958 1056 
359 358 963 1054 965 955 
361 306 453 1048 1052 950 
306 362 452 1050 942 1051 
362 361 97 1049 949 939 
451 307 364 1047 1045 1046 
105 451 364 365 1046 933 
371 599 597 849 1042 1043 
310 371 597 598 1043 852 
592 593 373 1040 839 1041 
312 592 373 844 1041 594 
355 313 455 1035 1039 982 
313 375 448 1037 926 1038 
375 355 53 1036 981 923 
586 585 314 1032 833 816 
585 587 315 1034 824 834 
587 586 377 1033 815 825 
316 356 454 1027 974 1031 
356 378 83 1029 913 971 
378 316 447 1028 1030 914 
579 578 317 1024 808 791 
578 580 318 1026 799 809 
580 579 379 1025 790 800 
45 47 342 46 1020 1021 
461 45 342 341 1021 1022 
343 344 460 1009 1016 1017 
344 51 1004 1011 52 1015 
51 343 49 1010 1012 50 
345 346 459 1000 1007 1008 
346 1013 1018 1002 1014 1006 
1013 345 1004 1001 1003 1005 
351 352 456 991 998 999 
352 55 57 993 56 997 
55 351 35 992 994 54 
353 354 455 984 983 990 
354 979 988 986 980 978 
979 353 57 985 987 58 
354 355 455 975 982 983 
355 995 53 977 996 981 
995 354 988 976 978 989 
356 357 454 968 967 974 
357 89 91 970 90 962 
89 356 83 969 971 88 
357 358 454 959 966 967 
358 956 963 961 957 965 
956 357 91 960 962 92 
359 360 453 952 951 958 
360 972 87 954 973 946 
972 359 963 953 955 964 
360 361 453 943 950 951 
361 95 97 945 96 949 
95 360 87 944 946 94 
362 363 452 936 935 942 
363 99 101 938 100 930 
99 362 97 937 939 98 
363 364 452 927 934 935 
364 103 105 929 104 933 
103 363 101 928 930 102 
375 376 448 920 760 926 
376 61 522 922 62 761 
61 375 53 921 923 60 
523 924 59 915 925 821 
924 524 918 917 769 919 
524 523 377 916 826 770 
380 378 447 908 914 894 
378 85 83 910 84 913 
85 380 517 909 893 86 
911 516 77 903 788 912 
516 518 379 905 900 789 
518 911 906 904 907 901 
899 518 906 896 901 902 
518 519 379 898 895 900 
519 899 517 897 520 892 
519 521 379 889 801 895 
521 380 447 891 894 796 
380 519 517 890 892 893 
264 630 318 882 855 888 
630 225 483 884 887 858 
225 264 484 883 885 886 
508 182 744 881 879 880 
115 508 744 222 880 876 
115 744 260 876 877 742 
633 634 314 869 866 871 
634 635 485 868 870 863 
634 588 314 860 817 866 
588 259 448 862 865 814 
259 634 485 861 863 864 
263 629 630 859 856 857 
483 263 630 631 857 858 
597 584 465 851 806 853 
310 597 465 852 853 601 
550 599 371 845 849 782 
599 581 317 847 792 848 
581 550 77 846 779 787 
466 590 592 830 842 843 
312 466 592 596 843 844 
589 593 315 836 840 823 
593 531 373 838 775 839 
531 589 59 837 822 772 
590 585 315 827 834 835 
585 591 314 829 832 833 
591 590 466 828 830 831 
523 587 377 818 825 826 
587 589 315 820 823 824 
589 523 59 819 821 822 
588 586 314 811 816 817 
586 527 377 813 771 815 
527 588 448 812 814 768 
578 584 317 804 807 808 
584 583 465 803 805 806 
521 580 379 793 800 801 
580 582 318 795 798 799 
582 521 447 794 796 797 
581 579 317 784 791 792 
579 516 379 786 789 790 
516 581 77 785 787 788 
690 778 550 691 780 781 
371 690 550 546 781 782 
531 773 696 774 697 776 
373 531 696 775 776 529 
527 524 377 765 770 771 
524 526 918 767 764 769 
526 527 448 766 768 759 
526 762 918 756 763 764 
762 376 522 758 761 525 
376 526 448 757 759 760 
1199 1200
1201 1202
1203 1204
1205 1206
1207 1208
1209 1210
1211 1212
1213 1214
1215 1216
1217 1218
1219 1220
1221 1222
1223 1224
1225 1226
1227 1228
1229 1230
1231 1232
1233 1234
1235 1236
1237 1238
1239 1240
1241 1242
1243 1244
1245 1246
1247 1248
1249 1250
1251 1252
1253 1254
1255 1256
1257 1258
1259 1260
1261 1262
1263 1264
1265 1266
1267 1268
1269 1270
1271 1272
1273 1274
1275 1276
1277 1278
1279 1280
1281 1282
1283 1284
1285 1286
1287 1288
1289 1290
1291 1292
1293 1294
1295 1296
1297 1298
1299 1300
1301 1302
1303 1304
1305 1306
1307 1308
1309 1310
1311 1312
1313 1314
1315 1316
1317 1318
1319 1320
1321 1322
1323 1324
1325 1326
1327 1328
1329 1330
1331 1332
1333 1334
1335 1336
1337 1338
1339 1340
1341 1342
1343 1344
1345 1346
1347 1348
1349 1350
1351 1352
1353 1354
1355 1356
1357 1358
1359 1360
1361 1362
1363 1364
1365 1366
1367 1368
1369 1370
1371 1372
1373 1374
1375 1376
1377 1378
1379 1380
1381 1382
1383 1384
1385 1386
1387 1388
1389 1390
1391 1392
1393 1394
1395 1396
1397 1398
1399 1400
1401 1402
1403 1404
1405 1406
1407 1408
1409 1410
1411 1412
1413 1414
1415 1416
1417 1418
1419 1420
1421 1422
1423 1424
1425 1426
1427 1428
1429 1430
1431 1432
1433 1434
1435 1436
1437 1438
1439 1440
1441 1442
1443 1444
1445 1446
1447 1448
1449 1450
1451 1452
1453 1454
1455 1456
1457 1458
1459 1460
1461 1462
1463 1464
1465 1466
1467 1468
1469 1470
1471 1472
1473 1474
1475 1476
1477 1478
1479 1480
1481 1482
1483 1484
1485 1486
1487 1488
1489 1490
1491 1492
1493 1494
1495 1496
1497 1498
1499 1500
1501 1502
1503 1504
1505 1506
1507 1508
1509 1510
1511 1512
1513 1514
1515 1516
1517 1518
1519 1520
1521 1522
1523 1524
1525 1526
1527 1528
1529 1530
1531 1532
1533 1534
1535 1536
1537 1538
1539 1540
1541 1542
1543 1544
1545 1546
1547 1548
1549 1550
1551 1552
1553 1554
1555 1556
1557 1558
1559 1560
1561 1562
1563 1564
1565 1566
1567 1568
1569 1570
1571 1572
1573 1574
1575 1576
1577 1578
1579 1580
1581 1582
1583 1584
1585 1586
1587 1588
1589 1590
1591 1592
1593 1594
1595 1596
1597 1598
1599 1600
1601 1602
1603 1604
1605 1606
1607 1608
1609 1610
1611 1612
1613 1614
1615 1616
1617 1618
1619 1620
1621 1622
1623 1624
1625 1626
1627 1628
1629 1630
1631 1632
1633 1634
1635 1636
1637 1638
1639 1640
1641 1642
1643 1644
1645 1646
1647 1648
1649 1650
1651 1652
1653 1654
1655 1656
1657 1658
1659 1660
1661 1662
1663 1664
1665 1666
1667 1668
1669 1670
1671 1672
1673 1674
1675 1676
1677 1678
1679 1680
1681 1682
1683 1684
1685 1686
1687 1688
1689 1690
1691 1692
1693 1694
1695 1696
1697 1698
1699 1700
1701 1702
1703 1704
1705 1706
1707 1708
1709 1710
1711 1712
1713 1714
1715 1716
1717 1718
1719 1720
1721 1722
1723 1724
1725 1726
1727 1728
1729 1730
1731 1732
1733 1734
1735 1736
1737 1738
1739 1740
1741 1742
1743 1744
1745 1746
1747 1748
1749 1750
1751 1752
1753 1754
1755 1756
1757 1758
1759 1760
1761 1762
1763 1764
1765 1766
1767 1768
1769 1770
1771 1772
1773 1774
1775 1776
1777 1778
1779 1780
1781 1782
1783 1784
1785 1786
1787 1788
1789 1790
1791 1792
1793 1794
1795 1796
1797 1798
1799 1800
1801 1802
1803 1804
1805 1806
1807 1808
1809 1810
1811 1812
1813 1814
1815 1816
1817 1818
1819 1820
1821 1822
1823 1824
1825 1826
1827 1828
1829 1830
1831 1832
1833 1834
1835 1836
1837 1838
1839 1840
1841 1842
1843 1844
1845 1846
1847 1848
1849 1850
1851 1852
1853 1854
1855 1856
1857 1858
1859 1860
1861 1862
1863 1864
1865 1866
1867 1868
1869 1870
1871 1872
1873 1874
1875 1876
1877 1878
1879 1880
1881 1882
1883 1884
1885 1886
1887 1888
1889 1890
1891 1892
1893 1894
1895 1896
1897 1898
1899 1900
1901 1902
1903 1904
1905 1906
1907 1908
1909 1910
1911 1912
1913 1914
1915 1916
1917 1918
1919 1920
1921 1922
1923 1924
1925 1926
1927 1928
1929 1930
1931 1932
1933 1934
1935 1936
1937 1938
1939 1940
1941 1942
1943 1944
1945 1946
1947 1948
1949 1950
1951 1952
1953 1954
1955 1956
1957 1958
1959 1960
1961 1962
1963 1964
1965 1966
1967 1968
1969 1970
1971 1972
1973 1974
1975 1976
1977 1978
1979 1980
1981 1982
1983 1984
1985 1986
1987 1988
1989 1990
1991 1992
1993 1994
1995 1996
1997 1998
1999 2000
2001 2002
2003 2004
2005 2006
2007 2008
2009 2010
2011 2012
2013 2014
2015 2016
2017 2018
2019 2020
2021 2022
2023 2024
2025 2026
2027 2028
2029 2030
2031 2032
2033 2034
2035 2036
2037 2038
2039 2040
2041 2042
2043 2044
2045 2046
2047 2048
2049 2050
2051 2052
2053 2054
2055 2056
2057 2058
2059 2060
2061 2062
2063 2064
2065 2066
2067 2068
2069 2070
2071 2072
2073 2074
2075 2076
2077 2078
2079 2080
2081 2082
2083 2084
2085 2086
2087 2088
2089 2090
2091 2092
2093 2094
2095 2096
2097 2098
2099 2100
2101 2102
2103 2104
2105 2106
2107 2108
2109 2110
2111 2112
2113 2114
2115 2116
2117 2118
2119 2120
2121 2122
2123 2124
2125 2126
2127 2128
2129 2130
2131 2132
2133 2134
2135 2136
2137 2138
2139 2140
2141 2142
2143 2144
2145 2146
2147 2148
2149 2150
2151 2152
2153 2154
2155 2156
2157 2158
2159 2160
2161 2162
2163 2164
2165 2166
2167 2168
2169 2170
2171 2172
2173 2174
2175 2176
2177 2178
2179 2180
2181 2182
2183 2184
2185 2186
2187 2188
2189 2190
2191 2192
2193 2194
2195 2196
2197 2198
2199 2200
2201 2202
2203 2204
2205 2206
2207 2208
2209 2210
2211 2212
2213 2214
2215 2216
2217 2218
2219 2220
2221 2222
2223 2224
2225 2226
2227 2228
2229 2230
2231 2232
2233 2234
2235 2236
2237 2238
2239 2240
2241 2242
2243 2244
2245 2246
2247 2248
2249 2250
2251 2252
2253 2254
2255 2256
2257 2258
2259 2260
2261 2262
2263 2264
2265 2266
2267 2268
2269 2270
2271 2272
2273 2274
2275 2276
2277 2278
2279 2280
2281 2282
2283 2284
2285 2286
2287 2288
2289 2290
2291 2292
2293 2294
2295 2296
2297 2298
2299 2300
2301 2302
2303 2304
2305 2306
2307 2308
2309 2310
2311 2312
2313 2314
2315 2316
2317 2318
2319 2320
2321 2322
2323 2324
2325 2326
2327 2328
2329 2330
2331 2332
2333 2334
2335 2336
2337 2338
2339 2340
2341 2342
2343 2344
2345 2346
2347 2348
2349 2350
2351 2352
2353 2354
2355 2356
2357 2358
2359 2360
2361 2362
2363 2364
2365 2366
2367 2368
2369 2370
2371 2372
2373 2374
2375 2376
2377 2378
2379 2380
2381 2382
2383 2384
2385 2386
2387 2388
2389 2390
2391 2392
2393 2394
2395 2396
2397 2398
2399 2400
2401 2402
2403 2404
2405 2406
2407 2408
2409 2410
2411 2412
2413 2414
2415 2416
2417 2418
2419 2420
2421 2422
2423 2424
2425 2426
2427 2428
2429 2430
2431 2432
2433 2434
2435 2436
2437 2438
2439 2440
2441 2442
2443 2444
2445 2446
2447 2448
2449 2450
2451 2452
2453 2454
2455 2456
2457 2458
2459 2460
2461 2462
2463 2464
2465 2466
2467 2468
2469 2470
2471 2472
2473 2474
2475 2476
2477 2478
2479 2480
2481 2482
2483 2484
2485 2486
2487 2488
2489 2490
2491 2492
2493 2494
2495 2496
2497 2498
2499 2500
2501 2502
2503 2504
2505 2506
2507 2508
2509 2510
2511 2512
2513 2514
2515 2516
2517 2518
2519 2520
2521 2522
2523 2524
2525 2526
2527 2528
2529 2530
2531 2532
2533 2534
2535 2536
2537 2538
2539 2540
2541 2542
2543 2544
2545 2546
2547 2548
2549 2550
2551 2552
2553 2554
2555 2556
2557 2558
2559 2560
2561 2562
2563 2564
2565 2566
2567 2568
2569 2570
2571 2572
2573 2574
2575 2576
2577 2578
2579 2580
2581 2582
2583 2584
2585 2586
2587 2588
2589 2590
2591 2592
2593 2594
2595 2596
2597 2598
2599 2600
2601 2602
2603 2604
2605 2606
2607 2608
2609 2610
2611 2612
2613 2614
2615 2616
2617 2618
2619 2620
2621 2622
2623 2624
2625 2626
2627 2628
2629 2630
2631 2632
2633 2634
2635 2636
2637 2638
2639 2640
2641 2642
2643 2644
2645 2646
2647 2648
2649 2650
2651 2652
2653 2654
2655 2656
2657 2658
2659 2660
2661 2662
2663 2664
2665 2666
2667 2668
2669 2670
2671 2672
2673 2674
2675 2676
2677 2678
2679 2680
2681 2682
2683 2684
2685 2686
2687 2688
2689 2690
2691 2692
2693 2694
2695 2696
2697 2698
2699 2700
2701 2702
2703 2704
2705 2706
2707 2708
2709 2710
2711 2712
2713 2714
2715 2716
2717 2718
2719 2720
2721 2722
2723 2724
2725 2726
2727 2728
2729 2730
2731 2732
2733 2734
2735 2736
2737 2738
2739 2740
2741 2742
2743 2744
2745 2746
2747 2748
2749 2750
2751 2752
2753 2754
2755 2756
2757 2758
2759 2760
2761 2762
2763 2764
2765 2766
2767 2768
2769 2770
2771 2772
2773 2774
2775 2776
2777 2778
2779 2780
2781 2782
2783 2784
2785 2786
2787 2788
2789 2790
2791 2792
2793 2794
2795 2796
2797 2798
2799 2800
2801 2802
2803 2804
2805 2806
2807 2808
2809 2810
2811 2812
2813 2814
2815 2816
2817 2818
2819 2820
2821 2822
2823 2824
2825 2826
2827 2828
2829 2830
2831 2832
2833 2834
2835 2836
2837 2838
2839 2840
2841 2842
2843 2844
2845 2846
2847 2848
2849 2850
2851 2852
2853 2854
2855 2856
2857 2858
2859 2860
2861 2862
2863 2864
2865 2866
2867 2868
2869 2870
2871 2872
2873 2874
2875 2876
2877 2878
2879 2880
2881 2882
2883 2884
2885 2886
2887 2888
2889 2890
2891 2892
2893 2894
2895 2896
2897 2898
2899 2900
2901 2902
2903 2904
2905 2906
2907 2908
2909 2910
2911 2912
2913 2914
2915 2916
2917 2918
2919 2920
2921 2922
2923 2924
2925 2926
2927 2928
2929 2930
2931 2932
2933 2934
2935 2936
2937 2938
2939 2940
2941 2942
2943 2944
2945 2946
2947 2948
2949 2950
2951 2952
2953 2954
2955 2956
2957 2958
2959 2960
2961 2962
2963 2964
2965 2966
2967 2968
2969 2970
2971 2972
2973 2974
2975 2976
2977 2978
2979 2980
2981 2982
2983 2984
2985 2986
2987 2988
2989 2990
2991 2992
2993 2994
2995 2996
2997 2998
2999 3000
3001 3002
3003 3004
3005 3006
3007 3008
3009 3010
3011 3012
3013 3014
3015 3016
3017 3018
3019 3020
3021 3022
3023 3024
3025 3026
3027 3028
3029 3030
3031 3032
3033 3034
3035 3036
3037 3038
3039 3040
3041 3042
3043 3044
3045 3046
3047 3048
3049 3050
3051 3052
3053 3054
3055 3056
3057 3058
3059 3060
3061 3062
3063 3064
3065 3066
3067 3068
3069 3070
3071 3072
3073 3074
3075 3076
3077 3078
3079 3080
3081 3082
3083 3084
3085 3086
3087 3088
3089 3090
3091 3092
3093 3094
3095 3096
3097 3098
3099 3100
3101 3102
3103 3104
3105 3106
3107 3108
3109 3110
3111 3112
3113 3114
3115 3116
3117 3118
3119 3120
3121 3122
3123 3124
3125 3126
3127 3128
3129 3130
3131 3132
3133 3134
3135 3136
3137 3138
3139 3140
3141 3142
3143 3144
3145 3146
3147 3148
3149 3150
3151 3152
3153 3154
3155 3156
3157 3158
3159 3160
3161 3162
3163 3164
3165 3166
3167 3168
3169 3170
3171 3172
3173 3174
3175 3176
3177 3178
3179 3180
3181 3182
3183 3184
3185 3186
3187 3188
3189 3190
3191 3192
3193 3194
3195 3196
3197 3198
3199 3200
3201 3202
3203 3204
3205 3206
3207 3208
3209 3210
3211 3212
3213 3214
3215 3216
3217 3218
3219 3220
3221 3222
3223 3224
3225 3226
3227 3228
3229 3230
3231 3232
3233 3234
3235 3236
3237 3238
3239 3240
3241 3242
3243 3244
3245 3246
3247 3248
3249 3250
3251 3252
3253 3254
3255 3256
3257 3258
3259 3260
3261 3262
3263 3264
3265 3266
3267 3268
3269 3270
3271 3272
3273 3274
3275 3276
3277 3278
3279 3280
3281 3282
3283 3284
3285 3286
3287 3288
3289 3290
3291 3292
3293 3294
3295 3296
3297 3298
3299 3300
3301 3302
3303 3304
3305 3306
3307 3308
3309 3310
3311 3312
3313 3314
3315 3316
3317 3318
3319 3320
3321 3322
3323 3324
3325 3326
3327 3328
3329 3330
3331 3332
3333 3334
3335 3336
3337 3338
3339 3340
3341 3342
3343 3344
3345 3346
3347 3348
3349 3350
3351 3352
3353 3354
3355 3356
3357 3358
3359 3360
3361 3362
3363 3364
3365 3366
3367 3368
3369 3370
3371 3372
3373 3374
3375 3376
3377 3378
3379 3380
3381 3382
3383 3384
3385 3386
3387 3388
3389 3390
3391 3392
3393 3394
3395 3396
3397 3398
3399 3400
3401 3402
3403 3404
3405 3406
3407 3408
3409 3410
3411 3412
3413 3414
3415 3416
3417 3418
3419 3420
3421 3422
3423 3424
3425 3426
3427 3428
3429 3430
3431 3432
3433 3434
3435 3436
3437 3438
3439 3440
3441 3442
3443 3444
3445 3446
3447 3448
3449 3450
3451 3452
3453 3454
3455 3456
3457 3458
3459 3460
3461 3462
3463 3464
3465 3466
3467 3468
3469 3470
3471 3472
3473 3474
3475 3476
3477 3478
3479 3480
3481 3482
3483 3484
3485 3486
      </DataArray>
      <DataArray type="Int32" Name="offsets" format="ascii">
6
12
18
24
30
36
42
48
54
60
66
72
78
84
90
96
102
108
114
120
126
132
138
144
150
156
162
168
174
180
186
192
198
204
210
216
222
228
234
240
246
252
258
264
270
276
282
288
294
300
306
312
318
324
330
336
342
348
354
360
366
372
378
384
390
396
402
408
414
420
426
432
438
444
450
456
462
468
474
480
486
492
498
504
510
516
522
528
534
540
546
552
558
564
570
576
582
588
594
600
606
612
618
624
630
636
642
648
654
660
666
672
678
684
690
696
702
708
714
720
726
732
738
744
750
756
762
768
774
780
786
792
798
804
810
816
822
828
834
840
846
852
858
864
870
876
882
888
894
900
906
912
918
924
930
936
942
948
954
960
966
972
978
984
990
996
1002
1008
1014
1020
1026
1032
1038
1044
1050
1056
1062
1068
1074
1080
1086
1092
1098
1104
1110
1116
1122
1128
1134
1140
1146
1152
1158
1164
1170
1176
1182
1188
1194
1200
1206
1212
1218
1224
1230
1236
1242
1248
1254
1260
1266
1272
1278
1284
1290
1296
1302
1308
1314
1320
1326
1332
1338
1344
1350
1356
1362
1368
1374
1380
1386
1392
1398
1404
1410
1416
1422
1428
1434
1440
1446
1452
1458
1464
1470
1476
1482
1488
1494
1500
1506
1512
1518
1524
1530
1536
1542
1548
1554
1560
1566
1572
1578
1584
1590
1596
1602
1608
1614
1620
1626
1632
1638
1644
1650
1656
1662
1668
1674
1680
1686
1692
1698
1704
1710
1716
1722
1728
1734
1740
1746
1752
1758
1764
1770
1776
1782
1788
1794
1800
1806
1812
1818
1824
1830
1836
1842
1848
1854
1860
1866
1872
1878
1884
1890
1896
1902
1908
1914
1920
1926
1932
1938
1944
1950
1956
1962
1968
1974
1980
1986
1992
1998
2004
2010
2016
2022
2028
2034
2040
2046
2052
2058
2064
2070
2076
2082
2088
2094
2100
2106
2112
2118
2124
2130
2136
2142
2148
2154
2160
2166
2172
2178
2184
2190
2196
2202
2208
2214
2220
2226
2232
2238
2244
2250
2256
2262
2268
2274
2280
2286
2292
2298
2304
2310
2316
2322
2328
2334
2340
2346
2352
2358
2364
2370
2376
2382
2388
2394
2400
2406
2412
2418
2424
2430
2436
2442
2448
2454
2460
2466
2472
2478
2484
2490
2496
2502
2508
2514
2520
2526
2532
2538
2544
2550
2556
2562
2568
2574
2580
2586
2592
2598
2604
2610
2616
2622
2628
2634
2640
2646
2652
2658
2664
2670
2676
2682
2688
2694
2700
2706
2712
2718
2724
2730
2736
2742
2748
2754
2760
2766
2772
2778
2784
2790
2796
2802
2808
2814
2820
2826
2832
2838
2844
2850
2856
2862
2868
2874
2880
2886
2892
2898
2904
2910
2916
2922
2928
2934
2940
2946
2952
2958
2964
2970
2976
2982
2988
2994
3000
3006
3012
3018
3024
3030
3036
3042
3048
3054
3060
3066
3072
3078
3084
3090
3096
3102
3108
3114
3120
3126
3132
3138
3144
3150
3156
3162
3168
3174
3180
3186
3192
3198
3204
3210
3216
3222
3228
3234
3240
3246
3252
3258
3264
3270
3276
3282
3288
3294
3300
3306
3312
3318
3324
3326
3328
3330
3332
3334
3336
3338
3340
3342
3344
3346
3348
3350
3352
3354
3356
3358
3360
3362
3364
3366
3368
3370
3372
3374
3376
3378
3380
3382
3384
3386
3388
3390
3392
3394
3396
3398
3400
3402
3404
3406
3408
3410
3412
3414
3416
3418
3420
3422
3424
3426
3428
3430
3432
3434
3436
3438
3440
3442
3444
3446
3448
3450
3452
3454
3456
3458
3460
3462
3464
3466
3468
3470
3472
3474
3476
3478
3480
3482
3484
3486
3488
3490
3492
3494
3496
3498
3500
3502
3504
3506
3508
3510
3512
3514
3516
3518
3520
3522
3524
3526
3528
3530
3532
3534
3536
3538
3540
3542
3544
3546
3548
3550
3552
3554
3556
3558
3560
3562
3564
3566
3568
3570
3572
3574
3576
3578
3580
3582
3584
3586
3588
3590
3592
3594
3596
3598
3600
3602
3604
3606
3608
3610
3612
3614
3616
3618
3620
3622
3624
3626
3628
3630
3632
3634
3636
3638
3640
3642
3644
3646
3648
3650
3652
3654
3656
3658
3660
3662
3664
3666
3668
3670
3672
3674
3676
3678
3680
3682
3684
3686
3688
3690
3692
3694
3696
3698
3700
3702
3704
3706
3708
3710
3712
3714
3716
3718
3720
3722
3724
3726
3728
3730
3732
3734
3736
3738
3740
3742
3744
3746
3748
3750
3752
3754
3756
3758
3760
3762
3764
3766
3768
3770
3772
3774
3776
3778
3780
3782
3784
3786
3788
3790
3792
3794
3796
3798
3800
3802
3804
3806
3808
3810
3812
3814
3816
3818
3820
3822
3824
3826
3828
3830
3832
3834
3836
3838
3840
3842
3844
3846
3848
3850
3852
3854
3856
3858
3860
3862
3864
3866
3868
3870
3872
3874
3876
3878
3880
3882
3884
3886
3888
3890
3892
3894
3896
3898
3900
3902
3904
3906
3908
3910
3912
3914
3916
3918
3920
3922
3924
3926
3928
3930
3932
3934
3936
3938
3940
3942
3944
3946
3948
3950
3952
3954
3956
3958
3960
3962
3964
3966
3968
3970
3972
3974
3976
3978
3980
3982
3984
3986
3988
3990
3992
3994
3996
3998
4000
4002
4004
4006
4008
4010
4012
4014
4016
4018
4020
4022
4024
4026
4028
4030
4032
4034
4036
4038
4040
4042
4044
4046
4048
4050
4052
4054
4056
4058
4060
4062
4064
4066
4068
4070
4072
4074
4076
4078
4080
4082
4084
4086
4088
4090
4092
4094
4096
4098
4100
4102
4104
4106
4108
4110
4112
4114
4116
4118
4120
4122
4124
4126
4128
4130
4132
4134
4136
4138
4140
4142
4144
4146
4148
4150
4152
4154
4156
4158
4160
4162
4164
4166
4168
4170
4172
4174
4176
4178
4180
4182
4184
4186
4188
4190
4192
4194
4196
4198
4200
4202
4204
4206
4208
4210
4212
4214
4216
4218
4220
4222
4224
4226
4228
4230
4232
4234
4236
4238
4240
4242
4244
4246
4248
4250
4252
4254
4256
4258
4260
4262
4264
4266
4268
4270
4272
4274
4276
4278
4280
4282
4284
4286
4288
4290
4292
4294
4296
4298
4300
4302
4304
4306
4308
4310
4312
4314
4316
4318
4320
4322
4324
4326
4328
4330
4332
4334
4336
4338
4340
4342
4344
4346
4348
4350
4352
4354
4356
4358
4360
4362
4364
4366
4368
4370
4372
4374
4376
4378
4380
4382
4384
4386
4388
4390
4392
4394
4396
4398
4400
4402
4404
4406
4408
4410
4412
4414
4416
4418
4420
4422
4424
4426
4428
4430
4432
4434
4436
4438
4440
4442
4444
4446
4448
4450
4452
4454
4456
4458
4460
4462
4464
4466
4468
4470
4472
4474
4476
4478
4480
4482
4484
4486
4488
4490
4492
4494
4496
4498
4500
4502
4504
4506
4508
4510
4512
4514
4516
4518
4520
4522
4524
4526
4528
4530
4532
4534
4536
4538
4540
4542
4544
4546
4548
4550
4552
4554
4556
4558
4560
4562
4564
4566
4568
4570
4572
4574
4576
4578
4580
4582
4584
4586
4588
4590
4592
4594
4596
4598
4600
4602
4604
4606
4608
4610
4612
4614
4616
4618
4620
4622
4624
4626
4628
4630
4632
4634
4636
4638
4640
4642
4644
4646
4648
4650
4652
4654
4656
4658
4660
4662
4664
4666
4668
4670
4672
4674
4676
4678
4680
4682
4684
4686
4688
4690
4692
4694
4696
4698
4700
4702
4704
4706
4708
4710
4712
4714
4716
4718
4720
4722
4724
4726
4728
4730
4732
4734
4736
4738
4740
4742
4744
4746
4748
4750
4752
4754
4756
4758
4760
4762
4764
4766
4768
4770
4772
4774
4776
4778
4780
4782
4784
4786
4788
4790
4792
4794
4796
4798
4800
4802
4804
4806
4808
4810
4812
4814
4816
4818
4820
4822
4824
4826
4828
4830
4832
4834
4836
4838
4840
4842
4844
4846
4848
4850
4852
4854
4856
4858
4860
4862
4864
4866
4868
4870
4872
4874
4876
4878
4880
4882
4884
4886
4888
4890
4892
4894
4896
4898
4900
4902
4904
4906
4908
4910
4912
4914
4916
4918
4920
4922
4924
4926
4928
4930
4932
4934
4936
4938
4940
4942
4944
4946
4948
4950
4952
4954
4956
4958
4960
4962
4964
4966
4968
4970
4972
4974
4976
4978
4980
4982
4984
4986
4988
4990
4992
4994
4996
4998
5000
5002
5004
5006
5008
5010
5012
5014
5016
5018
5020
5022
5024
5026
5028
5030
5032
5034
5036
5038
5040
5042
5044
5046
5048
5050
5052
5054
5056
5058
5060
5062
5064
5066
5068
5070
5072
5074
5076
5078
5080
5082
5084
5086
5088
5090
5092
5094
5096
5098
5100
5102
5104
5106
5108
5110
5112
5114
5116
5118
5120
5122
5124
5126
5128
5130
5132
5134
5136
5138
5140
5142
5144
5146
5148
5150
5152
5154
5156
5158
5160
5162
5164
5166
5168
5170
5172
5174
5176
5178
5180
5182
5184
5186
5188
5190
5192
5194
5196
5198
5200
5202
5204
5206
5208
5210
5212
5214
5216
5218
5220
5222
5224
5226
5228
5230
5232
5234
5236
5238
5240
5242
5244
5246
5248
5250
5252
5254
5256
5258
5260
5262
5264
5266
5268
5270
5272
5274
5276
5278
5280
5282
5284
5286
5288
5290
5292
5294
5296
5298
5300
5302
5304
5306
5308
5310
5312
5314
5316
5318
5320
5322
5324
5326
5328
5330
5332
5334
5336
5338
5340
5342
5344
5346
5348
5350
5352
5354
5356
5358
5360
5362
5364
5366
5368
5370
5372
5374
5376
5378
5380
5382
5384
5386
5388
5390
5392
5394
5396
5398
5400
5402
5404
5406
5408
5410
5412
5414
5416
5418
5420
5422
5424
5426
5428
5430
5432
5434
5436
5438
5440
5442
5444
5446
5448
5450
5452
5454
5456
5458
5460
5462
5464
5466
5468
5470
5472
5474
5476
5478
5480
5482
5484
5486
5488
5490
5492
5494
5496
5498
5500
5502
5504
5506
5508
5510
5512
5514
5516
5518
5520
5522
5524
5526
5528
5530
5532
5534
5536
5538
5540
5542
5544
5546
5548
5550
5552
5554
5556
5558
5560
5562
5564
5566
5568
5570
5572
5574
5576
5578
5580
5582
5584
5586
5588
5590
5592
5594
5596
5598
5600
5602
5604
5606
5608
5610
5612
      </DataArray>
      <DataArray type="UInt8" Name="types" format="ascii">
69
69
69
69
69
69
69
69
69
69
69
69
69
69
69
69
69
69
69
69
69
69
69
69
69
69
69
69
69
69
69
69
69
69
69
69
69
69
69
69
69
69
69
69
69
69
69
69
69
69
69
69
69
69
69
69
69
69
69
69
69
69
69
69
69
69
69
69
69
69
69
69
69
69
69
69
69
69
69
69
69
69
69
69
69
69
69
69
69
69
69
69
69
69
69
69
69
69
69
69
69
69
69
69
69
69
69
69
69
69
69
69
69
69
69
69
69
69
69
69
69
69
69
69
69
69
69
69
69
69
69
69
69
69
69
69
69
69
69
69
69
69
69
69
69
69
69
69
69
69
69
69
69
69
69
69
69
69
69
69
69
69
69
69
69
69
69
69
69
69
69
69
69
69
69
69
69
69
69
69
69
69
69
69
69
69
69
69
69
69
69
69
69
69
69
69
69
69
69
69
69
69
69
69
69
69
69
69
69
69
69
69
69
69
69
69
69
69
69
69
69
69
69
69
69
69
69
69
69
69
69
69
69
69
69
69
69
69
69
69
69
69
69
69
69
69
69
69
69
69
69
69
69
69
69
69
69
69
69
69
69
69
69
69
69
69
69
69
69
69
69
69
69
69
69
69
69
69
69
69
69
69
69
69
69
69
69
69
69
69
69
69
69
69
69
69
69
69
69
69
69
69
69
69
69
69
69
69
69
69
69
69
69
69
69
69
69
69
69
69
69
69
69
69
69
69
69
69
69
69
69
69
69
69
69
69
69
69
69
69
69
69
69
69
69
69
69
69
69
69
69
69
69
69
69
69
69
69
69
69
69
69
69
69
69
69
69
69
69
69
69
69
69
69
69
69
69
69
69
69
69
69
69
69
69
69
69
69
69
69
69
69
69
69
69
69
69
69
69
69
69
69
69
69
69
69
69
69
69
69
69
69
69
69
69
69
69
69
69
69
69
69
69
69
69
69
69
69
69
69
69
69
69
69
69
69
69
69
69
69
69
69
69
69
69
69
69
69
69
69
69
69
69
69
69
69
69
69
69
69
69
69
69
69
69
69
69
69
69
69
69
69
69
69
69
69
69
69
69
69
69
69
69
69
69
69
69
69
69
69
69
69
69
69
69
69
69
69
69
69
69
69
69
69
69
69
69
69
69
69
69
69
69
69
69
69
69
69
69
69
69
69
69
69
69
69
69
69
69
69
69
69
69
69
69
69
69
69
69
69
69
69
69
69
69
69
69
69
69
69
69
69
69
69
3
3
3
3
3
3
3
3
3
3
3
3
3
3
3
3
3
3
3
3
3
3
3
3
3
3
3
3
3
3
3
3
3
3
3
3
3
3
3
3
3
3
3
3
3
3
3
3
3
3
3
3
3
3
3
3
3
3
3
3
3
3
3
3
3
3
3
3
3
3
3
3
3
3
3
3
3
3
3
3
3
3
3
3
3
3
3
3
3
3
3
3
3
3
3
3
3
3
3
3
3
3
3
3
3
3
3
3
3
3
3
3
3
3
3
3
3
3
3
3
3
3
3
3
3
3
3
3
3
3
3
3
3
3
3
3
3
3
3
3
3
3
3
3
3
3
3
3
3
3
3
3
3
3
3
3
3
3
3
3
3
3
3
3
3
3
3
3
3
3
3
3
3
3
3
3
3
3
3
3
3
3
3
3
3
3
3
3
3
3
3
3
3
3
3
3
3
3
3
3
3
3
3
3
3
3
3
3
3
3
3
3
3
3
3
3
3
3
3
3
3
3
3
3
3
3
3
3
3
3
3
3
3
3
3
3
3
3
3
3
3
3
3
3
3
3
3
3
3
3
3
3
3
3
3
3
3
3
3
3
3
3
3
3
3
3
3
3
3
3
3
3
3
3
3
3
3
3
3
3
3
3
3
3
3
3
3
3
3
3
3
3
3
3
3
3
3
3
3
3
3
3
3
3
3
3
3
3
3
3
3
3
3
3
3
3
3
3
3
3
3
3
3
3
3
3
3
3
3
3
3
3
3
3
3
3
3
3
3
3
3
3
3
3
3
3
3
3
3
3
3
3
3
3
3
3
3
3
3
3
3
3
3
3
3
3
3
3
3
3
3
3
3
3
3
3
3
3
3
3
3
3
3
3
3
3
3
3
3
3
3
3
3
3
3
3
3
3
3
3
3
3
3
3
3
3
3
3
3
3
3
3
3
3
3
3
3
3
3
3
3
3
3
3
3
3
3
3
3
3
3
3
3
3
3
3
3
3
3
3
3
3
3
3
3
3
3
3
3
3
3
3
3
3
3
3
3
3
3
3
3
3
3
3
3
3
3
3
3
3
3
3
3
3
3
3
3
3
3
3
3
3
3
3
3
3
3
3
3
3
3
3
3
3
3
3
3
3
3
3
3
3
3
3
3
3
3
3
3
3
3
3
3
3
3
3
3
3
3
3
3
3
3
3
3
3
3
3
3
3
3
3
3
3
3
3
3
3
3
3
3
3
3
3
3
3
3
3
3
3
3
3
3
3
3
3
3
3
3
3
3
3
3
3
3
3
3
3
3
3
3
3
3
3
3
3
3
3
3
3
3
3
3
3
3
3
3
3
3
3
3
3
3
3
3
3
3
3
3
3
3
3
3
3
3
3
3
3
3
3
3
3
3
3
3
3
3
3
3
3
3
3
3
3
3
3
3
3
3
3
3
3
3
3
3
3
3
3
3
3
3
3
3
3
3
3
3
3
3
3
3
3
3
3
3
3
3
3
3
3
3
3
3
3
3
3
3
3
3
3
3
3
3
3
3
3
3
3
3
3
3
3
3
3
3
3
3
3
3
3
3
3
3
3
3
3
3
3
3
3
3
3
3
3
3
3
3
3
3
3
3
3
3
3
3
3
3
3
3
3
3
3
3
3
3
3
3
3
3
3
3
3
3
3
3
3
3
3
3
3
3
3
3
3
3
3
3
3
3
3
3
3
3
3
3
3
3
3
3
3
3
3
3
3
3
3
3
3
3
3
3
3
3
3
3
3
3
3
3
3
3
3
3
3
3
3
3
3
3
3
3
3
3
3
3
3
3
3
3
3
3
3
3
3
3
3
3
3
3
3
3
3
3
3
3
3
3
3
3
3
3
3
3
3
3
3
3
3
3
3
3
3
3
3
3
3
3
3
3
3
3
3
3
3
3
3
3
3
3
3
3
3
3
3
3
3
3
3
3
3
3
3
3
3
3
3
3
3
3
3
3
3
3
3
3
3
3
3
3
3
3
3
3
3
3
3
3
3
3
3
3
3
3
3
3
3
3
3
3
3
3
3
3
3
3
3
3
3
3
3
3
3
3
3
3
3
3
3
3
3
3
3
3
3
3
3
3
3
3
3
3
3
3
3
3
3
3
3
3
3
3
3
3
3
3
3
3
3
3
3
3
3
3
3
3
3
3
3
3
3
3
3
3
3
3
3
3
3
3
3
3
3
3
3
3
3
3
3
3
3
3
3
3
3
3
3
3
3
3
3
3
3
3
3
3
3
3
3
3
3
3
3
3
3
3
3
3
3
3
3
3
3
3
3
3
3
3
3
3
3
3
3
3
3
3
3
3
3
3
3
3
3
3
3
3
3
3
3
3
3
3
3
3
3
3
3
3
3
3
3
3
3
3
3
3
3
3
3
3
3
3
3
3
3
3
3
3
3
3
3
3
3
3
3
3
3
3
3
3
3
3
3
3
3
3
3
3
3
3
3
3
3
3
3
3
3
3
3
3
3
3
3
3
3
3
3
3
3
3
3
3
3
3
3
3
3
3
3
3
3
3
3
3
3
3
3
3
3
3
3
3
3
3
3
3
3
3
3
3
3
3
3
3
3
      </DataArray>
    </Cells>
    <PointData>
      <DataArray type="Float64" NumberOfComponents="2" Name="Displacement" format="ascii">
-0.00200917 -0.536739
0.00284742 -0.538064
-0.000639192 -0.53623
0.000312502 -0.535604
0.000813669 -0.535173
0.00116158 -0.534805
0.00137791 -0.534534
0.00151892 -0.53435
0.00157955 -0.534189
0.00158988 -0.534079
0.00155124 -0.534015
0.0014775 -0.533989
0.00136824 -0.533967
0.00123523 -0.533969
0.0010809 -0.533993
0.000914225 -0.534036
0.000736644 -0.534075
0.000556827 -0.534127
0.000379293 -0.534196
0.000210311 -0.534282
5.65557e-05 -0.534366
-7.79715e-05 -0.534474
-0.000186093 -0.534608
-0.000262041 -0.534775
-0.000291214 -0.534954
-0.000274496 -0.535185
-0.000197011 -0.535475
-5.08463e-05 -0.535836
0.000252405 -0.536217
0.000684512 -0.536733
0.00149314 -0.537446
-0.00996668 -0.53553
-0.00812924 -0.535624
-0.00630162 -0.535787
-0.0044019 -0.536139
-0.156273 -0.680684
-0.0117392 -0.535519
-0.0135142 -0.535549
-0.0161009 -0.535644
-0.0187094 -0.535804
-0.0224886 -0.536146
-0.0263118 -0.536611
-0.0319168 -0.537503
-0.0375883 -0.53865
-0.0458743 -0.540768
-0.0542094 -0.543416
-0.0602168 -0.545651
-0.0661942 -0.548161
-0.0721096 -0.550958
-0.0779387 -0.554011
-0.086167 -0.558871
-0.0941205 -0.564224
-0.101719 -0.570044
-0.0799602 -0.757419
-0.154949 -0.694605
-0.152046 -0.707068
-0.147936 -0.717942
-0.142854 -0.72724
-0.137137 -0.735074
0.104052 -0.472309
-0.0661997 -0.755598
-0.0499749 -0.750702
-0.031116 -0.742242
0 0
-0.0374718 -0.0338901
-0.0528026 -0.0560276
-0.0545988 -0.0738343
-0.0449143 -0.0957705
-0.0318408 -0.117193
-0.000441906 -0.512976
0 0
0 0
0 0
0 0
0.0299648 -0.497071
0.0603743 -0.43896
0.0797192 -0.316588
-0.102906 -0.473482
0.0376252 -0.0338419
0.0530415 -0.0562302
0.0548792 -0.0741479
0.0452265 -0.0961804
0.0321544 -0.117614
0.0802054 -0.758004
0.0664436 -0.75617
0.0503083 -0.751257
0.0313967 -0.742904
0.156205 -0.681614
0.091205 -0.758197
0.100767 -0.756912
0.109325 -0.754746
0.117017 -0.751499
0.124198 -0.74745
0.0105332 -0.53689
0.155704 -0.667035
0.153157 -0.651543
0.148343 -0.635462
0.141173 -0.619233
0.134783 -0.608176
0.12727 -0.597416
0.118646 -0.587146
0.109029 -0.577488
0.101827 -0.571274
0.0942508 -0.565477
0.0863201 -0.56014
0.078115 -0.555293
0.0664207 -0.549486
0.0544774 -0.544714
0.0461746 -0.542095
0.0379429 -0.540004
0.0322933 -0.538858
0.0087508 -0.537008
0.00697431 -0.53719
0.00508551 -0.537543
-0.0104568 -0.52155
0.0465286 -0.519456
0.0362274 -0.501408
0.0616297 -0.407184
-0.0620631 -0.431248
-0.00945157 -0.562213
-0.0187083 -0.51403
-0.0434679 -0.63797
-0.00795651 -0.544421
-0.128784 -0.656964
-0.039727 -0.072222
0.0390534 -0.0736223
-0.0679917 -0.60793
-0.0250288 -0.553194
-0.00767395 -0.575917
-0.0106444 -0.574747
0.00440877 -0.573272
-0.0140359 -0.573771
0.0114502 -0.576773
0.00565708 -0.558313
-0.00293214 -0.566406
0.00222855 -0.568746
-0.00793974 -0.558501
-0.0202157 -0.576573
-0.0285001 -0.582477
-0.0192561 -0.584852
0.00908816 -0.530691
-0.00712918 -0.531277
-0.0120177 -0.531194
0.0116965 -0.582398
0.0182107 -0.580504
-0.0205316 -0.546521
0.0195984 -0.545566
-0.00215824 -0.57398
0.0062245 -0.564159
0.0162677 -0.551509
-0.0188123 -0.550732
0.0020251 -0.573059
0.0077457 -0.531799
-0.00201101 -0.531694
-0.00802878 -0.532467
-0.0122214 -0.568292
0.0172635 -0.575294
0.0173256 -0.533507
0.016857 -0.541911
0.00226293 -0.558
-0.00627816 -0.561445
0.0072211 -0.564961
-0.00128897 -0.561633
-0.0177714 -0.543239
-0.0175372 -0.534277
-0.0266211 -0.576012
-0.0307742 -0.592868
0.0219736 -0.526517
0.00871252 -0.528198
-0.00409669 -0.530521
-0.0195142 -0.530429
-0.0396213 -0.603887
-0.0349122 -0.606896
0.0294111 -0.599533
0.0277265 -0.589862
0.0344753 -0.58669
0.0336088 -0.581312
-0.0269425 -0.526203
-0.0271942 -0.537713
0.025825 -0.537111
0.0380622 -0.521172
-0.0179642 -0.593458
0.00317676 -0.571786
0.0226825 -0.547213
-0.00247763 -0.570698
0.0264409 -0.60222
0.00922872 -0.532469
0.00586824 -0.531739
0.000488856 -0.532079
0.00279296 -0.531816
-0.00166234 -0.532744
-0.00433756 -0.533037
-0.00274185 -0.533037
-0.0075903 -0.533314
-0.0121574 -0.563551
-0.0215353 -0.568159
0.027588 -0.572957
0.0151988 -0.567677
0.0102234 -0.533182
0.0120953 -0.53393
0.0154665 -0.536292
0.0145948 -0.5396
0.00843067 -0.547782
0.00203806 -0.554432
-0.00258366 -0.555949
-0.00891659 -0.549325
-0.0152675 -0.540938
-0.0155276 -0.537616
-0.0112735 -0.534681
-0.0089488 -0.533913
-0.0299591 -0.573146
-0.0467056 -0.598651
0.0321068 -0.514923
-0.00225211 -0.527635
-0.0177878 -0.525315
-0.0559419 -0.625471
0.047903 -0.621738
0.0434431 -0.595544
0.0357115 -0.57535
-0.0423279 -0.519306
0.0503757 -0.511397
-0.0293647 -0.611533
0.0306105 -0.539384
-0.0554413 -0.504817
-0.0241149 -0.546669
0.00816265 -0.584801
0.00660816 -0.533156
0.00471678 -0.532624
0.0017334 -0.532832
-0.00075614 -0.533324
-0.00264329 -0.533613
-0.0048047 -0.534074
-0.015234 -0.561116
0.0170435 -0.562824
0.00857821 -0.534787
0.00907333 -0.539471
0.0011058 -0.549952
-0.00159409 -0.551191
-0.00874601 -0.540706
-0.00728182 -0.535666
-0.0290092 -0.559977
-0.0352397 -0.567529
-0.0401818 -0.576196
-0.0544878 -0.589001
-0.0858316 -0.630697
-0.0807543 -0.643408
0.0575373 -0.460335
0.0113928 -0.517036
-0.0468286 -0.487054
-0.0734053 -0.651315
0.0697944 -0.650113
0.0693106 -0.632619
0.0648221 -0.613119
0.0561702 -0.595731
0.0420202 -0.57409
0.0395757 -0.564258
-0.0579904 -0.488151
0.066044 -0.475943
-0.0620122 -0.651582
-0.014707 -0.603773
0.0613632 -0.494876
0.0411843 -0.636554
0.0688752 -0.666056
-0.04097 -0.527288
0.0100067 -0.59039
0.00464436 -0.533985
0.00544648 -0.53464
0.00376638 -0.53331
0.00451732 -0.533463
0.00211545 -0.533312
0.0030421 -0.533229
0.000135282 -0.533642
0.00102784 -0.533498
-0.00116412 -0.534006
-0.000455485 -0.533872
-0.00274307 -0.534304
-0.0020038 -0.534077
-0.0038718 -0.53544
-0.00311545 -0.534766
-0.00519415 -0.551612
-0.0112441 -0.555181
-0.0208338 -0.558623
0.0269961 -0.557802
0.0205579 -0.558518
0.00845985 -0.55487
0.00355598 -0.552686
0.00663935 -0.535951
0.00650869 -0.537828
0.00451993 -0.542091
0.00185296 -0.545243
-0.00301045 -0.546485
-0.00455351 -0.543328
-0.00587762 -0.538885
-0.00520809 -0.536804
-0.0293262 -0.548663
-0.0396673 -0.561524
-0.0619253 -0.578462
-0.0879258 -0.611706
-0.105677 -0.655202
0.0362299 -0.299073
0.0304183 -0.489984
0.00195565 -0.517893
-0.0223716 -0.504964
-0.0423903 -0.322814
-0.0934496 -0.683818
0.0960601 -0.687003
0.0891677 -0.630309
0.0544635 -0.581467
0.0370744 -0.553978
0.00442463 -0.1316
-0.0543691 -0.374549
-0.00755942 -0.125824
0.0471499 -0.354048
-0.0536551 -0.671137
0.0474896 -0.516639
0.0820654 -0.447131
0.0686535 -0.687284
-0.0793078 -0.460877
-0.0230938 -0.548614
0.00302904 -0.534583
0.00262615 -0.533877
0.00188548 -0.533753
0.000787458 -0.533923
-0.000290922 -0.53418
-0.00114978 -0.534562
-0.00165092 -0.535374
-0.0102201 -0.549196
-0.0208081 -0.548503
0.0178986 -0.549854
0.00640692 -0.549122
0.00293021 -0.536985
-0.000655734 -0.542628
-0.00437672 -0.543106
0.00372771 -0.545169
-0.00031199 -0.54382
-0.00188867 -0.537747
-0.0188304 -0.542717
0.0189172 -0.54539
-0.031302 -0.541347
-0.0354586 -0.546581
-0.0436417 -0.549163
-0.0496343 -0.557563
-0.0631335 -0.562411
-0.0752982 -0.57528
-0.08997 -0.58757
-0.10678 -0.607815
-0.123256 -0.628513
0.0265683 -0.317381
0.00981352 -0.476142
-0.00923918 -0.487468
-0.0252864 -0.341622
-0.128386 -0.681587
-0.123007 -0.701771
-0.114544 -0.71805
-0.10645 -0.734632
-0.0830002 -0.724973
0.0880995 -0.729594
0.1071 -0.733788
0.116848 -0.72003
0.123822 -0.70056
0.128522 -0.675559
0.119188 -0.645257
0.107723 -0.615901
0.0954652 -0.590724
0.0746869 -0.577013
0.0638123 -0.558191
0.0521183 -0.552763
0.0438091 -0.550137
0.0311256 -0.544479
0.0365617 -0.13077
-0.00255194 -0.237681
-0.0437084 -0.350425
-0.0370508 -0.128076
0.036352 -0.329307
0.00115649 -0.230746
-0.0563521 -0.7123
-0.0239213 -0.700558
0.0471762 -0.534016
0.0648397 -0.717186
-0.0176592 -0.577907
0.0364967 -0.694051
0.00127327 -0.535429
0.00107041 -0.536051
0.00161748 -0.534809
0.00185957 -0.534318
0.00177117 -0.534536
0.00191157 -0.534057
0.00173732 -0.533948
0.00184208 -0.533993
0.00144232 -0.533942
0.00105496 -0.533996
0.0012566 -0.533968
0.00063111 -0.534095
0.000201364 -0.534216
0.000415326 -0.534155
-0.000168315 -0.53437
-0.000491878 -0.534588
-0.000340907 -0.534474
-0.000668966 -0.534885
-0.000703117 -0.535348
-0.000710126 -0.535101
-0.000453503 -0.535993
4.44161e-05 -0.536996
-0.000247551 -0.536452
-0.0218992 -0.539782
-0.0257226 -0.54026
0.0255948 -0.543344
0.0217985 -0.54282
-0.0146211 -0.547136
-0.00861311 -0.540794
0.0123935 -0.547018
0.00883148 -0.546539
0.00957429 -0.542654
3.35662e-05 -0.538353
-0.000785332 -0.539769
0.00143001 -0.541496
0.000434466 -0.539535
-0.0156001 -0.538991
0.0162376 -0.540124
-0.0112234 -0.538813
-0.0130225 -0.538843
0.0136859 -0.539974
0.0119094 -0.539941
-0.00715027 -0.537989
-0.00341064 -0.538223
-0.00535479 -0.53808
0.00801075 -0.540114
0.00625933 -0.540133
0.00447784 -0.540178
0.00595124 -0.542443
-0.00467719 -0.539809
0.0133591 -0.54276
-0.012582 -0.541796
-0.00191864 -0.540683
0.00214754 -0.539631
0.011718 -0.550777
-0.0168363 -0.552342
0.0245881 -0.548235
-0.0251784 -0.543698
-0.00180079 -0.536208
-0.00143237 -0.534889
-0.000753779 -0.534347
0.000231562 -0.534053
0.00136194 -0.533818
0.00232765 -0.533761
0.00277736 -0.534172
0.00341994 -0.535441
0.0426507 -0.659103
-0.0175321 -0.629865
-0.00244479 -0.216689
-0.00262913 -0.22931
0.050003 -0.5601
0.077169 -0.601192
0.0993939 -0.662913
0.0925049 -0.706472
-0.0811504 -0.691847
-0.101077 -0.67168
-0.0463866 -0.441315
0.0494344 -0.412887
-0.106866 -0.63588
-0.0725018 -0.592467
-0.0459435 -0.569484
-0.0335887 -0.553669
0.00172087 -0.547394
-0.00413132 -0.546134
-0.0701397 -0.457358
0.0730258 -0.44185
0.00732254 -0.515433
-0.0092117 -0.537306
-0.00734989 -0.545294
0.00702954 -0.543952
0.0101465 -0.536199
0.0055864 -0.558019
0.0298836 -0.566855
-0.0250079 -0.565034
-0.00633526 -0.556894
-0.00556987 -0.534709
-0.00391962 -0.533678
-0.00149961 -0.533584
0.000201393 -0.533054
0.0033925 -0.532616
0.00590137 -0.532761
0.00712395 -0.533879
-0.0143613 -0.558359
0.0385224 -0.621637
-0.00834098 -0.588443
-0.0453796 -0.623729
0.0517914 -0.498328
-0.0351248 -0.514029
0.0417535 -0.584045
0.0471603 -0.609758
-0.0104362 -0.52986
0.0120171 -0.522918
-0.0628436 -0.619419
-0.0351674 -0.581407
-0.0309906 -0.537663
0.0296469 -0.537669
-0.0122517 -0.532832
-0.022331 -0.536254
-0.0103164 -0.552615
0.00973561 -0.55098
0.0211351 -0.535162
0.0132885 -0.532204
0.0257488 -0.578168
-0.0183867 -0.570597
-0.00425024 -0.532401
0.0011209 -0.530931
0.00954688 -0.582361
0.0121636 -0.559896
0.0139667 -0.581967
-0.0165427 -0.586374
0.00923914 -0.571622
-0.00634769 -0.565611
-0.00464301 -0.564684
0.000377595 -0.566365
-0.0222971 -0.58244
-0.0489005 -0.538606
0.00969011 -0.728582
-0.0255787 -0.633641
0.0059898 -0.664032
-0.00230011 -0.71901
0.0151252 -0.622246
-0.00942097 -0.728063
0.0704923 -0.509375
0.0357954 -0.596015
0.00270894 -0.718375
0.00508783 -0.649217
0.0173228 -0.580384
0.0179319 -0.278097
0.0414949 -0.323148
0.0234968 -0.266458
0.0663825 -0.38501
-0.0157568 -0.143612
0.00319554 -0.175887
0.00884551 -0.227879
-0.00222775 -0.226405
0.0139994 -0.271477
-0.0199454 -0.174792
-0.00919194 -0.185813
-0.0291786 -0.139282
0.0239234 -0.215224
0.0398961 -0.251319
-0.0419342 -0.111499
-0.0220677 -0.169254
-0.0222489 -0.292513
-0.0239166 -0.271378
-0.044924 -0.337365
-0.00917968 -0.23225
0.0160099 -0.144049
-0.0030689 -0.176457
-0.0715442 -0.402103
-0.0199438 -0.288185
-0.00106945 -0.23616
0.0190691 -0.179409
0.029221 -0.141177
0.00893355 -0.189487
0.041962 -0.112977
-0.0238432 -0.215976
-0.0397413 -0.252285
0.0196512 -0.176504
-0.0154216 -0.435565
0.0133902 -0.467773
0.0155497 -0.399878
0.00655527 -0.510462
0 0
0 0
-0.0132356 -0.205641
-0.0385375 -0.397691
-0.0285097 -0.465228
0.0167395 -0.418505
-0.0150789 -0.390025
-0.0148444 -0.460079
0.0142087 -0.186923
0 0
-0.0786907 -0.315499
-0.0082233 -0.507555
0.0317226 -0.445309
0.0398249 -0.369356
-0.0567684 -0.504222
-0.0580941 -0.506859
-0.020777 -0.555268
-0.08891 -0.462917
0.0122209 -0.599883
-0.0610598 -0.497003
-0.0731849 -0.467411
0.0745353 -0.478962
0.0478704 -0.520824
0.0790425 -0.48114
0.0141842 -0.566084
0.0900761 -0.452696
0.0777352 -0.448227
0.069971 -0.481336
0.0676309 -0.409658
0.0691626 -0.406903
0.0417139 -0.344609
0.022085 -0.28653
0.0634184 -0.401988
-0.0690863 -0.419914
-0.0493112 -0.364694
-0.0739449 -0.422051
-0.0296758 -0.305395
-0.0666839 -0.420997
-0.0210656 -0.232724
-0.040315 -0.319451
-0.0226096 -0.217164
-0.0507914 -0.385951
0.0073249 -0.0734878
0.00270696 -0.182883
-0.0249617 -0.274084
-0.00807855 -0.515202
-0.00643445 -0.512748
-0.0196348 -0.497417
-0.00057263 -0.517719
-0.0357017 -0.481211
-0.00848887 -0.515422
0.00460734 -0.516288
0.0144786 -0.508491
0.0234443 -0.483136
0.0086497 -0.506251
0.0416212 -0.459066
0.0202337 -0.507408
0.0148146 -0.21496
0.0189524 -0.19866
0.0372935 -0.294691
-0.00871518 -0.071219
0.0487766 -0.357234
0.0180843 -0.256299
-0.00690115 -0.173813
-0.0584346 -0.500865
-0.0416328 -0.52538
-0.018221 -0.554744
-0.0278355 -0.543427
0.0713541 -0.470061
0.04529 -0.518973
0.0168504 -0.556564
0.0185667 -0.553459
-0.0650058 -0.483541
-0.0498561 -0.514919
-0.0360254 -0.53341
-0.0439041 -0.522855
-0.0495026 -0.512992
-0.0513151 -0.505765
-0.0586739 -0.494648
-0.0403994 -0.515556
-0.0477379 -0.503354
-0.0653249 -0.472527
-0.0389087 -0.526701
0.0525017 -0.50381
0.0457141 -0.51095
0.0444822 -0.517013
0.0362329 -0.527541
0.0299436 -0.529014
0.0410459 -0.524734
-0.0316339 -0.520606
-0.0349128 -0.523474
-0.0325651 -0.529215
-0.0260912 -0.53028
-0.0264513 -0.520939
-0.0228872 -0.525601
-0.0184041 -0.52858
-0.0140748 -0.527903
0.0104598 -0.525838
0.00450144 -0.525793
0.00358672 -0.527981
-0.000254007 -0.52944
-0.00684473 -0.528835
0.00447421 -0.529714
0.0301532 -0.524435
0.0364858 -0.517228
0.0273645 -0.521425
0.0424788 -0.508039
0.0220242 -0.519721
0.0180411 -0.524549
0.0231186 -0.529726
0.0153418 -0.527376
0.00926416 -0.529492
0.0114838 -0.531194
0.00521014 -0.530777
0.0150929 -0.529044
0.0180036 -0.529694
0.0249395 -0.0375201
0.0242445 -0.0965922
0.0190985 -0.0502898
0.0252348 -0.141798
0 0
0 0
0.0304607 -0.0302289
0.0511084 -0.0830257
0.0410108 -0.104241
0.0466099 -0.0605013
-0.0558628 -0.296043
-0.0671069 -0.322006
-0.046799 -0.0599335
-0.0417066 -0.102132
-0.0510953 -0.0820831
-0.027749 -0.135572
0.0561059 -0.294746
0.0671724 -0.320258
-0.0306432 -0.0300895
-0.0198128 -0.0494038
-0.025999 -0.0938472
-0.0251187 -0.0371447
-0.0609454 -0.438277
-0.0307228 -0.496569
-0.0336381 -0.504087
-0.0215976 -0.509742
-0.0352423 -0.495422
-0.0053378 -0.516521
-0.0483558 -0.466796
-0.0421776 -0.501901
-0.0279717 -0.512981
-0.0571047 -0.461959
-0.0626182 -0.462969
-0.0538468 -0.485033
-0.0667277 -0.441505
-0.0559062 -0.431088
-0.0467877 -0.34661
-0.0612054 -0.403426
-0.0554739 -0.384248
0.0509091 -0.35849
0.0567814 -0.381705
0.0398822 -0.324826
0.066937 -0.421619
0.0568963 -0.403131
0.063508 -0.46387
0.0673977 -0.444549
0.061995 -0.434879
0.0706421 -0.459324
0.054565 -0.437795
0.0562671 -0.480606
0.0600299 -0.487489
0.0350528 -0.507835
0.0242927 -0.511442
0.0227627 -0.515563
0.0220081 -0.509562
0.00963264 -0.515558
0.0120079 -0.519428
0.0454947 -0.497977
0.0455564 -0.473372
0.0348112 -0.495196
0.0483484 -0.48464
0.059392 -0.498006
0.0539171 -0.508257
0.0657283 -0.483374
0.0332134 -0.535669
0.0591663 -0.496002
0.0495987 -0.514492
0.0378501 -0.530125
-0.00600326 -0.524967
-0.0145722 -0.523499
-0.00979074 -0.526898
-0.0231736 -0.519056
0.00132448 -0.522938
-0.00377002 -0.517965
-0.0148115 -0.517674
0.000125918 -0.519951
0.00976489 -0.679472
-0.0102334 -0.677575
-0.00656795 -0.702227
-0.00828477 -0.63635
-0.0226427 -0.665316
-0.0172168 -0.71447
0.0153725 -0.706334
0.02922 -0.691328
0.0216642 -0.659292
0.0249076 -0.585291
0.00972211 -0.614872
0.0192692 -0.625437
-0.00154851 -0.607468
0.0389979 -0.637753
0.0399482 -0.563599
0.0311683 -0.559057
0.0830815 -0.418034
0.0787241 -0.351112
0.0695066 -0.373832
0.0490258 -0.356406
0.0593633 -0.340813
0.0887013 -0.394406
-0.0785554 -0.353129
-0.0866094 -0.429818
-0.0715506 -0.384654
-0.0613375 -0.35091
-0.0551035 -0.37545
-0.0872341 -0.39629
-0.0747541 -0.485663
-0.075887 -0.492379
-0.0545588 -0.51681
-0.0962218 -0.464656
-0.0724878 -0.509913
-0.0322858 -0.55979
-0.0377891 -0.539299
-0.0745121 -0.480344
-0.0835904 -0.461086
-0.0017582 -0.588044
0.0138951 -0.608891
-0.00313164 -0.579123
0.0296286 -0.642024
0.0284719 -0.629548
-0.00553256 -0.572616
-0.0222891 -0.550463
-0.0191624 -0.563117
-0.000105419 -0.601874
-0.0598502 -0.499334
-0.0678259 -0.483134
-0.0684124 -0.484804
-0.0683763 -0.47705
-0.0719343 -0.46129
-0.0759653 -0.46385
-0.0703367 -0.483506
-0.0399391 -0.526837
-0.0487422 -0.51545
0.0296933 -0.544942
0.0154459 -0.570913
0.0320643 -0.548857
-0.0028848 -0.598071
0.0477369 -0.525442
0.0479421 -0.51758
0.0312827 -0.539439
0.0766187 -0.490229
0.0903352 -0.472671
0.0874375 -0.467216
0.0866753 -0.491771
0.0979621 -0.458046
0.0857548 -0.449309
0.0848669 -0.462341
0.0651608 -0.503549
0.058317 -0.522647
0.0789915 -0.462719
0.0759614 -0.465459
0.0721055 -0.479856
0.0751788 -0.44436
0.0746116 -0.461101
0.0613669 -0.496973
0.061637 -0.497979
0.0813274 -0.463522
0.0797219 -0.447392
0.0803353 -0.429169
0.0821358 -0.425867
0.0680452 -0.400078
0.0518454 -0.367734
0.0781301 -0.429393
0.0755555 -0.428087
0.0746392 -0.430107
0.0719959 -0.427284
0.0562201 -0.380869
-0.07354 -0.416499
-0.0871114 -0.439423
-0.083148 -0.441406
-0.0798329 -0.443522
-0.0588721 -0.387494
-0.0760919 -0.439991
-0.0745836 -0.445278
-0.0610725 -0.396641
-0.0714845 -0.44007
-0.0333245 -0.535678
-0.020714 -0.551646
-0.0298858 -0.540494
-0.0307772 -0.539774
-0.0163904 -0.556767
-0.0415295 -0.526145
0.0157188 -0.559862
0.000690787 -0.579742
-0.00127352 -0.58629
0.00358019 -0.573507
-0.0113598 -0.59489
-0.0165192 -0.614475
0.0313782 -0.537498
0.0317145 -0.536713
0.0178865 -0.554491
0.0319076 -0.536343
0.00506245 -0.570679
0.0464768 -0.517438
0.0551325 -0.505443
0.0389603 -0.527879
0.0106131 -0.563208
0.026514 -0.543645
0.041162 -0.526248
0.0486351 -0.515475
-0.00219095 -0.579156
0.0184884 -0.553633
0.0223406 -0.549128
0.0082053 -0.565229
-0.0045665 -0.571448
0.00883398 -0.587204
-0.00475745 -0.570504
0.024721 -0.607293
0.0234138 -0.602948
-0.00367424 -0.570734
-0.00573419 -0.570716
0.012408 -0.639945
0.0222981 -0.680025
0.0273622 -0.659828
0.00820247 -0.700048
0.0249027 -0.710577
0.0407854 -0.67467
-0.00393541 -0.622999
-0.0203344 -0.675387
-0.00339303 -0.685637
-0.00854086 -0.649715
-0.0152032 -0.706749
-0.0191735 -0.60187
-0.0338446 -0.653979
-0.0287262 -0.692113
-0.056133 -0.570847
-0.0463166 -0.624899
-0.0351576 -0.589502
-0.0433049 -0.67315
-0.0596348 -0.649639
0.051577 -0.706387
0.0441095 -0.727078
0.058702 -0.734413
-0.0777817 -0.618127
-0.0905372 -0.567613
0.0734107 -0.741191
0.0549794 -0.690255
0.068725 -0.564569
0.0503052 -0.559036
0.0517579 -0.603984
0.043418 -0.672608
0.0596452 -0.649195
-0.0417596 -0.706147
-0.0539454 -0.732674
-0.0378126 -0.729913
-0.0693832 -0.739574
0.0763985 -0.618111
0.092396 -0.56839
-0.0391785 -0.676903
0.0850952 -0.583875
0.0946867 -0.578467
0.0842573 -0.571746
0.102078 -0.58447
0.0267211 -0.537968
0.0229255 -0.537511
0.0762096 -0.566588
0.075697 -0.589449
0.0860425 -0.596547
0.101585 -0.603454
0.11712 -0.607376
0.11138 -0.59442
0.124428 -0.618192
0.019187 -0.53718
0.0166093 -0.537015
0.0925266 -0.608834
0.123965 -0.660774
0.139986 -0.664709
0.136259 -0.649246
0.142503 -0.679414
0.0140516 -0.536914
0.0122926 -0.536882
0.129468 -0.633368
0.108499 -0.655127
0.114096 -0.670121
0.125884 -0.688457
0.138088 -0.705439
0.141388 -0.693158
0.134425 -0.715955
0.13087 -0.742209
0.137145 -0.735814
0.112467 -0.682561
0.111862 -0.726905
0.119351 -0.739375
0.124715 -0.73273
0.11261 -0.744026
0.142846 -0.728023
0.147911 -0.718748
0.130082 -0.725407
0.104826 -0.714322
0.100406 -0.721236
0.0977766 -0.73193
0.0952206 -0.745633
0.104423 -0.746057
0.0849271 -0.744444
0.152006 -0.707925
0.154892 -0.695476
0.0906084 -0.717628
-0.0951048 -0.730429
-0.103971 -0.746119
-0.0928542 -0.743805
-0.112192 -0.744024
-0.130841 -0.741493
-0.124142 -0.746769
-0.0823196 -0.742464
-0.0827201 -0.708071
-0.0951435 -0.715838
-0.110454 -0.726312
-0.123658 -0.731618
-0.118954 -0.739348
-0.128984 -0.724265
-0.116925 -0.750852
-0.109205 -0.754102
-0.0983935 -0.707134
-0.125457 -0.691966
-0.14112 -0.695558
-0.137594 -0.705657
-0.142182 -0.682
-0.1006 -0.756279
-0.0910337 -0.757585
-0.133969 -0.716139
-0.112717 -0.687469
-0.114761 -0.677525
-0.115137 -0.618267
-0.11678 -0.60253
-0.124907 -0.613034
-0.10755 -0.592666
-0.108938 -0.576282
-0.11858 -0.585947
-0.132023 -0.62372
-0.114866 -0.632577
-0.106546 -0.622285
-0.0826464 -0.581418
-0.0845214 -0.570206
-0.0918359 -0.576347
-0.0764486 -0.56504
-0.127236 -0.596251
-0.13477 -0.607024
-0.0992633 -0.582368
-0.0810927 -0.590372
-0.0737312 -0.584182
-0.141192 -0.618121
-0.0704244 -0.558485
-0.0645811 -0.555508
-0.0585816 -0.553013
-0.0543374 -0.566413
-0.148368 -0.634395
-0.0578915 -0.503896
-0.0379358 -0.532449
-0.041058 -0.525728
0.0793209 -0.710186
0.0674863 -0.701207
0.0770148 -0.723784
0.0561898 -0.674279
0.0808483 -0.697797
0.064206 -0.496704
0.0632228 -0.501293
0.0767783 -0.479468
-0.0697024 -0.701202
-0.0705327 -0.718891
-0.0559985 -0.691178
-0.0368167 -0.652349
-0.0677986 -0.682341
0.0685041 -0.408678
0.0535888 -0.373358
-0.0712657 -0.420726
-0.0596164 -0.390258
0.0658151 -0.591256
0.0643666 -0.579725
0.0622725 -0.568453
0.0520282 -0.571072
0.104331 -0.638314
0.113484 -0.630834
0.0979619 -0.623933
0.0830464 -0.61587
0.094146 -0.646772
0.10731 -0.704653
0.120099 -0.710506
0.110011 -0.694953
0.0972869 -0.675108
0.0941639 -0.696486
-0.108491 -0.69415
-0.118522 -0.710062
-0.104875 -0.702034
-0.0870237 -0.687733
-0.0969622 -0.677891
-0.0886682 -0.600095
-0.0984313 -0.597734
-0.097207 -0.61014
-0.0975339 -0.623864
-0.0802383 -0.602078
-0.0623959 -0.570701
-0.0691971 -0.568829
-0.0685316 -0.577063
-0.0671964 -0.585451
-0.0538998 -0.573955
-0.052723 -0.510391
-0.0511938 -0.513003
0.0554192 -0.652585
0.055873 -0.662552
0.0688512 -0.675735
0.0421728 -0.646126
0.0815218 -0.68714
0.0542528 -0.643787
0.0396078 -0.628153
0.0586539 -0.500422
0.0654691 -0.48842
0.0665722 -0.598746
0.0551947 -0.588751
0.0479622 -0.583069
0.0489321 -0.589849
0.0668552 -0.622934
0.0788659 -0.632231
0.0770712 -0.621896
0.0847703 -0.648163
0.0706275 -0.607781
0.0558011 -0.611963
0.0583055 -0.621167
0.0690685 -0.657754
0.0826167 -0.677725
0.0835664 -0.669026
0.0844197 -0.657758
0.0544179 -0.637153
-0.0674536 -0.651742
-0.0838477 -0.667727
-0.0782595 -0.669082
-0.0874363 -0.662368
-0.0721252 -0.671533
-0.0537154 -0.637215
-0.0596208 -0.63815
-0.0830393 -0.63731
-0.0959761 -0.643068
-0.0932405 -0.649901
-0.0963011 -0.633666
-0.106087 -0.645759
-0.103111 -0.663659
-0.0912343 -0.65771
-0.071885 -0.631351
-0.0743145 -0.62546
-0.0634149 -0.590953
-0.0580363 -0.584072
-0.0500795 -0.579299
-0.0447003 -0.585399
0.0274222 -0.619594
0.0259634 -0.612972
0.0109044 -0.593923
0.0541166 -0.604327
0.0604126 -0.604409
0.0496822 -0.595926
0.0424891 -0.589893
0.0451403 -0.602706
0.0590206 -0.635842
0.0692365 -0.641394
0.0584933 -0.627854
0.0473024 -0.615829
0.0429586 -0.622047
-0.0684108 -0.634944
-0.076804 -0.647606
-0.0647566 -0.63824
-0.0504847 -0.624956
-0.0591691 -0.622737
0.0322722 -0.611428
0.0174075 -0.59401
0.0087237 -0.583671
0.0178362 -0.591982
-0.00757284 -0.583454
-0.0233859 -0.601876
-0.0131633 -0.591554
-0.0317308 -0.608685
-0.0373309 -0.618212
-0.0191348 -0.600826
-0.0024057 -0.57606
0.0373551 -0.599658
0.0354476 -0.593054
0.0265838 -0.584145
0.0207592 -0.58619
0.0278222 -0.601007
0.0372023 -0.612343
0.0386009 -0.610421
0.0381986 -0.605071
0.0194368 -0.591252
-0.0371462 -0.605584
-0.047736 -0.614476
-0.0454511 -0.616426
-0.0511875 -0.612
-0.0400318 -0.615055
-0.0256119 -0.596401
-0.0279854 -0.595534
-0.0547418 -0.608904
-0.0429672 -0.601622
-0.0343046 -0.590756
-0.0408335 -0.589925
-0.0264331 -0.600668
-0.0170638 -0.589904
0.0284117 -0.594773
0.0215324 -0.590529
-0.0769745 -0.619282
-0.0778741 -0.610145
-0.0866265 -0.62151
-0.0700094 -0.600561
-0.0651755 -0.61399
-0.0503432 -0.594271
-0.0612024 -0.598404
-0.0572582 -0.603596
-0.117115 -0.656641
-0.128447 -0.669614
-0.117522 -0.668885
-0.143205 -0.669664
-0.118114 -0.646691
-0.138687 -0.640048
-0.140764 -0.654352
-0.125977 -0.643081
-0.153199 -0.650525
-0.155742 -0.66605
-0.0297332 -0.622234
-0.048896 -0.653311
-0.035714 -0.63934
-0.0635682 -0.667105
-0.0265761 -0.613676
-0.0461675 -0.632289
-0.0527161 -0.64534
-0.0363247 -0.623771
-0.00623851 -0.496373
-0.0155132 -0.487281
-0.0460203 -0.347382
-0.0537479 -0.372761
-0.0457844 -0.405519
-0.0483037 -0.432437
0.0315804 -0.469209
0.0336506 -0.447728
-0.00652663 -0.564519
-0.0175329 -0.551952
0.0466613 -0.482784
0.0460164 -0.491555
0.00195568 -0.513954
0.00791288 -0.51113
-0.0540776 -0.0728197
-0.0490917 -0.0721499
-0.0136044 -0.0623392
-0.012238 -0.0306867
0.0303732 -0.473888
0.0224162 -0.47092
0.0546867 -0.315132
0.0524076 -0.375937
-0.0533135 -0.482909
-0.0536119 -0.471517
-0.00084829 -0.00268859
-0.00522311 -0.0304451
-0.0721256 -0.386832
-0.0402889 -0.349138
0.0738979 -0.444684
0.0706552 -0.421589
-0.0256319 -0.303124
-0.017219 -0.270563
-0.0182208 -0.226918
-0.0215163 -0.215176
-0.0097539 -0.514231
-0.00958213 -0.514752
-0.046306 -0.349304
-0.0534925 -0.371607
0.0206242 -0.0196468
0.0369484 -0.0365707
0.0232742 -0.528004
0.0250466 -0.530546
0.0537453 -0.488226
0.0504419 -0.499264
-0.0844338 -0.417909
-0.059478 -0.376984
0.0260185 -0.51866
0.0206721 -0.51796
0.0429973 -0.332074
0.0367071 -0.328155
0.0245428 -0.526661
0.0204763 -0.525724
-0.0332884 -0.530851
-0.0275739 -0.53867
0.0481344 -0.515918
0.0475 -0.517734
-0.00146355 -0.235678
0.013887 -0.192454
0.028783 -0.399978
0.0357016 -0.362868
-0.00886225 -0.485161
-0.019402 -0.476668
-0.0160024 -0.470483
-0.00571136 -0.480407
0.00283586 -0.139518
0.00628503 -0.170218
-0.0140197 -0.541355
-0.00554923 -0.543913
-0.05649 -0.382009
-0.0723784 -0.42229
0.00343978 -0.532494
0.00163933 -0.531834
-0.00484274 -0.383487
-0.000407496 -0.419699
-0.0290629 -0.461029
-0.0537501 -0.455412
-0.0370624 -0.478352
-0.0267331 -0.466961
-0.0464092 -0.515472
-0.0394339 -0.52165
0.0598603 -0.399676
0.0625643 -0.406211
-0.0782194 -0.375924
-0.0733813 -0.411748
-0.0348921 -0.301621
-0.0285653 -0.247522
-0.0208204 -0.241417
-0.0194289 -0.253594
-0.0285509 -0.288557
-0.0399881 -0.328289
-0.0261534 -0.237176
-0.0237177 -0.249281
-0.0580405 -0.483064
-0.0521367 -0.49195
-0.0450648 -0.494709
-0.037268 -0.502208
-0.042855 -0.497031
-0.0448536 -0.500139
-0.054925 -0.50327
-0.0507638 -0.507651
-0.00874746 -0.210452
0.00338081 -0.190895
-0.0051967 -0.516305
-0.0129515 -0.514132
-0.0474326 -0.439409
-0.0390351 -0.452664
0.052994 -0.369401
0.0454377 -0.343408
-0.0119837 -0.516174
-0.0113691 -0.515424
-0.0366969 -0.519701
-0.0384954 -0.521828
-0.0581442 -0.485546
-0.0624715 -0.469268
0.0576252 -0.401691
0.0527616 -0.369182
-0.00924863 -0.503815
-0.0171525 -0.504347
0.0328278 -0.111371
0.0274333 -0.100776
-0.0418131 -0.523488
-0.0498391 -0.512282
-0.0344526 -0.0851592
-0.0261511 -0.0923657
-0.000105349 -0.518344
-0.000313311 -0.517221
-0.0748004 -0.443945
-0.0694889 -0.416858
0.0247715 -0.505998
0.0165913 -0.511996
-0.0659721 -0.446283
-0.0656924 -0.424874
-0.0316512 -0.49698
-0.0252628 -0.505922
0.0390361 -0.122184
0.0338616 -0.137783
-0.00877342 -0.202974
-0.00110799 -0.229634
0.045824 -0.352932
0.0294402 -0.309936
0.0431197 -0.522123
0.0624851 -0.494943
-0.0158147 -0.534202
-0.0101104 -0.533596
-0.0253755 -0.299755
-0.0374655 -0.334565
-0.00142558 -0.225454
-0.000513108 -0.20851
0.0789988 -0.446469
0.0820589 -0.467174
-0.00620751 -0.513746
-0.00177483 -0.516964
-0.0155604 -0.531585
-0.00947926 -0.53213
-0.0403105 -0.524895
-0.0372787 -0.530545
-0.0160091 -0.400468
-0.00625786 -0.369072
0.028142 -0.26795
0.0318755 -0.32565
0.0104304 -0.237932
0.0137539 -0.260965
0.0379871 -0.0376229
0.035069 -0.0425426
0.0594078 -0.498234
0.0649014 -0.483658
0.0145198 -0.24808
0.0272636 -0.290518
0.0054583 -0.208744
0.0197125 -0.167773
0.0480167 -0.517378
0.0379755 -0.530174
0.0136813 -0.52725
0.0183508 -0.527774
0.0591818 -0.498591
0.0572257 -0.501442
-0.0515676 -0.401125
-0.0542783 -0.390233
0.000686178 -0.53391
-0.000320632 -0.533325
-0.0258286 -0.290722
-0.0273434 -0.283236
-0.0245383 -0.0672013
-0.0283858 -0.051089
-0.00806001 -0.0477279
0.000133132 -0.0500014
0.0395342 -0.0362701
0.0477833 -0.0510738
-0.0395749 -0.527552
-0.0568563 -0.503983
-0.00277777 -0.516343
-0.00496678 -0.514279
-0.00356344 -0.513447
-0.00119158 -0.506929
-0.0267501 -0.529016
-0.0197027 -0.530814
-0.0126727 -0.206502
-0.00457795 -0.160936
-0.0731521 -0.462791
-0.0686492 -0.476724
-0.00126513 -0.517215
0.000404205 -0.518137
0.0674399 -0.472662
0.0702927 -0.454984
0.027804 -0.144274
0.0363615 -0.11362
0.0582996 -0.496987
0.0521568 -0.506531
0.0109024 -0.433396
-0.00807168 -0.435285
0.00789931 -0.513165
0.0023032 -0.516594
-0.0139958 -0.129055
-0.015817 -0.0969832
-0.0164512 -0.176806
-0.0272629 -0.140555
-0.0217664 -0.532963
-0.0147449 -0.534892
-0.0246813 -0.27965
-0.00883308 -0.275985
0.0702941 -0.467581
0.0697057 -0.447937
-0.0137272 -0.179515
-0.0155806 -0.20687
-0.0243449 -0.236341
-0.0165237 -0.229673
-0.0189018 -0.0230067
-0.0211645 -0.0213276
-0.0439254 -0.329506
-0.0459902 -0.33948
0.0019896 -0.517394
0.000396923 -0.518422
0.00306278 -0.0500254
0.00632336 -0.0275564
0.0624827 -0.483586
0.0665121 -0.466657
-0.0524432 -0.398952
-0.0472871 -0.375577
-0.0444456 -0.106787
-0.0419831 -0.10729
-0.0355863 -0.485268
-0.0223788 -0.480369
-0.0234449 -0.486104
-0.0278181 -0.491303
-0.0132421 -0.49238
-0.00693374 -0.47941
0.0538956 -0.495245
0.0472975 -0.502751
0.0542247 -0.458922
0.0512485 -0.447671
-0.0310473 -0.287594
-0.0358889 -0.312532
-0.0538446 -0.50818
-0.0551421 -0.504183
-0.00487514 -0.504622
-0.00139848 -0.513189
0.00496824 -0.509326
0.0125402 -0.50381
-0.0205195 -0.267203
-0.00797491 -0.224294
-0.00253563 -0.00329538
-0.0178182 -0.0270384
-0.0388035 -0.313084
-0.035096 -0.308719
0.0168934 -0.488846
0.00583723 -0.480987
0.0523606 -0.31491
0.0138204 -0.32093
0.0275708 -0.419381
0.0668036 -0.406917
-0.0191436 -0.0473149
-0.0105327 -0.0297913
-0.065332 -0.458502
-0.0681216 -0.450484
0.0205483 -0.273079
0.0217155 -0.287339
-0.0387772 -0.530018
-0.0492717 -0.515494
0.0240236 -0.507446
0.0324192 -0.501391
-0.0256441 -0.505039
-0.0280701 -0.506266
-0.0499876 -0.49885
-0.0561926 -0.489715
0.0659349 -0.48274
0.0639224 -0.484801
-0.000528024 -0.520409
0.00332699 -0.522334
-0.0255328 -0.527631
-0.0255242 -0.524863
0.0718669 -0.45345
0.0690871 -0.457106
0.0291669 -0.523716
0.0339837 -0.52361
-0.0450421 -0.0863782
-0.0496104 -0.0881462
-0.0179667 -0.51233
-0.0258496 -0.508605
-0.0556353 -0.440488
-0.0524449 -0.426062
0.0122358 -0.532298
0.00684615 -0.533339
0.0595473 -0.389462
0.0602891 -0.391601
0.0131469 -0.385238
0.0213546 -0.418603
0.0160845 -0.229098
0.0150643 -0.201301
0.00541915 -0.00381542
0.0250519 -0.0215577
-0.00296087 -0.0511017
0.00669922 -0.118865
-0.0219043 -0.0772357
-0.0151634 -0.116296
0.0394731 -0.0489153
0.0267706 -0.027133
-0.0174516 -0.495665
-0.0251494 -0.492635
0.0309739 -0.53887
0.0182787 -0.553544
-0.0409407 -0.481677
-0.044524 -0.464551
-0.0344484 -0.0799203
-0.0266253 -0.0838963
0.0194751 -0.508514
0.0279908 -0.500934
0.0275196 -0.125656
0.0375075 -0.104509
-0.0229147 -0.539929
-0.0227284 -0.535652
-0.00373827 -0.526346
-0.0117549 -0.525479
-0.0225386 -0.108621
-0.0115146 -0.144961
-0.0529855 -0.370997
-0.0556307 -0.395267
-0.0613086 -0.471361
-0.0610745 -0.482151
0.0182389 -0.223545
0.0316059 -0.267048
0.0259233 -0.532132
0.0308555 -0.531765
0.0634231 -0.473962
0.059024 -0.490237
0.00684792 -0.251786
0.00365067 -0.236853
0.0113404 -0.532614
0.0124837 -0.535494
-0.00467483 -0.433514
0.0129382 -0.429052
0.030496 -0.136943
0.0367948 -0.129972
-0.0147611 -0.517056
-0.0164854 -0.519017
-0.0437802 -0.521209
-0.0349312 -0.531157
-0.0441254 -0.522717
-0.0366503 -0.531038
0.0499395 -0.409893
0.0490143 -0.437993
-0.0105206 -0.467465
-0.0152404 -0.442647
-0.00799531 -0.515473
-0.00435093 -0.516454
0.0194796 -0.39192
-0.00625882 -0.391523
0.0240955 -0.241907
0.0317084 -0.30261
0.0456928 -0.421692
0.0467741 -0.444798
-0.0131757 -0.319199
-0.0165863 -0.246364
0.0080333 -0.5149
0.014065 -0.511971
0.0210642 -0.536358
0.0223575 -0.531704
0.0293792 -0.251029
0.0275791 -0.260342
0.0414309 -0.52554
0.0461509 -0.519856
-0.0468346 -0.350212
-0.0426868 -0.343823
-0.0289353 -0.284906
-0.0355786 -0.2979
-0.0495373 -0.512177
-0.0427054 -0.522795
0.0574621 -0.481193
0.0516251 -0.494147
-0.00181837 -0.516565
-0.00228037 -0.51617
0.0270347 -0.535892
0.0195354 -0.544791
0.00532432 -0.516095
0.00510146 -0.516163
-0.00115233 -0.516709
-0.00526956 -0.516244
0.0522405 -0.500428
0.0528079 -0.49305
-0.0477344 -0.0930166
-0.0422225 -0.11295
0.0203695 -0.530697
0.0141059 -0.533026
-0.0176645 -0.182331
-0.010269 -0.202861
0.0471296 -0.43827
0.0529885 -0.437534
-0.021799 -0.501
-0.0161908 -0.509037
0.0333472 -0.524594
0.0303095 -0.523165
-0.0101176 -0.189964
-0.00251826 -0.143769
-0.0186007 -0.378384
-0.00165054 -0.335705
-0.00203899 -0.514789
-0.00500605 -0.515072
-0.0366529 -0.515005
-0.0394128 -0.516717
0.0446823 -0.521901
0.0540058 -0.508111
-0.0222189 -0.428134
-0.0201911 -0.454914
0.0117943 -0.51883
0.0148905 -0.520574
0.049397 -0.513602
0.0383275 -0.528773
-0.0230166 -0.516522
-0.0317691 -0.512732
0.0420507 -0.0873807
0.0480588 -0.0818268
0.0721776 -0.451585
0.0695527 -0.463268
0.00567101 -0.515851
-0.0026828 -0.516652
0.060804 -0.429913
0.0577163 -0.40556
0.00505584 -0.219434
0.0111606 -0.200467
-0.00280932 -0.223348
-0.0165315 -0.252333
-0.00768115 -0.53659
-0.00180741 -0.540479
0.0173097 -0.0255425
0.028017 -0.0519808
0.0485044 -0.0784642
0.0428619 -0.0749507
-0.0228242 -0.538158
-0.0152136 -0.54048
-0.0232358 -0.513919
-0.0316693 -0.508265
0.0457884 -0.349034
0.00962346 -0.350955
-0.00328606 -0.517618
-0.000644359 -0.518743
-0.0310135 -0.512452
-0.0292698 -0.510227
-0.0350766 -0.0802068
-0.0349534 -0.0547878
-0.00456624 -0.516808
0.00176371 -0.517407
0.00100961 -0.51747
-0.000790964 -0.518899
-0.0662537 -0.467677
-0.0627348 -0.473344
-0.0469384 -0.517593
-0.0424771 -0.524184
-0.0342824 -0.309702
-0.0403659 -0.334975
-0.00163054 -0.463843
0.00510917 -0.480967
0.000502406 -0.518055
0.00578425 -0.515585
0.020914 -0.515835
0.0295133 -0.513071
0.0286213 -0.0901057
0.024453 -0.124703
-0.0158549 -0.323946
-0.0270034 -0.357645
0.0153364 -0.176473
0.0121793 -0.196827
0.0240332 -0.53429
0.017027 -0.535785
0.0179679 -0.465416
0.0398959 -0.452189
0.0287032 -0.489035
0.0227459 -0.488248
0.00392627 -0.139908
0.00935098 -0.156565
0.00735605 -0.545715
0.00479626 -0.540014
0.0494322 -0.504835
0.0526043 -0.504532
-0.0313188 -0.499414
-0.0383221 -0.494528
-0.0379973 -0.310722
-0.0445822 -0.332981
0.0760002 -0.428507
0.066037 -0.406853
0.00464564 -0.032686
-0.00514203 -0.106079
0.0204944 -0.534815
0.0217798 -0.538728
-0.0323749 -0.319142
-0.042984 -0.348996
0.0214102 -0.0960375
0.02038 -0.0637006
-0.00267022 -0.509861
0.000834152 -0.515124
-0.0245513 -0.295203
-0.0366488 -0.331371
-0.0545638 -0.396271
-0.0515487 -0.366629
-0.0659492 -0.418943
-0.0606148 -0.399069
0.041924 -0.104575
0.038882 -0.122993
0.0426397 -0.493544
0.0353099 -0.498958
-0.0242816 -0.489145
-0.0125469 -0.483823
-0.0372983 -0.498498
-0.0290811 -0.505175
-0.0216023 -0.142228
-0.00579514 -0.213513
-0.0603738 -0.494031
-0.0554031 -0.502032
0.0147858 -0.528136
0.0170599 -0.529576
-0.0113849 -0.431878
0.00317419 -0.449716
0.0289121 -0.280929
0.041549 -0.323438
-0.053186 -0.0611912
-0.0515717 -0.0760415
-0.0456715 -0.355319
-0.0277407 -0.307612
-0.0148146 -0.243059
-0.0247932 -0.262558
0.0179462 -0.479706
0.00308576 -0.485357
0.0529372 -0.37236
0.0362607 -0.329686
-0.00391357 -0.529893
-0.00129246 -0.528196
-0.00338797 -0.537526
-0.00683575 -0.542486
-0.0335899 -0.31257
-0.0423442 -0.343292
-0.0288407 -0.49032
-0.0212595 -0.501477
0.063536 -0.404605
0.069724 -0.429719
-0.00119691 -0.528165
-0.00449573 -0.526286
-0.0602528 -0.461062
-0.0556665 -0.466434
-0.0823908 -0.469375
-0.0727076 -0.480147
-0.0282829 -0.141149
-0.0327191 -0.139299
0.0213894 -0.0311132
0.0131833 -0.0190677
0.0157475 -0.119335
0.0256628 -0.0874164
0.028504 -0.536343
0.018654 -0.545016
-0.00428115 -0.0134813
-0.00544403 -0.0307576
-0.0704871 -0.428504
-0.0623079 -0.399112
0.0257278 -0.236526
0.0141841 -0.186497
0.0270536 -0.153112
0.0234799 -0.168115
0.0530495 -0.508596
0.0683735 -0.483948
0.0551174 -0.505916
0.0620605 -0.494659
-0.0357495 -0.281146
-0.0442263 -0.326636
0.00588763 -0.136056
-0.00781944 -0.0726071
0.0586299 -0.499701
0.064818 -0.48628
-0.00034427 -0.510082
0.00321743 -0.501132
0.0176559 -0.383891
-0.00791171 -0.365886
0.0433585 -0.327583
0.0347371 -0.289239
0.0302144 -0.0658503
0.0233935 -0.0770994
0.0109927 -0.484765
0.00979966 -0.499537
0.0161916 -0.150704
0.00559152 -0.162556
-0.0502713 -0.364687
-0.0362622 -0.324265
-0.0562607 -0.50054
-0.0587085 -0.490748
0.00122134 -0.534842
0.00280237 -0.535938
0.0603631 -0.48503
0.0555172 -0.499447
0.0400368 -0.526083
0.0572652 -0.50233
0.00229077 -0.452197
-0.00723002 -0.469355
0.0147312 -0.0185852
0.0276333 -0.042979
0.0140796 -0.141566
0.0172594 -0.156761
-0.00646118 -0.0197559
-0.0144305 -0.0362059
-0.0462556 -0.519958
-0.0501055 -0.514623
0.00649286 -0.234963
0.0206459 -0.269223
-0.0862136 -0.451736
-0.0797569 -0.490135
0.00385521 -0.219095
0.0108634 -0.257833
0.000592544 -0.527194
-0.00705758 -0.527238
-0.00196884 -0.219135
-0.00405043 -0.221354
-0.0409647 -0.513842
-0.0331395 -0.519557
0.00378606 -0.467381
-0.00855072 -0.4782
-0.0333833 -0.0980314
-0.0261316 -0.0954485
-0.0377279 -0.504818
-0.0291672 -0.511055
0.0492313 -0.44143
0.0510136 -0.457618
0.0402624 -0.108434
0.0364978 -0.129992
-8.11085e-05 -0.517302
0.00135257 -0.517065
0.0289874 -0.252192
0.0392519 -0.299526
-0.0131947 -0.0784228
-0.00642863 -0.0783951
0.0344863 -0.518655
0.0298654 -0.518206
-0.04172 -0.040621
-0.0231868 -0.0197283
0.0219376 -0.2736
0.0254948 -0.294449
-0.0371054 -0.530575
-0.0544549 -0.507451
-0.0432948 -0.345833
-0.0368581 -0.300269
-0.0241467 -0.540223
-0.0201527 -0.539184
-0.0486779 -0.493857
-0.0542145 -0.480651
-0.000186234 -0.518105
0.000438625 -0.51782
-0.0194007 -0.532783
-0.0196442 -0.536502
0.0323029 -0.266416
0.0409548 -0.310046
-0.034578 -0.516003
-0.0345937 -0.519812
-0.0330412 -0.323094
-0.0210153 -0.290757
-0.0564912 -0.388379
-0.0574214 -0.40615
-0.0136914 -0.507431
-0.0201807 -0.497064
0.0125917 -0.473248
0.0268417 -0.479461
-0.0014986 -0.540181
-0.00162366 -0.535918
-0.00214074 -0.516748
-0.00372598 -0.516522
0.0607428 -0.495089
0.0643929 -0.482625
0.0237806 -0.509137
0.0305528 -0.502074
-0.0559286 -0.419593
-0.0566976 -0.398567
0.0473286 -0.307451
0.00847411 -0.306599
0.0478812 -0.446027
0.0474826 -0.464807
0.00851052 -0.509231
0.00974774 -0.499454
-0.0456247 -0.498861
-0.0378064 -0.506545
-0.0277778 -0.524867
-0.0315356 -0.520168
0.0288713 -0.516662
0.0356032 -0.515283
-0.0457525 -0.514496
-0.0434983 -0.513037
0.0248639 -0.524714
0.0245575 -0.527749
-0.0663755 -0.474276
-0.0618319 -0.491658
-0.00122395 -0.530596
-0.00254134 -0.531958
-0.0145948 -0.4884
-0.00516649 -0.49686
-0.0327111 -0.314485
-0.0179529 -0.277026
0.055765 -0.427439
0.071224 -0.3968
-0.0607513 -0.494535
-0.0665722 -0.478973
-0.0481053 -0.511973
-0.0406744 -0.52117
-0.00266346 -0.560233
-0.0138817 -0.552713
-0.0485104 -0.48398
-0.0496286 -0.471259
-0.0169253 -0.217978
-0.0133555 -0.226542
0.0571467 -0.439353
0.0546486 -0.418755
0.0585317 -0.393888
0.0625783 -0.422512
-0.0151502 -0.51922
-0.0242163 -0.516219
-0.0689447 -0.409438
-0.0531007 -0.373447
-0.0321333 -0.466763
-0.0234426 -0.486006
0.0289291 -0.514067
0.0263865 -0.512309
0.0554792 -0.505042
0.0537455 -0.507762
0.00453392 -0.173623
0.0173565 -0.149818
-0.056757 -0.381173
-0.0566672 -0.418361
-0.0175939 -0.537009
-0.0177952 -0.533193
0.0248941 -0.488332
0.0334133 -0.477327
-0.0649468 -0.47488
-0.0625882 -0.472382
-0.0363474 -0.513348
-0.0353503 -0.509894
-0.0430698 -0.0954468
-0.0425132 -0.110689
0.00788918 -0.42724
-0.00526843 -0.403499
-0.0279682 -0.510099
-0.0363218 -0.502772
-0.0422238 -0.504683
-0.0340254 -0.511352
-0.0128374 -0.0246387
-0.0143981 -0.0476671
-0.00153163 -0.317441
0.00732864 -0.373835
0.00771301 -0.380709
0.017623 -0.336727
0.00507092 -0.0783964
-0.00642436 -0.13671
-0.012596 -0.527498
-0.00600706 -0.52886
0.0461777 -0.405432
0.0440844 -0.435274
-0.0125208 -0.183909
0.00323741 -0.138477
0.101263 -0.4641
0.0752726 -0.413993
-0.00337978 -0.51412
-0.000985742 -0.517626
-0.0420641 -0.0428909
-0.0362059 -0.0435539
-0.0315666 -0.104764
-0.0247668 -0.139633
-0.0274525 -0.133921
-0.0279246 -0.150824
0.0251433 -0.363455
0.0290578 -0.314854
-0.0159563 -0.503801
-0.00829215 -0.511973
-0.00805096 -0.138267
-0.0145374 -0.217307
-0.0201189 -0.515786
-0.0279563 -0.513895
0.0550017 -0.376965
0.055065 -0.388143
0.091339 -0.445143
0.0727204 -0.413652
0.00624127 -0.244778
0.0222854 -0.288271
0.0451732 -0.518669
0.0382001 -0.525083
-0.0164434 -0.273408
-0.00542569 -0.235412
-0.00754943 -0.532271
-0.0126236 -0.531027
-0.0094621 -0.533144
-0.00614435 -0.532416
-0.0262815 -0.542216
-0.015904 -0.550817
0.00626651 -0.0980778
-0.00579191 -0.15148
-0.0563819 -0.489927
-0.0614839 -0.475074
0.070324 -0.449173
0.0724878 -0.441418
-0.0637956 -0.490754
-0.0657911 -0.4824
-0.0253581 -0.485832
-0.0331745 -0.49317
0.00603939 -0.122099
-0.00604093 -0.0449671
0.0571291 -0.485496
0.051563 -0.498652
-0.0239043 -0.481816
-0.0144987 -0.469238
-0.00648458 -0.396674
-0.0133404 -0.426536
-0.0163835 -0.0187479
-0.00117065 -0.00133256
-0.0291622 -0.521643
-0.024477 -0.52105
0.0548002 -0.506189
0.0443717 -0.522015
-0.0660209 -0.420441
-0.0607412 -0.400625
-0.0205551 -0.175027
-0.00723858 -0.210942
0.0522373 -0.376866
0.0486163 -0.378817
0.0417386 -0.522882
0.047141 -0.514049
0.0574262 -0.501819
0.0646049 -0.490379
-0.045049 -0.52194
-0.0525436 -0.510067
-0.0107697 -0.0299067
-0.00260076 -0.00843987
-0.00520107 -0.51668
-0.00259071 -0.517549
0.0186693 -0.431314
0.00708846 -0.414535
0.0192669 -0.552516
0.0258731 -0.544422
-0.0173017 -0.501286
-0.0190062 -0.489192
-0.0538317 -0.509962
-0.0688371 -0.486332
0.0034259 -0.536113
0.00965852 -0.538022
0.011121 -0.211618
0.0248347 -0.246529
0.0411592 -0.0751288
0.0406653 -0.0541537
-0.0697569 -0.482612
-0.074855 -0.459881
0.0311783 -0.482313
0.035917 -0.484041
0.0398135 -0.362661
0.0451617 -0.394016
-0.00392113 -0.530306
-0.00936261 -0.530545
-0.0644012 -0.396644
-0.0488471 -0.363237
0.00762438 -0.111306
0.0142712 -0.189358
-0.00151362 -0.516293
-0.00749387 -0.513565
0.0379392 -0.323515
0.0483268 -0.351855
-0.0529929 -0.0658416
-0.0468605 -0.0620342
0.00078196 -0.0982757
-0.00144155 -0.11717
-0.0121256 -0.542198
-0.0076064 -0.550531
0.0515998 -0.467993
0.0449609 -0.476541
0.00905029 -0.00845963
0.0258457 -0.0294432
0.000839881 -0.531759
0.00179716 -0.530304
-0.0150607 -0.495349
-0.00915994 -0.506157
0.0238071 -0.460989
0.0315258 -0.441308
-0.00797348 -0.533617
-0.00355099 -0.534656
-0.0507393 -0.0872803
-0.0541997 -0.0714858
0.0096519 -0.0864631
0.0101454 -0.0433524
0.00214737 -0.544193
0.0055173 -0.549364
-0.0306951 -0.533577
-0.0289068 -0.538401
0.0593945 -0.498343
0.0559881 -0.504763
-0.0329548 -0.534339
-0.0369319 -0.531752
0.0867302 -0.445505
0.0655609 -0.387631
-0.00906987 -0.535281
-0.00958569 -0.539533
0.0183759 -0.227138
0.0256224 -0.249625
-0.0423378 -0.340322
-0.0535139 -0.371434
0.0327782 -0.535295
0.02123 -0.547685
0.0472679 -0.34222
0.036534 -0.302938
-0.0505698 -0.0620249
-0.0441205 -0.0583918
0.00724722 -0.521464
3.26278e-05 -0.520773
-0.0277279 -0.308775
-0.0427825 -0.348514
0.0276289 -0.443472
0.0348105 -0.419153
0.00937609 -0.517131
0.0150177 -0.514401
-0.0578401 -0.469537
-0.0528098 -0.474231
-0.0293497 -0.51672
-0.023341 -0.521902
0.0472431 -0.514635
0.0406264 -0.520513
-0.0207181 -0.527085
-0.0190111 -0.525122
-0.0151827 -0.287638
-0.0428893 -0.343557
0.0432894 -0.329404
0.0356755 -0.327526
-0.0418244 -0.515536
-0.0345603 -0.522308
0.0393189 -0.360266
0.0403696 -0.323534
0.00457204 -0.533168
0.00593645 -0.534044
0.0464057 -0.409555
0.0498831 -0.431107
-0.0115346 -0.0225458
-0.00304248 -0.00746955
-0.0432255 -0.322033
-0.0496106 -0.362465
-0.0242993 -0.0805064
-0.0197796 -0.117282
-0.0073948 -0.447388
0.00758046 -0.457625
-0.0135265 -0.512972
-0.00544897 -0.51625
0.0216831 -0.395978
0.0205329 -0.354384
0.0209004 -0.238033
0.0152883 -0.187966
-0.00267806 -0.516362
0.00140587 -0.517121
0.042272 -0.423152
0.0330715 -0.414717
-0.0325194 -0.0286757
-0.0298642 -0.0296969
-0.0124535 -0.541703
-0.0134368 -0.536438
0.0280349 -0.508222
0.0368992 -0.501007
0.00610263 -0.521578
-0.00165591 -0.523768
-0.026121 -0.525041
-0.0187883 -0.526474
0.000540219 -0.533619
-0.00142612 -0.53328
0.0107377 -0.303095
0.02777 -0.298602
0.0188707 -0.525544
0.0251751 -0.521844
-0.0111521 -0.519264
-0.00367711 -0.521246
-0.0223616 -0.5321
-0.0182946 -0.536768
0.0117884 -0.515262
0.0162734 -0.512528
-0.00541859 -0.0617589
-0.0023994 -0.0104518
0.00343678 -0.531349
0.00220958 -0.530088
0.00531349 -0.529801
0.0112264 -0.529072
-0.0402444 -0.333864
-0.0314526 -0.328012
-0.00868597 -0.515307
-0.00246001 -0.51679
0.0190143 -0.552788
0.0233289 -0.547112
-0.00774005 -0.516985
-0.00239634 -0.518499
0.0672319 -0.474539
0.0626178 -0.486258
-0.0449964 -0.0664563
-0.0493375 -0.0587816
0.0559305 -0.504256
0.0457007 -0.518379
0.0542011 -0.441093
0.0511902 -0.46277
0.0564454 -0.425697
0.0559566 -0.398353
-0.0398994 -0.321503
-0.0449344 -0.343395
0.0275517 -0.518477
0.0275366 -0.514955
0.0120187 -0.509646
0.00672852 -0.511543
0.021126 -0.508938
0.0136496 -0.512816
-0.0299031 -0.451105
-0.00756347 -0.450396
0.0341795 -0.0410691
0.0451375 -0.0590697
0.0299592 -0.503637
0.0360608 -0.500895
-0.0295929 -0.510977
-0.0223036 -0.513087
-0.0455051 -0.499069
-0.0518285 -0.493075
-0.0257543 -0.160355
-0.0161214 -0.185435
-0.0610413 -0.489414
-0.0570452 -0.49421
0.0125089 -0.525982
0.0131488 -0.523106
0.0164068 -0.032942
0.0251028 -0.0500664
0.03648 -0.531675
0.0209273 -0.550767
-0.0173449 -0.545837
-0.0218321 -0.538469
-0.032951 -0.268648
-0.0351586 -0.292615
8.70143e-05 -0.533816
0.000934867 -0.534024
-0.00251887 -0.194781
-0.00621007 -0.164037
-0.0529331 -0.370412
-0.0590015 -0.396514
-0.0063673 -0.536133
-0.00291484 -0.541095
0.00543996 -0.149356
0.0179246 -0.121098
-0.0143475 -0.0158427
-0.0163322 -0.0149796
-0.0367305 -0.318882
-0.0229147 -0.277135
-0.00141008 -0.00253313
-0.000895522 -0.00105514
0.0819624 -0.469761
0.0781438 -0.462553
-0.00790225 -0.179699
0.00570209 -0.223668
0.0539321 -0.422666
0.0412584 -0.447061
-0.0644533 -0.442716
-0.0644881 -0.46272
-0.00705032 -0.523255
-0.00020297 -0.521346
0.0629025 -0.479063
0.0657493 -0.460712
-0.0670654 -0.428267
-0.0616385 -0.403426
0.00572431 -0.215787
0.0109686 -0.202813
-0.0070126 -0.505114
-0.00636568 -0.512986
0.0210548 -0.546649
0.0122969 -0.55214
0.00149558 -0.529208
-6.57307e-05 -0.527425
0.052855 -0.499679
0.0457795 -0.508784
-0.00505377 -0.516398
-0.000729575 -0.516829
0.00718566 -0.515511
0.0109473 -0.514044
-0.0172779 -0.527849
-0.0104118 -0.529386
0.0657044 -0.466486
0.063001 -0.483987
0.0478101 -0.513275
0.0402676 -0.523184
0.0302229 -0.148353
0.0301484 -0.146575
-0.0376698 -0.0548948
-0.0434907 -0.0755395
0.0471587 -0.51674
0.0527583 -0.506541
-0.0422923 -0.518834
-0.034969 -0.526494
0.0409924 -0.352315
0.0701639 -0.30814
-0.0648632 -0.447076
-0.0625703 -0.42693
-0.00948194 -0.191959
0.00631718 -0.233446
-0.00327095 -0.516068
0.00108786 -0.517095
-0.00941885 -0.099568
0.000953686 -0.145825
-0.0197498 -0.16498
-0.0254356 -0.132706
0.050495 -0.509803
0.0434168 -0.520573
-0.0305011 -0.520404
-0.026489 -0.525001
-0.0593366 -0.39126
-0.0680389 -0.418481
0.0253455 -0.133198
0.0381567 -0.114468
-0.0153299 -0.230904
-0.000875962 -0.196041
0.0499475 -0.511481
0.0569964 -0.498764
0.046801 -0.0707544
0.0451253 -0.0941969
0.0211667 -0.169918
0.0318271 -0.135351
0.0415225 -0.525933
0.0536829 -0.508673
0.0475789 -0.335982
0.0708461 -0.404845
0.0507838 -0.359965
0.0457643 -0.337007
0.0558096 -0.462783
0.0500103 -0.477733
-0.0630559 -0.413599
-0.0632447 -0.431119
-0.000448184 -0.519404
0.00123946 -0.521412
0.0428966 -0.332258
0.0494362 -0.357338
0.0405229 -0.065217
0.040509 -0.0915285
0.000969172 -0.533933
0.00220056 -0.533269
-0.0231476 -0.53043
-0.030464 -0.527555
-0.0400793 -0.410559
-0.0302278 -0.433016
-0.0386968 -0.306301
-0.0438679 -0.351912
-0.0158229 -0.533939
-0.0130239 -0.53796
-0.00507324 -0.198085
0.00484022 -0.152666
-0.0230853 -0.12116
-0.0288972 -0.0856311
0.00580545 -0.531805
0.0106708 -0.530896
-0.00779001 -0.148686
-0.0146293 -0.216992
-0.0593774 -0.500053
-0.0705899 -0.477201
-0.00147152 -0.518581
0.00820919 -0.51732
0.00741264 -0.227249
0.0186934 -0.248966
-0.0231986 -0.211048
-0.0372829 -0.29827
0.0123461 -0.174784
0.0146982 -0.19356
0.0423146 -0.500637
0.0493793 -0.494647
0.0259208 -0.527268
0.0312453 -0.526874
0.0574053 -0.382772
0.0449612 -0.345613
-0.00499552 -0.508277
-0.00457328 -0.514974
0.0364763 -0.530403
0.0360555 -0.5281
-0.0113885 -0.532344
-0.016333 -0.533139
-0.0202862 -0.493937
-0.024179 -0.478446
0.00994419 -0.0285489
0.00897283 -0.0482319
-0.0136424 -0.527223
-0.00744041 -0.52893
0.0344773 -0.534452
0.0347971 -0.532641
-0.0231996 -0.522384
-0.0239603 -0.518754
-0.0548578 -0.376472
-0.0622562 -0.407703
0.0349215 -0.523672
0.0301341 -0.529874
-0.057923 -0.497835
-0.0528391 -0.505598
0.0038307 -0.523777
-0.000967377 -0.521837
-0.0469459 -0.470585
-0.0518509 -0.470615
0.0442859 -0.507256
0.0369176 -0.512017
0.00400253 -0.515566
0.00525169 -0.512603
0.0641583 -0.400704
0.0489238 -0.361175
0.0418973 -0.525052
0.0407484 -0.526997
-0.0447511 -0.517184
-0.045193 -0.513006
0.0113294 -0.182475
-0.00200775 -0.225435
-0.0403706 -0.526618
-0.036338 -0.532611
-0.0550619 -0.066767
-0.0518993 -0.0825555
0.0174946 -0.20005
0.00718707 -0.152089
0.0644348 -0.441572
0.0646115 -0.423192
-0.00123119 -0.517459
-0.00448535 -0.513911
0.00905605 -0.481774
0.00732887 -0.464453
-0.00284402 -0.215963
-0.0170785 -0.173914
0.0344206 -0.526935
0.0313293 -0.532936
-0.0256935 -0.242396
-0.0146142 -0.186668
0.0132774 -0.536526
0.020479 -0.534037
0.00414325 -0.514259
0.000512186 -0.517737
0.0350848 -0.513619
0.041566 -0.511313
0.0443538 -0.504104
0.0437452 -0.509985
0.047491 -0.495953
0.0540013 -0.488409
-0.00784323 -0.382164
-0.00232197 -0.418297
-0.0608791 -0.492504
-0.0661382 -0.478885
0.0386257 -0.297577
0.0400084 -0.329837
0.0155873 -0.54737
0.0192191 -0.540044
0.0622631 -0.415922
0.0642418 -0.414854
-0.0205006 -0.0214159
-0.00214305 -0.00209537
0.0388993 -0.050405
0.0464 -0.05234
-0.0122414 -0.5142
-0.00564015 -0.516158
-0.00275139 -0.533583
-0.00052437 -0.534078
0.0364668 -0.0439674
0.0236456 -0.0278277
0.0589827 -0.437408
0.0596805 -0.414687
0.0176888 -0.499112
0.00771458 -0.497518
0.0458999 -0.0960995
0.0424085 -0.087927
0.000747595 -0.506199
-0.000771283 -0.514133
0.00139934 -0.531728
0.00356068 -0.532336
0.0287463 -0.511282
0.0199816 -0.514533
0.0614949 -0.403918
0.0566861 -0.381458
-0.0525344 -0.508924
-0.0585192 -0.495303
0.0159999 -0.234613
0.0293844 -0.275819
0.0601073 -0.31037
0.0541216 -0.357679
-0.0438103 -0.495359
-0.0392417 -0.495844
-0.0598335 -0.392691
-0.0638274 -0.407247
0.0715329 -0.456252
0.0732573 -0.461943
0.0800177 -0.430689
0.0837897 -0.469587
-0.0156429 -0.166993
-0.00342831 -0.208446
-0.0568816 -0.463252
-0.0553793 -0.44897
-0.0527262 -0.368996
-0.0471973 -0.357251
0.0308101 -0.315375
0.0382622 -0.335676
0.0303003 -0.26872
0.0166525 -0.229337
0.00516651 -0.532815
0.00751428 -0.533438
-0.0290577 -0.529019
-0.0300617 -0.525247
-0.00215253 -0.537427
-0.00505566 -0.542927
0.0253467 -0.527073
0.0195294 -0.527315
-0.0207458 -0.520024
-0.0127353 -0.520569
-0.0271417 -0.539327
-0.0247638 -0.53774
-0.00496172 -0.351833
-0.0166585 -0.286045
0.00646866 -0.064269
0.00280692 -0.0156198
-0.00334798 -0.488805
-0.00835137 -0.498671
0.053902 -0.446761
0.0582008 -0.451251
0.0207257 -0.520854
0.018353 -0.524429
0.0472008 -0.0937916
0.0531981 -0.0804484
-0.0547928 -0.381894
-0.0533997 -0.390062
-0.0684049 -0.477845
-0.0604097 -0.497908
-0.000645443 -0.535082
-0.00351586 -0.534443
-0.0296075 -0.483835
-0.0312373 -0.465723
-0.0588996 -0.413627
-0.056468 -0.388421
0.00838292 -0.533688
0.00564908 -0.532876
0.0164633 -0.0329796
0.0214516 -0.0664275
0.0492615 -0.358549
0.0376564 -0.322249
0.0458585 -0.51835
0.0639143 -0.494775
0.0406422 -0.527128
0.0305607 -0.539418
-0.00119676 -0.474887
0.00743061 -0.488174
0.0363414 -0.51145
0.0328617 -0.517356
0.00299115 -0.461361
0.00137592 -0.480985
-0.0024305 -0.482676
0.0112778 -0.475367
-0.0443828 -0.521548
-0.0424578 -0.52497
0.0121985 -0.515045
0.00822705 -0.515409
-0.0116578 -0.215629
-0.0246526 -0.250587
0.0112166 -0.219517
0.0215664 -0.261385
0.00397824 -0.530628
0.00610895 -0.531472
-0.0500114 -0.464862
-0.0439331 -0.468015
0.015211 -0.529848
0.0134661 -0.532098
-0.0146733 -0.511909
-0.0124795 -0.514226
0.0714681 -0.457775
0.0686499 -0.460692
0.0410651 -0.313028
0.0296466 -0.274717
0.039977 -0.0729835
0.035377 -0.101904
0.0536335 -0.502681
0.0534005 -0.497631
-0.0595134 -0.48423
-0.0572967 -0.495701
0.0220633 -0.0177303
0.0347887 -0.0354617
-0.0459042 -0.432229
-0.0482224 -0.401517
-0.060179 -0.394027
-0.0509084 -0.362482
0.03687 -0.475895
0.0409947 -0.456566
-0.0269189 -0.395374
-0.0134089 -0.38282
0.0538342 -0.454293
0.0480857 -0.457094
0.0519615 -0.503349
0.0504226 -0.500129
-0.0418492 -0.340028
-0.0489261 -0.31828
-0.0433822 -0.349895
-0.0365317 -0.331269
0.0221131 -0.476904
0.029158 -0.458025
-0.0272785 -0.536404
-0.0285221 -0.531728
-0.0335688 -0.464991
-0.0256504 -0.445834
-0.0287904 -0.542312
-0.0130929 -0.560391
0.0347951 -0.413208
0.00753006 -0.417025
-0.0498844 -0.378722
-0.0455265 -0.391767
-0.0431894 -0.512552
-0.0490926 -0.508224
-0.0174092 -0.481425
-0.0035265 -0.477222
0.0132587 -0.513146
0.00701201 -0.51546
0.0281013 -0.529159
0.0239362 -0.534849
0.0335358 -0.0765076
0.0296363 -0.0484145
0.00973935 -0.190701
0.00567782 -0.216555
-0.0209949 -0.509124
-0.0197332 -0.507559
0.0494436 -0.353051
0.0516959 -0.363981
0.04749 -0.436354
0.0470541 -0.457806
-0.0385901 -0.530407
-0.0498155 -0.514956
-0.0215803 -0.534011
-0.0173371 -0.539592
0.0598331 -0.496448
0.0584378 -0.4962
0.0526683 -0.38403
0.0472558 -0.347223
-0.0228882 -0.480132
-0.0154355 -0.464838
0.0738286 -0.434101
0.0635873 -0.401023
0.022693 -0.280225
0.0394465 -0.213071
-0.0155113 -0.557648
-0.0181472 -0.55377
-0.00834786 -0.533932
-0.00626404 -0.532821
0.0315808 -0.325624
0.0373693 -0.364745
0.0247302 -0.246687
0.0289525 -0.250009
-0.0173307 -0.55576
-0.0125308 -0.560394
0.0371672 -0.529932
0.0289963 -0.537065
0.00863214 -0.518192
0.005566 -0.520757
-0.0153731 -0.187299
-0.00285073 -0.138959
-0.0331947 -0.271917
-0.0386174 -0.295684
-0.0519737 -0.509473
-0.0562163 -0.4988
-0.042382 -0.327664
-0.0396745 -0.325071
-0.0768419 -0.476139
-0.0548451 -0.511644
-0.0425312 -0.517889
-0.0452644 -0.511284
0.0279943 -0.416015
0.0320648 -0.378841
0.00949639 -0.558717
0.00653764 -0.557252
0.0740985 -0.445245
0.0714272 -0.449522
0.0184471 -0.516459
0.0100986 -0.517681
0.0647158 -0.490527
0.0716437 -0.471932
-0.021758 -0.433486
-0.0081679 -0.430977
0.0313932 -0.47092
0.0464351 -0.448306
0.00443623 -0.0266933
0.000300345 -0.096041
0.00226737 -0.535838
0.00183147 -0.542906
-0.0331921 -0.508587
-0.0351421 -0.511007
0.0379809 -0.33521
0.0542377 -0.376094
-0.0427275 -0.109548
-0.0412209 -0.113814
-0.0327937 -0.320885
-0.0315905 -0.311132
-0.0049531 -0.00557157
-0.00163629 -0.00149903
-0.0558426 -0.383375
-0.0598955 -0.411165
-0.00332477 -0.517035
-0.000364676 -0.518636
-0.00374573 -0.504182
-0.00434794 -0.5124
-0.0209604 -0.47876
-0.00837646 -0.468818
-0.0500109 -0.0660067
-0.0536686 -0.0592469
0.0204233 -0.150862
0.0159038 -0.180224
0.0198711 -0.485055
0.0206506 -0.467543
-0.0022697 -0.498919
0.00327521 -0.50737
0.0639412 -0.400327
0.0581344 -0.382352
0.00209104 -0.516355
0.00291032 -0.510832
0.0322078 -0.0739205
0.0396561 -0.0728183
0.0318418 -0.0408838
0.0199948 -0.0257453
0.00375902 -0.00326347
0.019396 -0.0161922
0.0776875 -0.434781
0.074003 -0.433806
-0.0168912 -0.469964
-0.0249221 -0.47653
0.00266109 -0.140037
-0.00927699 -0.0840631
-0.0059604 -0.562201
-0.0118157 -0.553202
-0.0154192 -0.184218
-0.00232216 -0.133426
0.0275468 -0.15662
0.0233024 -0.163471
-0.00963689 -0.489642
0.000648471 -0.490941
0.0722447 -0.4442
0.0706019 -0.460733
0.0175477 -0.554448
0.0306255 -0.53934
0.0347521 -0.279558
0.0438188 -0.325135
-0.0301162 -0.132404
-0.028136 -0.113994
0.00817589 -0.552402
0.0180964 -0.542959
-0.0443301 -0.519693
-0.0436382 -0.522716
0.036042 -0.301496
0.0301337 -0.315691
-0.0490449 -0.364143
-0.0429726 -0.346831
0.0136341 -0.0233069
0.0231958 -0.0395288
-0.00175466 -0.531109
-0.0055741 -0.531809
-0.00337944 -0.167297
-0.0126665 -0.17273
-0.0395807 -0.45347
-0.0472149 -0.449881
-0.000650641 -0.50272
-0.00901341 -0.501116
0.00267049 -0.514679
0.00782476 -0.508821
0.0137708 -0.528766
0.0141313 -0.530545
0.0337581 -0.115348
0.0413599 -0.0872218
0.0455705 -0.335165
0.053908 -0.372128
0.0309369 -0.263654
0.0230641 -0.236166
-0.0304484 -0.524573
-0.0263743 -0.529048
-0.016613 -0.50671
-0.0193537 -0.497277
-0.0627926 -0.403718
-0.0535186 -0.371509
-0.0392742 -0.52755
-0.0474185 -0.516377
0.0152146 -0.321674
-0.00442514 -0.360851
-0.0219817 -0.494978
-0.0270501 -0.496055
-0.00982953 -0.499873
-0.0177387 -0.489912
-0.00661729 -0.516099
-0.0154146 -0.513237
-0.00132998 -0.529261
0.00500373 -0.52887
0.00966313 -0.515481
0.0138784 -0.515407
0.0549166 -0.375498
0.0623905 -0.403049
0.00591568 -0.0402357
-0.00335198 -0.076032
0.0355855 -0.0400126
0.0456659 -0.0597418
0.00349629 -0.530877
0.00505865 -0.53182
0.05151 -0.369004
0.0546682 -0.376613
-0.00848816 -0.254139
-0.0253797 -0.29962
-0.0101876 -0.505485
-0.00497188 -0.513196
-0.0127212 -0.518837
-0.0206426 -0.518095
-0.0209989 -0.206331
-0.00702408 -0.15203
-0.00741707 -0.190772
0.00673809 -0.2203
-0.00126379 -0.534306
-0.00339741 -0.533394
0.00132549 -0.516768
-0.000127892 -0.517817
-0.00800145 -0.531051
-0.00288227 -0.531482
0.00335705 -0.221082
0.0118085 -0.200056
0.0513268 -0.342656
0.0466901 -0.277193
0.00072309 -0.533749
0.0020005 -0.533599
0.0220328 -0.506402
0.0145906 -0.512527
0.0141887 -0.555719
0.0262792 -0.543787
-0.0935515 -0.458359
-0.0740067 -0.41645
-0.0296742 -0.315039
-0.0136855 -0.271291
0.00512156 -0.0104885
0.0103496 -0.0142938
-0.0501379 -0.513877
-0.0712828 -0.486483
0.0647638 -0.486437
0.0670286 -0.476348
0.00757295 -0.531303
0.0037789 -0.53243
0.0579531 -0.50105
0.0610547 -0.495156
-0.0424808 -0.106437
-0.0487845 -0.0826293
0.0406044 -0.449314
0.0318677 -0.459901
0.00402571 -0.56031
0.0139185 -0.549115
0.0498113 -0.361867
0.0591352 -0.388403
0.0127196 -0.260101
0.0102045 -0.26092
-0.000109746 -0.518638
-0.000772833 -0.517116
0.00918016 -0.52098
0.0178848 -0.518128
0.0395063 -0.490572
0.0312267 -0.499845
0.00889315 -0.505483
0.0158431 -0.494976
-0.0462611 -0.519729
-0.0564761 -0.504515
0.0105985 -0.485258
0.0205888 -0.480862
-0.0277192 -0.54357
-0.0400379 -0.528642
-0.0222776 -0.48321
-0.0224641 -0.495179
0.0488329 -0.0946448
0.0443986 -0.0984589
0.0239809 -0.511473
0.0330642 -0.505761
-0.00598598 -0.532411
-0.0102508 -0.532775
-0.040935 -0.343687
-0.0514511 -0.369731
-0.0527193 -0.0702047
-0.0468471 -0.0656974
0.00880943 -0.0876132
0.0160734 -0.0774327
0.0398515 -0.469384
0.036481 -0.484483
0.00660991 -0.507299
0.0140785 -0.498246
0.0683579 -0.422726
0.0717669 -0.448896
0.0265073 -0.512192
0.0179345 -0.514923
0.0199093 -0.283299
0.0309257 -0.316368
0.0147108 -0.182646
0.0104417 -0.164643
0.0341826 -0.322293
0.0162052 -0.272442
0.000641631 -0.531263
0.00343526 -0.529769
0.0228192 -0.269388
0.0421221 -0.291285
0.0145974 -0.544271
0.00895465 -0.553203
0.00614353 -0.24638
-0.00936735 -0.205392
0.0283099 -0.307044
0.0166834 -0.279037
-0.0151529 -0.261672
-0.00773832 -0.228284
0.0412472 -0.105727
0.0414163 -0.116564
-0.0476072 -0.51821
-0.0344034 -0.535066
-0.0237667 -0.0236526
-0.0307589 -0.0272666
0.0558349 -0.377444
0.0428267 -0.332195
-0.029048 -0.052742
-0.0365854 -0.0715302
0.0201036 -0.129068
0.0217197 -0.0974998
-0.00311567 -0.516595
0.00029124 -0.516824
0.0103943 -0.14256
-0.0332992 -0.157634
0.026615 -0.544128
0.0248108 -0.545845
-0.0489195 -0.0826082
-0.0536015 -0.0770542
-0.0680102 -0.45975
-0.0649557 -0.478697
-0.00513389 -0.516279
0.00175928 -0.516615
0.0377872 -0.0465262
0.0474962 -0.0565097
0.00737784 -0.00808181
0.011672 -0.0156767
-0.017884 -0.51781
-0.0259051 -0.516249
-0.0182836 -0.0162809
-0.0362105 -0.0348365
0.0187487 -0.55291
0.022768 -0.547312
0.0628462 -0.49101
0.0542842 -0.507753
-0.0344122 -0.528074
-0.0351316 -0.524096
0.0103423 -0.529059
0.0107382 -0.526983
-0.0201752 -0.530678
-0.0141451 -0.532957
0.0253417 -0.504656
0.0269503 -0.498707
0.0046579 -0.516146
0.00698747 -0.515354
0.0319829 -0.0439218
0.0359453 -0.0666073
-0.00487332 -0.117946
-0.0141394 -0.0727446
0.0571591 -0.494419
0.0558976 -0.489858
0.00090343 -0.533042
0.000333531 -0.533895
-0.00465112 -0.516704
0.00194015 -0.517076
-0.00256724 -0.445025
0.0135139 -0.439308
0.0354176 -0.0790338
0.0330298 -0.110033
-0.00351144 -0.533952
-0.00477105 -0.532781
0.0223763 -0.281012
0.0283693 -0.287623
-0.0170494 -0.0997694
-0.0186739 -0.0625191
0.0586318 -0.499883
0.0595245 -0.498376
-0.0387025 -0.518104
-0.0311586 -0.52355
0.00340393 -0.242204
0.019814 -0.287167
0.0320669 -0.14203
0.0587414 -0.245571
-0.036947 -0.50565
-0.0292945 -0.509612
-0.0632805 -0.468395
-0.0587996 -0.480818
0.0143944 -0.513987
0.0111382 -0.514283
-0.0114012 -0.179916
-0.00751092 -0.262235
0.00614625 -0.515766
-0.000474557 -0.516892
0.0185876 -0.167458
0.0300059 -0.131182
0.0781282 -0.349363
0.0512834 -0.282491
-0.00431719 -0.534226
-0.00929635 -0.533514
0.022622 -0.401815
0.0335503 -0.429575
0.046412 -0.33957
0.0475278 -0.344885
-0.0286507 -0.541539
-0.0365614 -0.531588
-0.00145631 -0.516162
0.00118093 -0.517461
0.0209489 -0.430072
0.0291498 -0.454063
-0.00753707 -0.51498
-0.00390931 -0.515983
-0.00882585 -0.199092
-0.0110833 -0.201178
-0.00730003 -0.503214
0.000533892 -0.505757
-0.0226974 -0.509087
-0.0313787 -0.502157
-0.0393674 -0.4958
-0.0310516 -0.504127
0.0645878 -0.465323
0.0662591 -0.445093
0.00113447 -0.490532
0.00583326 -0.472719
-0.00871031 -0.039745
-0.00296909 -0.0493257
0.0274212 -0.510225
0.0361348 -0.504855
-0.0226253 -0.163955
-0.00836845 -0.200745
0.0224547 -0.234648
0.0267401 -0.237816
-0.0298879 -0.536308
-0.0228464 -0.539961
0.0090811 -0.530882
0.00533846 -0.532242
-0.0540264 -0.406382
-0.0515322 -0.374592
0.024971 -0.0551426
0.0323549 -0.0696305
0.000134434 -0.516524
0.00689228 -0.51589
-0.0162362 -0.528908
-0.0129516 -0.531136
-0.0625678 -0.399836
-0.0719501 -0.431805
-0.0101438 -0.482118
-0.00318226 -0.495489
-0.00625334 -0.532995
-0.0115467 -0.532509
-0.00668416 -0.532985
-0.0121008 -0.532332
0.0465827 -0.341894
0.0390114 -0.297914
0.0658697 -0.400621
0.0840848 -0.436679
-0.00982131 -0.514695
-0.00446422 -0.51644
0.0190066 -0.545721
0.0155953 -0.544
0.0173091 -0.210933
0.0294382 -0.25873
-0.020325 -0.534429
-0.0264787 -0.53389
0.0568401 -0.484216
0.0599102 -0.484465
0.0581565 -0.443752
0.0587831 -0.461751
-0.0655408 -0.463855
-0.0632136 -0.481645
0.028888 -0.475591
0.0237528 -0.491476
0.00164789 -0.533824
0.00343531 -0.533301
-0.0394466 -0.37579
-0.0470941 -0.390024
0.0550998 -0.0703712
0.050258 -0.0673935
0.0382431 -0.114215
0.0328889 -0.138982
-0.0139211 -0.493692
-0.0223904 -0.490616
-0.0173286 -0.511031
-0.0237047 -0.50814
-0.00649346 -0.531762
-0.0114479 -0.531876
-0.0325089 -0.0364849
-0.0278828 -0.0374008
-0.0190868 -0.278736
-0.0113367 -0.264708
0.0754667 -0.455009
0.0698909 -0.479908
-0.0384696 -0.522542
-0.039885 -0.517718
-0.0555616 -0.471536
-0.0600179 -0.456774
-0.0385439 -0.50322
-0.0457756 -0.492767
-0.0221254 -0.510064
-0.0268493 -0.503957
0.0491489 -0.514451
0.0460189 -0.518
-0.020183 -0.522845
-0.0286023 -0.519547
0.0459639 -0.406983
0.0305035 -0.369266
-0.0124817 -0.0988141
-0.0103798 -0.0724006
-0.0193546 -0.240506
-0.0396027 -0.276706
0.0024561 -0.226824
-0.00732792 -0.252091
0.0203825 -0.15555
0.00739175 -0.196338
-0.0510591 -0.36207
-0.0417803 -0.324457
-0.059965 -0.428532
-0.0614117 -0.449232
0.0665147 -0.44334
0.0683764 -0.453692
-0.022358 -0.514604
-0.0207562 -0.518037
-0.0123696 -0.53474
-0.00649613 -0.534536
-0.0504779 -0.455264
-0.0519004 -0.432403
-0.066396 -0.489227
-0.0718375 -0.472372
-0.000463166 -0.518774
0.00020774 -0.518287
0.0678145 -0.455451
0.0700863 -0.458152
0.00113049 -0.519134
0.000297899 -0.517745
-0.0337347 -0.306362
-0.0288668 -0.251006
-0.0695109 -0.478534
-0.0639572 -0.490411
-0.0431009 -0.524319
-0.0559346 -0.505598
-0.00723548 -0.124401
0.0133569 -0.178092
0.00632848 -0.199555
-0.00649199 -0.152737
-0.0519786 -0.511794
-0.0612843 -0.496874
0.0135787 -0.558501
0.0215252 -0.550083
-0.000477494 -0.22995
-0.0062536 -0.147437
-0.0363821 -0.331294
-0.0352374 -0.329015
-0.0695801 -0.4882
-0.0790378 -0.460869
-0.0242088 -0.40845
-0.0135331 -0.434525
-0.0274262 -0.0329706
-0.0391708 -0.0457837
0.0282328 -0.0840299
0.0271917 -0.0524164
-0.0269001 -0.540139
-0.034583 -0.533897
0.0505833 -0.4541
0.0540357 -0.462478
0.0309675 -0.301328
0.0449444 -0.342992
-0.0040197 -0.516522
-0.00713194 -0.515877
-0.0692686 -0.421768
-0.0668671 -0.419426
0.0473267 -0.511986
0.0483954 -0.513954
0.0219277 -0.525907
0.0172782 -0.525149
-0.0345775 -0.0837825
-0.0347862 -0.056675
0.0032138 -0.514775
0.00711045 -0.506912
0.00741061 -0.538707
0.0118747 -0.542168
-0.00606559 -0.534044
-0.0108814 -0.532842
-0.000308465 -0.5186
-0.00299218 -0.517436
-0.0289431 -0.39001
-0.0364907 -0.412563
-0.00492674 -0.516251
-0.00294857 -0.514049
0.0045843 -0.00648522
0.0180386 -0.03522
-0.0785847 -0.415766
-0.0507381 -0.349281
0.0659508 -0.465077
0.0639208 -0.460045
-0.0150959 -0.49177
-0.0137042 -0.503773
0.00981262 -0.519478
0.0190966 -0.51718
0.0194562 -0.512056
0.0284503 -0.506263
-0.0211966 -0.526938
-0.0175686 -0.525696
-0.00169339 -0.12058
-0.00141715 -0.136152
-0.0432902 -0.416135
-0.0202084 -0.392399
-0.0106039 -0.546573
-0.0210778 -0.548498
-0.0210778 -0.548498
-0.0320464 -0.551066
-0.0320464 -0.551066
-0.0432688 -0.554491
-0.0432688 -0.554491
-0.0545353 -0.558886
-0.0545353 -0.558886
-0.0656873 -0.564197
-0.0656873 -0.564197
-0.076528 -0.570419
-0.076528 -0.570419
-0.0868995 -0.57749
-0.0868995 -0.57749
-0.0966602 -0.585331
-0.0966602 -0.585331
-0.10568 -0.593849
-0.10568 -0.593849
-0.11387 -0.602922
-0.11387 -0.602922
-0.121149 -0.612427
-0.121149 -0.612427
-0.127469 -0.622233
-0.127469 -0.622233
-0.132808 -0.632207
-0.132808 -0.632207
-0.137137 -0.642198
-0.137137 -0.642198
-0.140494 -0.652124
-0.140494 -0.652124
-0.142908 -0.661832
-0.142908 -0.661832
-0.144419 -0.671227
-0.144419 -0.671227
-0.1451 -0.680242
-0.1451 -0.680242
-0.14501 -0.688762
-0.14501 -0.688762
-0.144243 -0.696751
-0.144243 -0.696751
-0.14286 -0.704183
-0.14286 -0.704183
-0.14094 -0.711001
-0.14094 -0.711001
-0.138579 -0.717202
-0.138579 -0.717202
-0.135823 -0.722793
-0.135823 -0.722793
-0.132719 -0.72781
-0.132719 -0.72781
-0.129331 -0.732216
-0.129331 -0.732216
-0.125708 -0.736057
-0.125708 -0.736057
-0.121823 -0.739409
-0.121823 -0.739409
-0.117672 -0.742246
-0.117672 -0.742246
-0.113314 -0.744578
-0.113314 -0.744578
-0.108681 -0.746365
-0.108681 -0.746365
-0.103692 -0.74772
-0.103692 -0.74772
-0.0983537 -0.748598
-0.0983537 -0.748598
-0.0926452 -0.748804
-0.0926452 -0.748804
-0.0863891 -0.748382
-0.0863891 -0.748382
-0.07959 -0.74737
-0.07959 -0.74737
-0.0722122 -0.745495
-0.0722122 -0.745495
-0.0641656 -0.742404
-0.0641656 -0.742404
-0.0554003 -0.738189
-0.0554003 -0.738189
-0.0459467 -0.732635
-0.0459467 -0.732635
-0.0357418 -0.725112
-0.0357418 -0.725112
-0.0248844 -0.715391
-0.0248844 -0.715391
-0.0134423 -0.703049
-0.0134423 -0.703049
-0.00129239 -0.687181
-0.00129239 -0.687181
0.0109649 -0.666722
0.0109649 -0.666722
0.0235427 -0.640572
0.0235427 -0.640572
0.0361705 -0.604842
0.0361705 -0.604842
0.0492232 -0.558041
0.0492232 -0.558041
0.0675278 -0.506822
0.0675278 -0.506822
0.0785619 -0.481931
0.0785619 -0.481931
0.0792528 -0.473163
0.0792528 -0.473163
0.0769776 -0.469847
0.0769776 -0.469847
0.0745948 -0.469701
0.0745948 -0.469701
0.0721108 -0.471793
0.0721108 -0.471793
0.0700292 -0.475383
0.0700292 -0.475383
0.0676585 -0.480328
0.0676585 -0.480328
0.0646318 -0.486315
0.0646318 -0.486315
0.0615446 -0.493138
0.0615446 -0.493138
0.058177 -0.500121
0.058177 -0.500121
0.0542792 -0.50678
0.0542792 -0.50678
0.0498377 -0.512932
0.0498377 -0.512932
0.0451733 -0.51862
0.0451733 -0.51862
0.0403658 -0.523673
0.0403658 -0.523673
0.0353915 -0.52805
0.0353915 -0.52805
0.030375 -0.531804
0.030375 -0.531804
0.0253607 -0.534965
0.0253607 -0.534965
0.0203618 -0.537552
0.0203618 -0.537552
0.0153051 -0.539685
0.0153051 -0.539685
0.0101324 -0.541444
0.0101324 -0.541444
0.00469281 -0.543016
0.00469281 -0.543016
-0.00182541 -0.544672
-0.00182541 -0.544672
-0.0106039 -0.546573
0.0797763 -0.748013
0.0865574 -0.749019
0.0865574 -0.749019
0.0928071 -0.749415
0.0928071 -0.749415
0.0985098 -0.749219
0.0985098 -0.749219
0.103827 -0.748374
0.103827 -0.748374
0.108799 -0.747027
0.108799 -0.747027
0.113421 -0.74526
0.113421 -0.74526
0.117753 -0.742943
0.117753 -0.742943
0.121886 -0.740138
0.121886 -0.740138
0.125759 -0.736795
0.125759 -0.736795
0.12937 -0.732965
0.12937 -0.732965
0.132743 -0.728577
0.132743 -0.728577
0.135833 -0.723577
0.135833 -0.723577
0.138582 -0.717999
0.138582 -0.717999
0.140934 -0.711824
0.140934 -0.711824
0.142844 -0.705045
0.142844 -0.705045
0.144222 -0.697608
0.144222 -0.697608
0.144994 -0.689653
0.144994 -0.689653
0.145081 -0.681198
0.145081 -0.681198
0.144416 -0.672207
0.144416 -0.672207
0.142898 -0.662814
0.142898 -0.662814
0.140494 -0.653131
0.140494 -0.653131
0.137152 -0.643246
0.137152 -0.643246
0.132822 -0.633267
0.132822 -0.633267
0.127506 -0.623316
0.127506 -0.623316
0.12121 -0.613552
0.12121 -0.613552
0.11394 -0.604064
0.11394 -0.604064
0.10578 -0.59502
0.10578 -0.59502
0.0967813 -0.586529
0.0967813 -0.586529
0.0870517 -0.578704
0.0870517 -0.578704
0.0767153 -0.57165
0.0767153 -0.57165
0.0659105 -0.565433
0.0659105 -0.565433
0.0548172 -0.56014
0.0548172 -0.56014
0.0435739 -0.555771
0.0435739 -0.555771
0.0324301 -0.552346
0.0324301 -0.552346
0.0215181 -0.549768
0.0215181 -0.549768
0.0111943 -0.547826
0.0111943 -0.547826
0.00243996 -0.545966
0.00243996 -0.545966
-0.00404391 -0.544297
-0.00404391 -0.544297
-0.00955081 -0.542736
-0.00955081 -0.542736
-0.0147783 -0.540981
-0.0147783 -0.540981
-0.0199017 -0.538878
-0.0199017 -0.538878
-0.0249834 -0.536283
-0.0249834 -0.536283
-0.0300799 -0.533084
-0.0300799 -0.533084
-0.0351266 -0.529265
-0.0351266 -0.529265
-0.0401286 -0.524806
-0.0401286 -0.524806
-0.0449627 -0.519667
-0.0449627 -0.519667
-0.0495336 -0.513831
-0.0495336 -0.513831
-0.0537998 -0.507408
-0.0537998 -0.507408
-0.0578065 -0.500719
-0.0578065 -0.500719
-0.0613381 -0.494315
-0.0613381 -0.494315
-0.0643727 -0.48812
-0.0643727 -0.48812
-0.0669755 -0.482394
-0.0669755 -0.482394
-0.0694062 -0.477281
-0.0694062 -0.477281
-0.0719195 -0.473301
-0.0719195 -0.473301
-0.0741318 -0.471031
-0.0741318 -0.471031
-0.07635 -0.470878
-0.07635 -0.470878
-0.0779854 -0.474266
-0.0779854 -0.474266
-0.07727 -0.482804
-0.07727 -0.482804
-0.068062 -0.506932
-0.068062 -0.506932
-0.0484203 -0.558445
-0.0484203 -0.558445
-0.0349172 -0.604164
-0.0349172 -0.604164
-0.0231004 -0.64042
-0.0231004 -0.64042
-0.0107065 -0.667533
-0.0107065 -0.667533
0.00179066 -0.687736
0.00179066 -0.687736
0.0136832 -0.703742
0.0136832 -0.703742
0.0251988 -0.71591
0.0251988 -0.71591
0.0361334 -0.72559
0.0361334 -0.72559
0.0462762 -0.733241
0.0462762 -0.733241
0.0556689 -0.738851
0.0556689 -0.738851
0.0644193 -0.742965
0.0644193 -0.742965
0.0724637 -0.746027
0.0724637 -0.746027
0.0797763 -0.748013
      </DataArray> 
      <DataArray type="Float64" NumberOfComponents="2" Name="Velocity" format="ascii">
0 0
0 0
0 0
0 0
0 0
0 0
0 0
0 0
0 0
0 0
0 0
0 0
0 0
0 0
0 0
0 0
0 0
0 0
0 0
0 0
0 0
0 0
0 0
0 0
0 0
0 0
0 0
0 0
0 0
0 0
0 0
0 0
0 0
0 0
0 0
0 0
0 0
0 0
0 0
0 0
0 0
0 0
0 0
0 0
0 0
0 0
0 0
0 0
0 0
0 0
0 0
0 0
0 0
0 0
0 0
0 0
0 0
0 0
0 0
0 0
0 0
0 0
0 0
0 0
0 0
0 0
0 0
0 0
0 0
0 0
0 0
0 0
0 0
0 0
0 0
0 0
0 0
0 0
0 0
0 0
0 0
0 0
0 0
0 0
0 0
0 0
0 0
0 0
0 0
0 0
0 0
0 0
0 0
0 0
0 0
0 0
0 0
0 0
0 0
0 0
0 0
0 0
0 0
0 0
0 0
0 0
0 0
0 0
0 0
0 0
0 0
0 0
0 0
0 0
0 0
0 0
0 0
0 0
0 0
0 0
0 0
0 0
0 0
0 0
0 0
0 0
0 0
0 0
0 0
0 0
0 0
0 0
0 0
0 0
0 0
0 0
0 0
0 0
0 0
0 0
0 0
0 0
0 0
0 0
0 0
0 0
0 0
0 0
0 0
0 0
0 0
0 0
0 0
0 0
0 0
0 0
0 0
0 0
0 0
0 0
0 0
0 0
0 0
0 0
0 0
0 0
0 0
0 0
0 0
0 0
0 0
0 0
0 0
0 0
0 0
0 0
0 0
0 0
0 0
0 0
0 0
0 0
0 0
0 0
0 0
0 0
0 0
0 0
0 0
0 0
0 0
0 0
0 0
0 0
0 0
0 0
0 0
0 0
0 0
0 0
0 0
0 0
0 0
0 0
0 0
0 0
0 0
0 0
0 0
0 0
0 0
0 0
0 0
0 0
0 0
0 0
0 0
0 0
0 0
0 0
0 0
0 0
0 0
0 0
0 0
0 0
0 0
0 0
0 0
0 0
0 0
0 0
0 0
0 0
0 0
0 0
0 0
0 0
0 0
0 0
0 0
0 0
0 0
0 0
0 0
0 0
0 0
0 0
0 0
0 0
0 0
0 0
0 0
0 0
0 0
0 0
0 0
0 0
0 0
0 0
0 0
0 0
0 0
0 0
0 0
0 0
0 0
0 0
0 0
0 0
0 0
0 0
0 0
0 0
0 0
0 0
0 0
0 0
0 0
0 0
0 0
0 0
0 0
0 0
0 0
0 0
0 0
0 0
0 0
0 0
0 0
0 0
0 0
0 0
0 0
0 0
0 0
0 0
0 0
0 0
0 0
0 0
0 0
0 0
0 0
0 0
0 0
0 0
0 0
0 0
0 0
0 0
0 0
0 0
0 0
0 0
0 0
0 0
0 0
0 0
0 0
0 0
0 0
0 0
0 0
0 0
0 0
0 0
0 0
0 0
0 0
0 0
0 0
0 0
0 0
0 0
0 0
0 0
0 0
0 0
0 0
0 0
0 0
0 0
0 0
0 0
0 0
0 0
0 0
0 0
0 0
0 0
0 0
0 0
0 0
0 0
0 0
0 0
0 0
0 0
0 0
0 0
0 0
0 0
0 0
0 0
0 0
0 0
0 0
0 0
0 0
0 0
0 0
0 0
0 0
0 0
0 0
0 0
0 0
0 0
0 0
0 0
0 0
0 0
0 0
0 0
0 0
0 0
0 0
0 0
0 0
0 0
0 0
0 0
0 0
0 0
0 0
0 0
0 0
0 0
0 0
0 0
0 0
0 0
0 0
0 0
0 0
0 0
0 0
0 0
0 0
0 0
0 0
0 0
0 0
0 0
0 0
0 0
0 0
0 0
0 0
0 0
0 0
0 0
0 0
0 0
0 0
0 0
0 0
0 0
0 0
0 0
0 0
0 0
0 0
0 0
0 0
0 0
0 0
0 0
0 0
0 0
0 0
0 0
0 0
0 0
0 0
0 0
0 0
0 0
0 0
0 0
0 0
0 0
0 0
0 0
0 0
0 0
0 0
0 0
0 0
0 0
0 0
0 0
0 0
0 0
0 0
0 0
0 0
0 0
0 0
0 0
0 0
0 0
0 0
0 0
0 0
0 0
0 0
0 0
0 0
0 0
0 0
0 0
0 0
0 0
0 0
0 0
0 0
0 0
0 0
0 0
0 0
0 0
0 0
0 0
0 0
0 0
0 0
0 0
0 0
0 0
0 0
0 0
0 0
0 0
0 0
0 0
0 0
0 0
0 0
0 0
0 0
0 0
0 0
0 0
0 0
0 0
0 0
0 0
0 0
0 0
0 0
0 0
0 0
0 0
0 0
0 0
0 0
0 0
0 0
0 0
0 0
0 0
0 0
0 0
0 0
0 0
0 0
0 0
0 0
0 0
0 0
0 0
0 0
0 0
0 0
0 0
0 0
0 0
0 0
0 0
0 0
0 0
0 0
0 0
0 0
0 0
0 0
0 0
0 0
0 0
0 0
0 0
0 0
0 0
0 0
0 0
0 0
0 0
0 0
0 0
0 0
0 0
0 0
0 0
0 0
0 0
0 0
0 0
0 0
0 0
0 0
0 0
0 0
0 0
0 0
0 0
0 0
0 0
0 0
0 0
0 0
0 0
0 0
0 0
0 0
0 0
0 0
0 0
0 0
0 0
0 0
0 0
0 0
0 0
0 0
0 0
0 0
0 0
0 0
0 0
0 0
0 0
0 0
0 0
0 0
0 0
0 0
0 0
0 0
0 0
0 0
0 0
0 0
0 0
0 0
0 0
0 0
0 0
0 0
0 0
0 0
0 0
0 0
0 0
0 0
0 0
0 0
0 0
0 0
0 0
0 0
0 0
0 0
0 0
0 0
0 0
0 0
0 0
0 0
0 0
0 0
0 0
0 0
0 0
0 0
0 0
0 0
0 0
0 0
0 0
0 0
0 0
0 0
0 0
0 0
0 0
0 0
0 0
0 0
0 0
0 0
0 0
0 0
0 0
0 0
0 0
0 0
0 0
0 0
0 0
0 0
0 0
0 0
0 0
0 0
0 0
0 0
0 0
0 0
0 0
0 0
0 0
0 0
0 0
0 0
0 0
0 0
0 0
0 0
0 0
0 0
0 0
0 0
0 0
0 0
0 0
0 0
0 0
0 0
0 0
0 0
0 0
0 0
0 0
0 0
0 0
0 0
0 0
0 0
0 0
0 0
0 0
0 0
0 0
0 0
0 0
0 0
0 0
0 0
0 0
0 0
0 0
0 0
0 0
0 0
0 0
0 0
0 0
0 0
0 0
0 0
0 0
0 0
0 0
0 0
0 0
0 0
0 0
0 0
0 0
0 0
0 0
0 0
0 0
0 0
0 0
0 0
0 0
0 0
0 0
0 0
0 0
0 0
0 0
0 0
0 0
0 0
0 0
0 0
0 0
0 0
0 0
0 0
0 0
0 0
0 0
0 0
0 0
0 0
0 0
0 0
0 0
0 0
0 0
0 0
0 0
0 0
0 0
0 0
0 0
0 0
0 0
0 0
0 0
0 0
0 0
0 0
0 0
0 0
0 0
0 0
0 0
0 0
0 0
0 0
0 0
0 0
0 0
0 0
0 0
0 0
0 0
0 0
0 0
0 0
0 0
0 0
0 0
0 0
0 0
0 0
0 0
0 0
0 0
0 0
0 0
0 0
0 0
0 0
0 0
0 0
0 0
0 0
0 0
0 0
0 0
0 0
0 0
0 0
0 0
0 0
0 0
0 0
0 0
0 0
0 0
0 0
0 0
0 0
0 0
0 0
0 0
0 0
0 0
0 0
0 0
0 0
0 0
0 0
0 0
0 0
0 0
0 0
0 0
0 0
0 0
0 0
0 0
0 0
0 0
0 0
0 0
0 0
0 0
0 0
0 0
0 0
0 0
0 0
0 0
0 0
0 0
0 0
0 0
0 0
0 0
0 0
0 0
0 0
0 0
0 0
0 0
0 0
0 0
0 0
0 0
0 0
0 0
0 0
0 0
0 0
0 0
0 0
0 0
0 0
0 0
0 0
0 0
0 0
0 0
0 0
0 0
0 0
0 0
0 0
0 0
0 0
0 0
0 0
0 0
0 0
0 0
0 0
0 0
0 0
0 0
0 0
0 0
0 0
0 0
0 0
0 0
0 0
0 0
0 0
0 0
0 0
0 0
0 0
0 0
0 0
0 0
0 0
0 0
0 0
0 0
0 0
0 0
0 0
0 0
0 0
0 0
0 0
0 0
0 0
0 0
0 0
0 0
0 0
0 0
0 0
0 0
0 0
0 0
0 0
0 0
0 0
0 0
0 0
0 0
0 0
0 0
0 0
0 0
0 0
0 0
0 0
0 0
0 0
0 0
0 0
0 0
0 0
0 0
0 0
0 0
0 0
0 0
0 0
0 0
0 0
0 0
0 0
0 0
0 0
0 0
0 0
0 0
0 0
0 0
0 0
0 0
0 0
0 0
0 0
0 0
0 0
0 0
0 0
0 0
0 0
0 0
0 0
0 0
0 0
0 0
0 0
0 0
0 0
0 0
0 0
0 0
0 0
0 0
0 0
0 0
0 0
0 0
0 0
0 0
0 0
0 0
0 0
0 0
0 0
0 0
0 0
0 0
0 0
0 0
0 0
0 0
0 0
0 0
0 0
0 0
0 0
0 0
0 0
0 0
0 0
0 0
0 0
0 0
0 0
0 0
0 0
0 0
0 0
0 0
0 0
0 0
0 0
0 0
0 0
0 0
0 0
0 0
0 0
0 0
0 0
0 0
0 0
0 0
0 0
0 0
0 0
0 0
0 0
0 0
0 0
0 0
0 0
0 0
0 0
0 0
0 0
0 0
0 0
0 0
0 0
0 0
0 0
0 0
0 0
0 0
0 0
0 0
0 0
0 0
0 0
0 0
0 0
0 0
0 0
0 0
0 0
0 0
0 0
0 0
0 0
0 0
0 0
0 0
0 0
0 0
0 0
0 0
0 0
0 0
0 0
0 0
0 0
0 0
0 0
0 0
0 0
0 0
0 0
0 0
0 0
0 0
0 0
0 0
0 0
0 0
0 0
0 0
0 0
0 0
0 0
0 0
0 0
0 0
0 0
0 0
0 0
0 0
0 0
0 0
0 0
0 0
0 0
0 0
0 0
0 0
0 0
0 0
0 0
0 0
0 0
0 0
0 0
0 0
0 0
0 0
0 0
0 0
0 0
0 0
0 0
0 0
0 0
0 0
0 0
0 0
0 0
0 0
0 0
0 0
0 0
0 0
0 0
0 0
0 0
0 0
0 0
0 0
0 0
0 0
0 0
0 0
0 0
0 0
0 0
0 0
0 0
0 0
0 0
0 0
0 0
0 0
0 0
0 0
0 0
0 0
0 0
0 0
0 0
0 0
0 0
0 0
0 0
0 0
0 0
0 0
0 0
0 0
0 0
0 0
0 0
0 0
0 0
0 0
0 0
0 0
0 0
0 0
0 0
0 0
0 0
0 0
0 0
0 0
0 0
0 0
0 0
0 0
0 0
0 0
0 0
0 0
0 0
0 0
0 0
0 0
0 0
0 0
0 0
0 0
0 0
0 0
0 0
0 0
0 0
0 0
0 0
0 0
0 0
0 0
0 0
0 0
0 0
0 0
0 0
0 0
0 0
0 0
0 0
0 0
0 0
0 0
0 0
0 0
0 0
0 0
0 0
0 0
0 0
0 0
0 0
0 0
0 0
0 0
0 0
0 0
0 0
0 0
0 0
0 0
0 0
0 0
0 0
0 0
0 0
0 0
0 0
0 0
0 0
0 0
0 0
0 0
0 0
0 0
0 0
0 0
0 0
0 0
0 0
0 0
0 0
0 0
0 0
0 0
0 0
0 0
0 0
0 0
0 0
0 0
0 0
0 0
0 0
0 0
0 0
0 0
0 0
0 0
0 0
0 0
0 0
0 0
0 0
0 0
0 0
0 0
0 0
0 0
0 0
0 0
0 0
0 0
0 0
0 0
0 0
0 0
0 0
0 0
0 0
0 0
0 0
0 0
0 0
0 0
0 0
0 0
0 0
0 0
0 0
0 0
0 0
0 0
0 0
0 0
0 0
0 0
0 0
0 0
0 0
0 0
0 0
0 0
0 0
0 0
0 0
0 0
0 0
0 0
0 0
0 0
0 0
0 0
0 0
0 0
0 0
0 0
0 0
0 0
0 0
0 0
0 0
0 0
0 0
0 0
0 0
0 0
0 0
0 0
0 0
0 0
0 0
0 0
0 0
0 0
0 0
0 0
0 0
0 0
0 0
0 0
0 0
0 0
0 0
0 0
0 0
0 0
0 0
0 0
0 0
0 0
0 0
0 0
0 0
0 0
0 0
0 0
0 0
0 0
0 0
0 0
0 0
0 0
0 0
0 0
0 0
0 0
0 0
0 0
0 0
0 0
0 0
0 0
0 0
0 0
0 0
0 0
0 0
0 0
0 0
0 0
0 0
0 0
0 0
0 0
0 0
0 0
0 0
0 0
0 0
0 0
0 0
0 0
0 0
0 0
0 0
0 0
0 0
0 0
0 0
0 0
0 0
0 0
0 0
0 0
0 0
0 0
0 0
0 0
0 0
0 0
0 0
0 0
0 0
0 0
0 0
0 0
0 0
0 0
0 0
0 0
0 0
0 0
0 0
0 0
0 0
0 0
0 0
0 0
0 0
0 0
0 0
0 0
0 0
0 0
0 0
0 0
0 0
0 0
0 0
0 0
0 0
0 0
0 0
0 0
0 0
0 0
0 0
0 0
0 0
0 0
0 0
0 0
0 0
0 0
0 0
0 0
0 0
0 0
0 0
0 0
0 0
0 0
0 0
0 0
0 0
0 0
0 0
0 0
0 0
0 0
0 0
0 0
0 0
0 0
0 0
0 0
0 0
0 0
0 0
0 0
0 0
0 0
0 0
0 0
0 0
0 0
0 0
0 0
0 0
0 0
0 0
0 0
0 0
0 0
0 0
0 0
0 0
0 0
0 0
0 0
0 0
0 0
0 0
0 0
0 0
0 0
0 0
0 0
0 0
0 0
0 0
0 0
0 0
0 0
0 0
0 0
0 0
0 0
0 0
0 0
0 0
0 0
0 0
0 0
0 0
0 0
0 0
0 0
0 0
0 0
0 0
0 0
0 0
0 0
0 0
0 0
0 0
0 0
0 0
0 0
0 0
0 0
0 0
0 0
0 0
0 0
0 0
0 0
0 0
0 0
0 0
0 0
0 0
0 0
0 0
0 0
0 0
0 0
0 0
0 0
0 0
0 0
0 0
0 0
0 0
0 0
0 0
0 0
0 0
0 0
0 0
0 0
0 0
0 0
0 0
0 0
0 0
0 0
0 0
0 0
0 0
0 0
0 0
0 0
0 0
0 0
0 0
0 0
0 0
0 0
0 0
0 0
0 0
0 0
0 0
0 0
0 0
0 0
0 0
0 0
0 0
0 0
0 0
0 0
0 0
0 0
0 0
0 0
0 0
0 0
0 0
0 0
0 0
0 0
0 0
0 0
0 0
0 0
0 0
0 0
0 0
0 0
0 0
0 0
0 0
0 0
0 0
0 0
0 0
0 0
0 0
0 0
0 0
0 0
0 0
0 0
0 0
0 0
0 0
0 0
0 0
0 0
0 0
0 0
0 0
0 0
0 0
0 0
0 0
0 0
0 0
0 0
0 0
0 0
0 0
0 0
0 0
0 0
0 0
0 0
0 0
0 0
0 0
0 0
0 0
0 0
0 0
0 0
0 0
0 0
0 0
0 0
0 0
0 0
0 0
0 0
0 0
0 0
0 0
0 0
0 0
0 0
0 0
0 0
0 0
0 0
0 0
0 0
0 0
0 0
0 0
0 0
0 0
0 0
0 0
0 0
0 0
0 0
0 0
0 0
0 0
0 0
0 0
0 0
0 0
0 0
0 0
0 0
0 0
0 0
0 0
0 0
0 0
0 0
0 0
0 0
0 0
0 0
0 0
0 0
0 0
0 0
0 0
0 0
0 0
0 0
0 0
0 0
0 0
0 0
0 0
0 0
0 0
0 0
0 0
0 0
0 0
0 0
0 0
0 0
0 0
0 0
0 0
0 0
0 0
0 0
0 0
0 0
0 0
0 0
0 0
0 0
0 0
0 0
0 0
0 0
0 0
0 0
0 0
0 0
0 0
0 0
0 0
0 0
0 0
0 0
0 0
0 0
0 0
0 0
0 0
0 0
0 0
0 0
0 0
0 0
0 0
0 0
0 0
0 0
0 0
0 0
0 0
0 0
0 0
0 0
0 0
0 0
0 0
0 0
0 0
0 0
0 0
0 0
0 0
0 0
0 0
0 0
0 0
0 0
0 0
0 0
0 0
0 0
0 0
0 0
0 0
0 0
0 0
0 0
0 0
0 0
0 0
0 0
0 0
0 0
0 0
0 0
0 0
0 0
0 0
0 0
0 0
0 0
0 0
0 0
0 0
0 0
0 0
0 0
0 0
0 0
0 0
0 0
0 0
0 0
0 0
0 0
0 0
0 0
0 0
0 0
0 0
0 0
0 0
0 0
0 0
0 0
0 0
0 0
0 0
0 0
0 0
0 0
0 0
0 0
0 0
0 0
0 0
0 0
0 0
0 0
0 0
0 0
0 0
0 0
0 0
0 0
0 0
0 0
0 0
0 0
0 0
0 0
0 0
0 0
0 0
0 0
0 0
0 0
0 0
0 0
0 0
0 0
0 0
0 0
0 0
0 0
0 0
0 0
0 0
0 0
0 0
0 0
0 0
0 0
0 0
0 0
0 0
0 0
0 0
0 0
0 0
0 0
0 0
0 0
0 0
0 0
0 0
0 0
0 0
0 0
0 0
0 0
0 0
0 0
0 0
0 0
0 0
0 0
0 0
0 0
0 0
0 0
0 0
0 0
0 0
0 0
0 0
0 0
0 0
0 0
0 0
0 0
0 0
0 0
0 0
0 0
0 0
0 0
0 0
0 0
0 0
0 0
0 0
0 0
0 0
0 0
0 0
0 0
0 0
0 0
0 0
0 0
0 0
0 0
0 0
0 0
0 0
0 0
0 0
0 0
0 0
0 0
0 0
0 0
0 0
0 0
0 0
0 0
0 0
0 0
0 0
0 0
0 0
0 0
0 0
0 0
0 0
0 0
0 0
0 0
0 0
0 0
0 0
0 0
0 0
0 0
0 0
0 0
0 0
0 0
0 0
0 0
0 0
0 0
0 0
0 0
0 0
0 0
0 0
0 0
0 0
0 0
0 0
0 0
0 0
0 0
0 0
0 0
0 0
0 0
0 0
0 0
0 0
0 0
0 0
0 0
0 0
0 0
0 0
0 0
0 0
0 0
0 0
0 0
0 0
0 0
0 0
0 0
0 0
0 0
0 0
0 0
0 0
0 0
0 0
0 0
0 0
0 0
0 0
0 0
0 0
0 0
0 0
0 0
0 0
0 0
0 0
0 0
0 0
0 0
0 0
0 0
0 0
0 0
0 0
0 0
0 0
0 0
0 0
0 0
0 0
0 0
0 0
0 0
0 0
0 0
0 0
0 0
0 0
0 0
0 0
0 0
0 0
0 0
0 0
0 0
0 0
0 0
0 0
0 0
0 0
0 0
0 0
0 0
0 0
0 0
0 0
0 0
0 0
0 0
0 0
0 0
0 0
0 0
0 0
0 0
0 0
0 0
0 0
0 0
0 0
0 0
0 0
0 0
0 0
0 0
0 0
0 0
0 0
0 0
0 0
0 0
0 0
0 0
0 0
0 0
0 0
0 0
0 0
0 0
0 0
0 0
0 0
0 0
0 0
0 0
0 0
0 0
0 0
0 0
0 0
0 0
0 0
0 0
0 0
0 0
0 0
0 0
0 0
0 0
0 0
0 0
0 0
0 0
0 0
0 0
0 0
0 0
0 0
0 0
0 0
0 0
0 0
0 0
0 0
0 0
0 0
0 0
0 0
0 0
0 0
0 0
0 0
0 0
0 0
0 0
0 0
0 0
0 0
0 0
0 0
0 0
0 0
0 0
0 0
0 0
0 0
0 0
0 0
0 0
0 0
0 0
0 0
0 0
0 0
0 0
0 0
0 0
0 0
0 0
0 0
0 0
0 0
0 0
0 0
0 0
0 0
0 0
0 0
0 0
0 0
0 0
0 0
0 0
0 0
0 0
0 0
0 0
0 0
0 0
0 0
0 0
0 0
0 0
0 0
0 0
0 0
0 0
0 0
0 0
0 0
0 0
0 0
0 0
0 0
0 0
0 0
0 0
0 0
0 0
0 0
0 0
0 0
0 0
0 0
0 0
0 0
0 0
0 0
0 0
0 0
0 0
0 0
0 0
0 0
0 0
0 0
0 0
0 0
0 0
0 0
0 0
0 0
0 0
0 0
0 0
0 0
0 0
0 0
0 0
0 0
0 0
0 0
0 0
0 0
0 0
0 0
0 0
0 0
0 0
0 0
0 0
0 0
0 0
0 0
0 0
0 0
0 0
0 0
0 0
0 0
0 0
0 0
0 0
0 0
0 0
0 0
0 0
0 0
0 0
0 0
0 0
0 0
0 0
0 0
0 0
0 0
0 0
0 0
0 0
0 0
0 0
0 0
0 0
0 0
0 0
0 0
0 0
0 0
0 0
0 0
0 0
0 0
0 0
0 0
0 0
0 0
0 0
0 0
0 0
0 0
0 0
0 0
0 0
0 0
0 0
0 0
0 0
0 0
0 0
0 0
0 0
0 0
0 0
0 0
0 0
0 0
0 0
0 0
0 0
0 0
0 0
0 0
0 0
0 0
0 0
0 0
0 0
0 0
0 0
0 0
0 0
0 0
0 0
0 0
0 0
0 0
0 0
0 0
0 0
0 0
0 0
0 0
0 0
0 0
0 0
0 0
0 0
0 0
0 0
0 0
0 0
0 0
0 0
0 0
0 0
0 0
0 0
0 0
0 0
0 0
0 0
0 0
0 0
0 0
0 0
0 0
0 0
0 0
0 0
0 0
0 0
0 0
0 0
0 0
0 0
0 0
0 0
0 0
0 0
0 0
0 0
0 0
0 0
0 0
0 0
0 0
0 0
0 0
0 0
0 0
0 0
0 0
0 0
0 0
0 0
0 0
0 0
0 0
0 0
0 0
0 0
0 0
0 0
0 0
0 0
0 0
0 0
0 0
0 0
0 0
0 0
0 0
0 0
0 0
0 0
0 0
0 0
0 0
0 0
0 0
0 0
0 0
0 0
0 0
0 0
0 0
0 0
0 0
0 0
0 0
0 0
0 0
0 0
0 0
0 0
0 0
0 0
0 0
0 0
0 0
0 0
0 0
0 0
0 0
0 0
0 0
0 0
0 0
0 0
0 0
0 0
0 0
0 0
0 0
0 0
0 0
0 0
0 0
0 0
0 0
0 0
0 0
0 0
0 0
0 0
0 0
0 0
0 0
0 0
0 0
0 0
0 0
0 0
0 0
0 0
0 0
0 0
0 0
0 0
0 0
0 0
0 0
0 0
0 0
0 0
0 0
0 0
0 0
0 0
0 0
0 0
0 0
0 0
0 0
0 0
0 0
0 0
0 0
0 0
0 0
0 0
0 0
0 0
0 0
0 0
0 0
0 0
0 0
0 0
0 0
0 0
0 0
0 0
0 0
0 0
0 0
0 0
0 0
0 0
0 0
0 0
0 0
0 0
0 0
0 0
0 0
0 0
0 0
0 0
0 0
0 0
0 0
0 0
0 0
0 0
0 0
0 0
0 0
0 0
0 0
0 0
0 0
0 0
0 0
0 0
0 0
0 0
0 0
0 0
0 0
0 0
0 0
0 0
0 0
0 0
0 0
0 0
0 0
0 0
0 0
0 0
0 0
0 0
0 0
0 0
0 0
0 0
0 0
0 0
0 0
0 0
0 0
0 0
0 0
0 0
0 0
0 0
0 0
0 0
0 0
0 0
0 0
0 0
0 0
0 0
0 0
0 0
0 0
0 0
0 0
0 0
0 0
0 0
0 0
0 0
0 0
0 0
0 0
0 0
0 0
0 0
0 0
0 0
0 0
0 0
0 0
0 0
0 0
0 0
0 0
0 0
0 0
0 0
0 0
0 0
0 0
0 0
0 0
0 0
0 0
0 0
0 0
0 0
0 0
0 0
0 0
0 0
0 0
0 0
0 0
0 0
0 0
0 0
0 0
0 0
0 0
0 0
0 0
0 0
0 0
0 0
0 0
0 0
0 0
0 0
0 0
0 0
0 0
0 0
0 0
0 0
0 0
0 0
0 0
0 0
0 0
0 0
0 0
0 0
0 0
0 0
0 0
0 0
0 0
0 0
0 0
0 0
0 0
0 0
0 0
0 0
0 0
0 0
0 0
0 0
0 0
0 0
0 0
0 0
0 0
0 0
0 0
0 0
0 0
0 0
0 0
0 0
0 0
0 0
0 0
0 0
0 0
0 0
0 0
0 0
0 0
0 0
0 0
0 0
0 0
0 0
0 0
0 0
0 0
0 0
0 0
0 0
0 0
0 0
0 0
0 0
0 0
0 0
0 0
0 0
0 0
0 0
0 0
0 0
0 0
0 0
0 0
0 0
0 0
0 0
0 0
0 0
0 0
0 0
0 0
0 0
0 0
0 0
0 0
0 0
0 0
0 0
0 0
0 0
0 0
0 0
0 0
0 0
0 0
0 0
0 0
0 0
0 0
0 0
0 0
0 0
0 0
0 0
0 0
0 0
0 0
0 0
0 0
0 0
0 0
0 0
0 0
0 0
0 0
0 0
0 0
0 0
0 0
0 0
0 0
0 0
0 0
0 0
0 0
0 0
0 0
0 0
0 0
0 0
0 0
0 0
0 0
0 0
0 0
0 0
0 0
0 0
0 0
0 0
0 0
0 0
0 0
0 0
0 0
0 0
0 0
0 0
0 0
0 0
0 0
0 0
0 0
0 0
0 0
0 0
0 0
0 0
0 0
0 0
0 0
0 0
0 0
0 0
0 0
0 0
0 0
0 0
0 0
0 0
0 0
0 0
0 0
0 0
0 0
0 0
0 0
0 0
0 0
0 0
0 0
0 0
0 0
0 0
0 0
0 0
0 0
0 0
0 0
0 0
0 0
0 0
0 0
0 0
0 0
0 0
0 0
0 0
0 0
0 0
0 0
0 0
0 0
0 0
0 0
0 0
0 0
0 0
0 0
0 0
0 0
0 0
0 0
0 0
0 0
0 0
0 0
0 0
0 0
0 0
0 0
0 0
0 0
0 0
0 0
0 0
0 0
0 0
0 0
0 0
0 0
0 0
0 0
0 0
0 0
0 0
0 0
0 0
0 0
0 0
0 0
0 0
0 0
0 0
0 0
0 0
0 0
0 0
0 0
0 0
0 0
0 0
0 0
0 0
0 0
0 0
0 0
0 0
0 0
0 0
0 0
0 0
0 0
0 0
0 0
0 0
0 0
0 0
0 0
0 0
0 0
0 0
0 0
0 0
0 0
0 0
0 0
0 0
0 0
0 0
0 0
0 0
0 0
0 0
0 0
0 0
0 0
0 0
0 0
0 0
0 0
0 0
0 0
0 0
0 0
0 0
0 0
0 0
0 0
0 0
0 0
0 0
0 0
0 0
0 0
0 0
0 0
0 0
0 0
0 0
0 0
0 0
0 0
0 0
0 0
0 0
0 0
0 0
0 0
0 0
0 0
0 0
0 0
0 0
0 0
0 0
0 0
0 0
0 0
0 0
0 0
0 0
0 0
0 0
0 0
0 0
0 0
0 0
0 0
0 0
0 0
0 0
0 0
0 0
0 0
0 0
0 0
0 0
0 0
0 0
0 0
0 0
0 0
0 0
0 0
0 0
0 0
0 0
0 0
0 0
0 0
0 0
0 0
0 0
0 0
0 0
0 0
0 0
0 0
0 0
0 0
0 0
0 0
0 0
0 0
0 0
0 0
0 0
0 0
0 0
0 0
0 0
0 0
0 0
0 0
0 0
0 0
0 0
0 0
0 0
0 0
0 0
0 0
0 0
0 0
0 0
0 0
0 0
0 0
0 0
0 0
0 0
0 0
0 0
0 0
0 0
0 0
0 0
0 0
0 0
0 0
0 0
0 0
0 0
0 0
0 0
0 0
0 0
0 0
0 0
0 0
0 0
0 0
0 0
0 0
0 0
0 0
0 0
0 0
0 0
0 0
0 0
0 0
0 0
0 0
0 0
0 0
0 0
0 0
0 0
0 0
0 0
0 0
0 0
0 0
0 0
0 0
0 0
0 0
0 0
0 0
0 0
0 0
0 0
0 0
0 0
0 0
0 0
0 0
0 0
0 0
0 0
0 0
0 0
0 0
0 0
0 0
0 0
0 0
0 0
0 0
0 0
0 0
0 0
0 0
0 0
0 0
0 0
0 0
0 0
0 0
0 0
0 0
0 0
0 0
0 0
0 0
0 0
0 0
0 0
0 0
0 0
0 0
0 0
0 0
0 0
0 0
0 0
0 0
0 0
0 0
0 0
0 0
0 0
0 0
0 0
0 0
0 0
0 0
0 0
0 0
0 0
0 0
0 0
0 0
0 0
0 0
0 0
0 0
0 0
0 0
0 0
0 0
0 0
0 0
0 0
0 0
0 0
0 0
0 0
0 0
0 0
0 0
0 0
0 0
0 0
0 0
0 0
0 0
0 0
0 0
0 0
0 0
0 0
0 0
0 0
0 0
0 0
0 0
0 0
0 0
0 0
0 0
0 0
0 0
0 0
0 0
0 0
0 0
0 0
0 0
0 0
0 0
0 0
0 0
0 0
0 0
0 0
0 0
0 0
0 0
0 0
0 0
0 0
0 0
0 0
0 0
0 0
0 0
0 0
0 0
0 0
0 0
0 0
0 0
0 0
0 0
0 0
0 0
0 0
0 0
0 0
0 0
0 0
0 0
0 0
0 0
0 0
0 0
0 0
0 0
0 0
0 0
0 0
0 0
0 0
0 0
0 0
0 0
0 0
0 0
0 0
0 0
0 0
0 0
0 0
0 0
0 0
0 0
0 0
0 0
0 0
0 0
0 0
0 0
0 0
0 0
0 0
0 0
0 0
0 0
0 0
0 0
0 0
0 0
0 0
0 0
0 0
0 0
0 0
0 0
0 0
0 0
0 0
0 0
0 0
0 0
0 0
0 0
0 0
0 0
0 0
0 0
0 0
0 0
0 0
0 0
0 0
0 0
0 0
0 0
0 0
0 0
0 0
0 0
0 0
0 0
0 0
0 0
0 0
0 0
0 0
0 0
0 0
0 0
0 0
0 0
0 0
0 0
0 0
0 0
0 0
0 0
0 0
0 0
0 0
0 0
0 0
0 0
0 0
0 0
0 0
0 0
0 0
0 0
0 0
0 0
0 0
0 0
0 0
0 0
0 0
0 0
0 0
0 0
0 0
0 0
0 0
0 0
0 0
0 0
0 0
0 0
0 0
0 0
0 0
0 0
0 0
0 0
0 0
0 0
0 0
0 0
0 0
0 0
0 0
0 0
0 0
0 0
0 0
0 0
0 0
0 0
0 0
0 0
0 0
0 0
0 0
0 0
0 0
0 0
0 0
0 0
      </DataArray> 
      <DataArray type="Float64" NumberOfComponents="2" Name="Acceleration" format="ascii">
0 0
0 0
0 0
0 0
0 0
0 0
0 0
0 0
0 0
0 0
0 0
0 0
0 0
0 0
0 0
0 0
0 0
0 0
0 0
0 0
0 0
0 0
0 0
0 0
0 0
0 0
0 0
0 0
0 0
0 0
0 0
0 0
0 0
0 0
0 0
0 0
0 0
0 0
0 0
0 0
0 0
0 0
0 0
0 0
0 0
0 0
0 0
0 0
0 0
0 0
0 0
0 0
0 0
0 0
0 0
0 0
0 0
0 0
0 0
0 0
0 0
0 0
0 0
0 0
0 0
0 0
0 0
0 0
0 0
0 0
0 0
0 0
0 0
0 0
0 0
0 0
0 0
0 0
0 0
0 0
0 0
0 0
0 0
0 0
0 0
0 0
0 0
0 0
0 0
0 0
0 0
0 0
0 0
0 0
0 0
0 0
0 0
0 0
0 0
0 0
0 0
0 0
0 0
0 0
0 0
0 0
0 0
0 0
0 0
0 0
0 0
0 0
0 0
0 0
0 0
0 0
0 0
0 0
0 0
0 0
0 0
0 0
0 0
0 0
0 0
0 0
0 0
0 0
0 0
0 0
0 0
0 0
0 0
0 0
0 0
0 0
0 0
0 0
0 0
0 0
0 0
0 0
0 0
0 0
0 0
0 0
0 0
0 0
0 0
0 0
0 0
0 0
0 0
0 0
0 0
0 0
0 0
0 0
0 0
0 0
0 0
0 0
0 0
0 0
0 0
0 0
0 0
0 0
0 0
0 0
0 0
0 0
0 0
0 0
0 0
0 0
0 0
0 0
0 0
0 0
0 0
0 0
0 0
0 0
0 0
0 0
0 0
0 0
0 0
0 0
0 0
0 0
0 0
0 0
0 0
0 0
0 0
0 0
0 0
0 0
0 0
0 0
0 0
0 0
0 0
0 0
0 0
0 0
0 0
0 0
0 0
0 0
0 0
0 0
0 0
0 0
0 0
0 0
0 0
0 0
0 0
0 0
0 0
0 0
0 0
0 0
0 0
0 0
0 0
0 0
0 0
0 0
0 0
0 0
0 0
0 0
0 0
0 0
0 0
0 0
0 0
0 0
0 0
0 0
0 0
0 0
0 0
0 0
0 0
0 0
0 0
0 0
0 0
0 0
0 0
0 0
0 0
0 0
0 0
0 0
0 0
0 0
0 0
0 0
0 0
0 0
0 0
0 0
0 0
0 0
0 0
0 0
0 0
0 0
0 0
0 0
0 0
0 0
0 0
0 0
0 0
0 0
0 0
0 0
0 0
0 0
0 0
0 0
0 0
0 0
0 0
0 0
0 0
0 0
0 0
0 0
0 0
0 0
0 0
0 0
0 0
0 0
0 0
0 0
0 0
0 0
0 0
0 0
0 0
0 0
0 0
0 0
0 0
0 0
0 0
0 0
0 0
0 0
0 0
0 0
0 0
0 0
0 0
0 0
0 0
0 0
0 0
0 0
0 0
0 0
0 0
0 0
0 0
0 0
0 0
0 0
0 0
0 0
0 0
0 0
0 0
0 0
0 0
0 0
0 0
0 0
0 0
0 0
0 0
0 0
0 0
0 0
0 0
0 0
0 0
0 0
0 0
0 0
0 0
0 0
0 0
0 0
0 0
0 0
0 0
0 0
0 0
0 0
0 0
0 0
0 0
0 0
0 0
0 0
0 0
0 0
0 0
0 0
0 0
0 0
0 0
0 0
0 0
0 0
0 0
0 0
0 0
0 0
0 0
0 0
0 0
0 0
0 0
0 0
0 0
0 0
0 0
0 0
0 0
0 0
0 0
0 0
0 0
0 0
0 0
0 0
0 0
0 0
0 0
0 0
0 0
0 0
0 0
0 0
0 0
0 0
0 0
0 0
0 0
0 0
0 0
0 0
0 0
0 0
0 0
0 0
0 0
0 0
0 0
0 0
0 0
0 0
0 0
0 0
0 0
0 0
0 0
0 0
0 0
0 0
0 0
0 0
0 0
0 0
0 0
0 0
0 0
0 0
0 0
0 0
0 0
0 0
0 0
0 0
0 0
0 0
0 0
0 0
0 0
0 0
0 0
0 0
0 0
0 0
0 0
0 0
0 0
0 0
0 0
0 0
0 0
0 0
0 0
0 0
0 0
0 0
0 0
0 0
0 0
0 0
0 0
0 0
0 0
0 0
0 0
0 0
0 0
0 0
0 0
0 0
0 0
0 0
0 0
0 0
0 0
0 0
0 0
0 0
0 0
0 0
0 0
0 0
0 0
0 0
0 0
0 0
0 0
0 0
0 0
0 0
0 0
0 0
0 0
0 0
0 0
0 0
0 0
0 0
0 0
0 0
0 0
0 0
0 0
0 0
0 0
0 0
0 0
0 0
0 0
0 0
0 0
0 0
0 0
0 0
0 0
0 0
0 0
0 0
0 0
0 0
0 0
0 0
0 0
0 0
0 0
0 0
0 0
0 0
0 0
0 0
0 0
0 0
0 0
0 0
0 0
0 0
0 0
0 0
0 0
0 0
0 0
0 0
0 0
0 0
0 0
0 0
0 0
0 0
0 0
0 0
0 0
0 0
0 0
0 0
0 0
0 0
0 0
0 0
0 0
0 0
0 0
0 0
0 0
0 0
0 0
0 0
0 0
0 0
0 0
0 0
0 0
0 0
0 0
0 0
0 0
0 0
0 0
0 0
0 0
0 0
0 0
0 0
0 0
0 0
0 0
0 0
0 0
0 0
0 0
0 0
0 0
0 0
0 0
0 0
0 0
0 0
0 0
0 0
0 0
0 0
0 0
0 0
0 0
0 0
0 0
0 0
0 0
0 0
0 0
0 0
0 0
0 0
0 0
0 0
0 0
0 0
0 0
0 0
0 0
0 0
0 0
0 0
0 0
0 0
0 0
0 0
0 0
0 0
0 0
0 0
0 0
0 0
0 0
0 0
0 0
0 0
0 0
0 0
0 0
0 0
0 0
0 0
0 0
0 0
0 0
0 0
0 0
0 0
0 0
0 0
0 0
0 0
0 0
0 0
0 0
0 0
0 0
0 0
0 0
0 0
0 0
0 0
0 0
0 0
0 0
0 0
0 0
0 0
0 0
0 0
0 0
0 0
0 0
0 0
0 0
0 0
0 0
0 0
0 0
0 0
0 0
0 0
0 0
0 0
0 0
0 0
0 0
0 0
0 0
0 0
0 0
0 0
0 0
0 0
0 0
0 0
0 0
0 0
0 0
0 0
0 0
0 0
0 0
0 0
0 0
0 0
0 0
0 0
0 0
0 0
0 0
0 0
0 0
0 0
0 0
0 0
0 0
0 0
0 0
0 0
0 0
0 0
0 0
0 0
0 0
0 0
0 0
0 0
0 0
0 0
0 0
0 0
0 0
0 0
0 0
0 0
0 0
0 0
0 0
0 0
0 0
0 0
0 0
0 0
0 0
0 0
0 0
0 0
0 0
0 0
0 0
0 0
0 0
0 0
0 0
0 0
0 0
0 0
0 0
0 0
0 0
0 0
0 0
0 0
0 0
0 0
0 0
0 0
0 0
0 0
0 0
0 0
0 0
0 0
0 0
0 0
0 0
0 0
0 0
0 0
0 0
0 0
0 0
0 0
0 0
0 0
0 0
0 0
0 0
0 0
0 0
0 0
0 0
0 0
0 0
0 0
0 0
0 0
0 0
0 0
0 0
0 0
0 0
0 0
0 0
0 0
0 0
0 0
0 0
0 0
0 0
0 0
0 0
0 0
0 0
0 0
0 0
0 0
0 0
0 0
0 0
0 0
0 0
0 0
0 0
0 0
0 0
0 0
0 0
0 0
0 0
0 0
0 0
0 0
0 0
0 0
0 0
0 0
0 0
0 0
0 0
0 0
0 0
0 0
0 0
0 0
0 0
0 0
0 0
0 0
0 0
0 0
0 0
0 0
0 0
0 0
0 0
0 0
0 0
0 0
0 0
0 0
0 0
0 0
0 0
0 0
0 0
0 0
0 0
0 0
0 0
0 0
0 0
0 0
0 0
0 0
0 0
0 0
0 0
0 0
0 0
0 0
0 0
0 0
0 0
0 0
0 0
0 0
0 0
0 0
0 0
0 0
0 0
0 0
0 0
0 0
0 0
0 0
0 0
0 0
0 0
0 0
0 0
0 0
0 0
0 0
0 0
0 0
0 0
0 0
0 0
0 0
0 0
0 0
0 0
0 0
0 0
0 0
0 0
0 0
0 0
0 0
0 0
0 0
0 0
0 0
0 0
0 0
0 0
0 0
0 0
0 0
0 0
0 0
0 0
0 0
0 0
0 0
0 0
0 0
0 0
0 0
0 0
0 0
0 0
0 0
0 0
0 0
0 0
0 0
0 0
0 0
0 0
0 0
0 0
0 0
0 0
0 0
0 0
0 0
0 0
0 0
0 0
0 0
0 0
0 0
0 0
0 0
0 0
0 0
0 0
0 0
0 0
0 0
0 0
0 0
0 0
0 0
0 0
0 0
0 0
0 0
0 0
0 0
0 0
0 0
0 0
0 0
0 0
0 0
0 0
0 0
0 0
0 0
0 0
0 0
0 0
0 0
0 0
0 0
0 0
0 0
0 0
0 0
0 0
0 0
0 0
0 0
0 0
0 0
0 0
0 0
0 0
0 0
0 0
0 0
0 0
0 0
0 0
0 0
0 0
0 0
0 0
0 0
0 0
0 0
0 0
0 0
0 0
0 0
0 0
0 0
0 0
0 0
0 0
0 0
0 0
0 0
0 0
0 0
0 0
0 0
0 0
0 0
0 0
0 0
0 0
0 0
0 0
0 0
0 0
0 0
0 0
0 0
0 0
0 0
0 0
0 0
0 0
0 0
0 0
0 0
0 0
0 0
0 0
0 0
0 0
0 0
0 0
0 0
0 0
0 0
0 0
0 0
0 0
0 0
0 0
0 0
0 0
0 0
0 0
0 0
0 0
0 0
0 0
0 0
0 0
0 0
0 0
0 0
0 0
0 0
0 0
0 0
0 0
0 0
0 0
0 0
0 0
0 0
0 0
0 0
0 0
0 0
0 0
0 0
0 0
0 0
0 0
0 0
0 0
0 0
0 0
0 0
0 0
0 0
0 0
0 0
0 0
0 0
0 0
0 0
0 0
0 0
0 0
0 0
0 0
0 0
0 0
0 0
0 0
0 0
0 0
0 0
0 0
0 0
0 0
0 0
0 0
0 0
0 0
0 0
0 0
0 0
0 0
0 0
0 0
0 0
0 0
0 0
0 0
0 0
0 0
0 0
0 0
0 0
0 0
0 0
0 0
0 0
0 0
0 0
0 0
0 0
0 0
0 0
0 0
0 0
0 0
0 0
0 0
0 0
0 0
0 0
0 0
0 0
0 0
0 0
0 0
0 0
0 0
0 0
0 0
0 0
0 0
0 0
0 0
0 0
0 0
0 0
0 0
0 0
0 0
0 0
0 0
0 0
0 0
0 0
0 0
0 0
0 0
0 0
0 0
0 0
0 0
0 0
0 0
0 0
0 0
0 0
0 0
0 0
0 0
0 0
0 0
0 0
0 0
0 0
0 0
0 0
0 0
0 0
0 0
0 0
0 0
0 0
0 0
0 0
0 0
0 0
0 0
0 0
0 0
0 0
0 0
0 0
0 0
0 0
0 0
0 0
0 0
0 0
0 0
0 0
0 0
0 0
0 0
0 0
0 0
0 0
0 0
0 0
0 0
0 0
0 0
0 0
0 0
0 0
0 0
0 0
0 0
0 0
0 0
0 0
0 0
0 0
0 0
0 0
0 0
0 0
0 0
0 0
0 0
0 0
0 0
0 0
0 0
0 0
0 0
0 0
0 0
0 0
0 0
0 0
0 0
0 0
0 0
0 0
0 0
0 0
0 0
0 0
0 0
0 0
0 0
0 0
0 0
0 0
0 0
0 0
0 0
0 0
0 0
0 0
0 0
0 0
0 0
0 0
0 0
0 0
0 0
0 0
0 0
0 0
0 0
0 0
0 0
0 0
0 0
0 0
0 0
0 0
0 0
0 0
0 0
0 0
0 0
0 0
0 0
0 0
0 0
0 0
0 0
0 0
0 0
0 0
0 0
0 0
0 0
0 0
0 0
0 0
0 0
0 0
0 0
0 0
0 0
0 0
0 0
0 0
0 0
0 0
0 0
0 0
0 0
0 0
0 0
0 0
0 0
0 0
0 0
0 0
0 0
0 0
0 0
0 0
0 0
0 0
0 0
0 0
0 0
0 0
0 0
0 0
0 0
0 0
0 0
0 0
0 0
0 0
0 0
0 0
0 0
0 0
0 0
0 0
0 0
0 0
0 0
0 0
0 0
0 0
0 0
0 0
0 0
0 0
0 0
0 0
0 0
0 0
0 0
0 0
0 0
0 0
0 0
0 0
0 0
0 0
0 0
0 0
0 0
0 0
0 0
0 0
0 0
0 0
0 0
0 0
0 0
0 0
0 0
0 0
0 0
0 0
0 0
0 0
0 0
0 0
0 0
0 0
0 0
0 0
0 0
0 0
0 0
0 0
0 0
0 0
0 0
0 0
0 0
0 0
0 0
0 0
0 0
0 0
0 0
0 0
0 0
0 0
0 0
0 0
0 0
0 0
0 0
0 0
0 0
0 0
0 0
0 0
0 0
0 0
0 0
0 0
0 0
0 0
0 0
0 0
0 0
0 0
0 0
0 0
0 0
0 0
0 0
0 0
0 0
0 0
0 0
0 0
0 0
0 0
0 0
0 0
0 0
0 0
0 0
0 0
0 0
0 0
0 0
0 0
0 0
0 0
0 0
0 0
0 0
0 0
0 0
0 0
0 0
0 0
0 0
0 0
0 0
0 0
0 0
0 0
0 0
0 0
0 0
0 0
0 0
0 0
0 0
0 0
0 0
0 0
0 0
0 0
0 0
0 0
0 0
0 0
0 0
0 0
0 0
0 0
0 0
0 0
0 0
0 0
0 0
0 0
0 0
0 0
0 0
0 0
0 0
0 0
0 0
0 0
0 0
0 0
0 0
0 0
0 0
0 0
0 0
0 0
0 0
0 0
0 0
0 0
0 0
0 0
0 0
0 0
0 0
0 0
0 0
0 0
0 0
0 0
0 0
0 0
0 0
0 0
0 0
0 0
0 0
0 0
0 0
0 0
0 0
0 0
0 0
0 0
0 0
0 0
0 0
0 0
0 0
0 0
0 0
0 0
0 0
0 0
0 0
0 0
0 0
0 0
0 0
0 0
0 0
0 0
0 0
0 0
0 0
0 0
0 0
0 0
0 0
0 0
0 0
0 0
0 0
0 0
0 0
0 0
0 0
0 0
0 0
0 0
0 0
0 0
0 0
0 0
0 0
0 0
0 0
0 0
0 0
0 0
0 0
0 0
0 0
0 0
0 0
0 0
0 0
0 0
0 0
0 0
0 0
0 0
0 0
0 0
0 0
0 0
0 0
0 0
0 0
0 0
0 0
0 0
0 0
0 0
0 0
0 0
0 0
0 0
0 0
0 0
0 0
0 0
0 0
0 0
0 0
0 0
0 0
0 0
0 0
0 0
0 0
0 0
0 0
0 0
0 0
0 0
0 0
0 0
0 0
0 0
0 0
0 0
0 0
0 0
0 0
0 0
0 0
0 0
0 0
0 0
0 0
0 0
0 0
0 0
0 0
0 0
0 0
0 0
0 0
0 0
0 0
0 0
0 0
0 0
0 0
0 0
0 0
0 0
0 0
0 0
0 0
0 0
0 0
0 0
0 0
0 0
0 0
0 0
0 0
0 0
0 0
0 0
0 0
0 0
0 0
0 0
0 0
0 0
0 0
0 0
0 0
0 0
0 0
0 0
0 0
0 0
0 0
0 0
0 0
0 0
0 0
0 0
0 0
0 0
0 0
0 0
0 0
0 0
0 0
0 0
0 0
0 0
0 0
0 0
0 0
0 0
0 0
0 0
0 0
0 0
0 0
0 0
0 0
0 0
0 0
0 0
0 0
0 0
0 0
0 0
0 0
0 0
0 0
0 0
0 0
0 0
0 0
0 0
0 0
0 0
0 0
0 0
0 0
0 0
0 0
0 0
0 0
0 0
0 0
0 0
0 0
0 0
0 0
0 0
0 0
0 0
0 0
0 0
0 0
0 0
0 0
0 0
0 0
0 0
0 0
0 0
0 0
0 0
0 0
0 0
0 0
0 0
0 0
0 0
0 0
0 0
0 0
0 0
0 0
0 0
0 0
0 0
0 0
0 0
0 0
0 0
0 0
0 0
0 0
0 0
0 0
0 0
0 0
0 0
0 0
0 0
0 0
0 0
0 0
0 0
0 0
0 0
0 0
0 0
0 0
0 0
0 0
0 0
0 0
0 0
0 0
0 0
0 0
0 0
0 0
0 0
0 0
0 0
0 0
0 0
0 0
0 0
0 0
0 0
0 0
0 0
0 0
0 0
0 0
0 0
0 0
0 0
0 0
0 0
0 0
0 0
0 0
0 0
0 0
0 0
0 0
0 0
0 0
0 0
0 0
0 0
0 0
0 0
0 0
0 0
0 0
0 0
0 0
0 0
0 0
0 0
0 0
0 0
0 0
0 0
0 0
0 0
0 0
0 0
0 0
0 0
0 0
0 0
0 0
0 0
0 0
0 0
0 0
0 0
0 0
0 0
0 0
0 0
0 0
0 0
0 0
0 0
0 0
0 0
0 0
0 0
0 0
0 0
0 0
0 0
0 0
0 0
0 0
0 0
0 0
0 0
0 0
0 0
0 0
0 0
0 0
0 0
0 0
0 0
0 0
0 0
0 0
0 0
0 0
0 0
0 0
0 0
0 0
0 0
0 0
0 0
0 0
0 0
0 0
0 0
0 0
0 0
0 0
0 0
0 0
0 0
0 0
0 0
0 0
0 0
0 0
0 0
0 0
0 0
0 0
0 0
0 0
0 0
0 0
0 0
0 0
0 0
0 0
0 0
0 0
0 0
0 0
0 0
0 0
0 0
0 0
0 0
0 0
0 0
0 0
0 0
0 0
0 0
0 0
0 0
0 0
0 0
0 0
0 0
0 0
0 0
0 0
0 0
0 0
0 0
0 0
0 0
0 0
0 0
0 0
0 0
0 0
0 0
0 0
0 0
0 0
0 0
0 0
0 0
0 0
0 0
0 0
0 0
0 0
0 0
0 0
0 0
0 0
0 0
0 0
0 0
0 0
0 0
0 0
0 0
0 0
0 0
0 0
0 0
0 0
0 0
0 0
0 0
0 0
0 0
0 0
0 0
0 0
0 0
0 0
0 0
0 0
0 0
0 0
0 0
0 0
0 0
0 0
0 0
0 0
0 0
0 0
0 0
0 0
0 0
0 0
0 0
0 0
0 0
0 0
0 0
0 0
0 0
0 0
0 0
0 0
0 0
0 0
0 0
0 0
0 0
0 0
0 0
0 0
0 0
0 0
0 0
0 0
0 0
0 0
0 0
0 0
0 0
0 0
0 0
0 0
0 0
0 0
0 0
0 0
0 0
0 0
0 0
0 0
0 0
0 0
0 0
0 0
0 0
0 0
0 0
0 0
0 0
0 0
0 0
0 0
0 0
0 0
0 0
0 0
0 0
0 0
0 0
0 0
0 0
0 0
0 0
0 0
0 0
0 0
0 0
0 0
0 0
0 0
0 0
0 0
0 0
0 0
0 0
0 0
0 0
0 0
0 0
0 0
0 0
0 0
0 0
0 0
0 0
0 0
0 0
0 0
0 0
0 0
0 0
0 0
0 0
0 0
0 0
0 0
0 0
0 0
0 0
0 0
0 0
0 0
0 0
0 0
0 0
0 0
0 0
0 0
0 0
0 0
0 0
0 0
0 0
0 0
0 0
0 0
0 0
0 0
0 0
0 0
0 0
0 0
0 0
0 0
0 0
0 0
0 0
0 0
0 0
0 0
0 0
0 0
0 0
0 0
0 0
0 0
0 0
0 0
0 0
0 0
0 0
0 0
0 0
0 0
0 0
0 0
0 0
0 0
0 0
0 0
0 0
0 0
0 0
0 0
0 0
0 0
0 0
0 0
0 0
0 0
0 0
0 0
0 0
0 0
0 0
0 0
0 0
0 0
0 0
0 0
0 0
0 0
0 0
0 0
0 0
0 0
0 0
0 0
0 0
0 0
0 0
0 0
0 0
0 0
0 0
0 0
0 0
0 0
0 0
0 0
0 0
0 0
0 0
0 0
0 0
0 0
0 0
0 0
0 0
0 0
0 0
0 0
0 0
0 0
0 0
0 0
0 0
0 0
0 0
0 0
0 0
0 0
0 0
0 0
0 0
0 0
0 0
0 0
0 0
0 0
0 0
0 0
0 0
0 0
0 0
0 0
0 0
0 0
0 0
0 0
0 0
0 0
0 0
0 0
0 0
0 0
0 0
0 0
0 0
0 0
0 0
0 0
0 0
0 0
0 0
0 0
0 0
0 0
0 0
0 0
0 0
0 0
0 0
0 0
0 0
0 0
0 0
0 0
0 0
0 0
0 0
0 0
0 0
0 0
0 0
0 0
0 0
0 0
0 0
0 0
0 0
0 0
0 0
0 0
0 0
0 0
0 0
0 0
0 0
0 0
0 0
0 0
0 0
0 0
0 0
0 0
0 0
0 0
0 0
0 0
0 0
0 0
0 0
0 0
0 0
0 0
0 0
0 0
0 0
0 0
0 0
0 0
0 0
0 0
0 0
0 0
0 0
0 0
0 0
0 0
0 0
0 0
0 0
0 0
0 0
0 0
0 0
0 0
0 0
0 0
0 0
0 0
0 0
0 0
0 0
0 0
0 0
0 0
0 0
0 0
0 0
0 0
0 0
0 0
0 0
0 0
0 0
0 0
0 0
0 0
0 0
0 0
0 0
0 0
0 0
0 0
0 0
0 0
0 0
0 0
0 0
0 0
0 0
0 0
0 0
0 0
0 0
0 0
0 0
0 0
0 0
0 0
0 0
0 0
0 0
0 0
0 0
0 0
0 0
0 0
0 0
0 0
0 0
0 0
0 0
0 0
0 0
0 0
0 0
0 0
0 0
0 0
0 0
0 0
0 0
0 0
0 0
0 0
0 0
0 0
0 0
0 0
0 0
0 0
0 0
0 0
0 0
0 0
0 0
0 0
0 0
0 0
0 0
0 0
0 0
0 0
0 0
0 0
0 0
0 0
0 0
0 0
0 0
0 0
0 0
0 0
0 0
0 0
0 0
0 0
0 0
0 0
0 0
0 0
0 0
0 0
0 0
0 0
0 0
0 0
0 0
0 0
0 0
0 0
0 0
0 0
0 0
0 0
0 0
0 0
0 0
0 0
0 0
0 0
0 0
0 0
0 0
0 0
0 0
0 0
0 0
0 0
0 0
0 0
0 0
0 0
0 0
0 0
0 0
0 0
0 0
0 0
0 0
0 0
0 0
0 0
0 0
0 0
0 0
0 0
0 0
0 0
0 0
0 0
0 0
0 0
0 0
0 0
0 0
0 0
0 0
0 0
0 0
0 0
0 0
0 0
0 0
0 0
0 0
0 0
0 0
0 0
0 0
0 0
0 0
0 0
0 0
0 0
0 0
0 0
0 0
0 0
0 0
0 0
0 0
0 0
0 0
0 0
0 0
0 0
0 0
0 0
0 0
0 0
0 0
0 0
0 0
0 0
0 0
0 0
0 0
0 0
0 0
0 0
0 0
0 0
0 0
0 0
0 0
0 0
0 0
0 0
0 0
0 0
0 0
0 0
0 0
0 0
0 0
0 0
0 0
0 0
0 0
0 0
0 0
0 0
0 0
0 0
0 0
0 0
0 0
0 0
0 0
0 0
0 0
0 0
0 0
0 0
0 0
0 0
0 0
0 0
0 0
0 0
0 0
0 0
0 0
0 0
0 0
0 0
0 0
0 0
0 0
0 0
0 0
0 0
0 0
0 0
0 0
0 0
0 0
0 0
0 0
0 0
0 0
0 0
0 0
0 0
0 0
0 0
0 0
0 0
0 0
0 0
0 0
0 0
0 0
0 0
0 0
0 0
0 0
0 0
0 0
0 0
0 0
0 0
0 0
0 0
0 0
0 0
0 0
0 0
0 0
0 0
0 0
0 0
0 0
0 0
0 0
0 0
0 0
0 0
0 0
0 0
0 0
0 0
0 0
0 0
0 0
0 0
0 0
0 0
0 0
0 0
0 0
0 0
0 0
0 0
0 0
0 0
0 0
0 0
0 0
0 0
0 0
0 0
0 0
0 0
0 0
0 0
0 0
0 0
0 0
0 0
0 0
0 0
0 0
0 0
0 0
0 0
0 0
0 0
0 0
0 0
0 0
0 0
0 0
0 0
0 0
0 0
0 0
0 0
0 0
0 0
0 0
0 0
0 0
0 0
0 0
0 0
0 0
0 0
0 0
0 0
0 0
0 0
0 0
0 0
0 0
0 0
0 0
0 0
0 0
0 0
0 0
0 0
0 0
0 0
0 0
0 0
0 0
0 0
0 0
0 0
0 0
0 0
0 0
0 0
0 0
0 0
0 0
0 0
0 0
0 0
0 0
0 0
0 0
0 0
0 0
0 0
0 0
0 0
0 0
0 0
0 0
0 0
0 0
0 0
0 0
0 0
0 0
0 0
0 0
0 0
0 0
0 0
0 0
0 0
0 0
0 0
0 0
0 0
0 0
0 0
0 0
0 0
0 0
0 0
0 0
0 0
0 0
0 0
0 0
0 0
0 0
0 0
0 0
0 0
0 0
0 0
0 0
0 0
0 0
0 0
0 0
0 0
0 0
0 0
0 0
0 0
0 0
0 0
0 0
0 0
0 0
0 0
0 0
0 0
0 0
0 0
0 0
0 0
0 0
0 0
0 0
0 0
0 0
0 0
0 0
0 0
0 0
0 0
0 0
0 0
0 0
0 0
0 0
0 0
0 0
0 0
0 0
0 0
0 0
0 0
0 0
0 0
0 0
0 0
0 0
0 0
0 0
0 0
0 0
0 0
0 0
0 0
0 0
0 0
0 0
0 0
0 0
0 0
0 0
0 0
0 0
0 0
0 0
0 0
0 0
0 0
0 0
0 0
0 0
0 0
0 0
0 0
0 0
0 0
0 0
0 0
0 0
0 0
0 0
0 0
0 0
0 0
0 0
0 0
0 0
0 0
0 0
0 0
0 0
0 0
0 0
0 0
0 0
0 0
0 0
0 0
0 0
0 0
0 0
0 0
0 0
0 0
0 0
0 0
0 0
0 0
0 0
0 0
0 0
0 0
0 0
0 0
0 0
0 0
0 0
0 0
0 0
0 0
0 0
0 0
0 0
0 0
0 0
0 0
0 0
0 0
0 0
0 0
0 0
0 0
0 0
0 0
0 0
0 0
0 0
0 0
0 0
0 0
0 0
0 0
0 0
0 0
0 0
0 0
0 0
0 0
0 0
0 0
0 0
0 0
0 0
0 0
0 0
0 0
0 0
0 0
0 0
0 0
0 0
0 0
0 0
0 0
0 0
0 0
0 0
0 0
0 0
0 0
0 0
0 0
0 0
0 0
0 0
0 0
0 0
0 0
0 0
0 0
0 0
0 0
0 0
0 0
0 0
0 0
0 0
0 0
0 0
0 0
0 0
0 0
0 0
0 0
0 0
0 0
0 0
0 0
0 0
0 0
0 0
0 0
0 0
0 0
0 0
0 0
0 0
0 0
0 0
0 0
0 0
0 0
0 0
0 0
0 0
0 0
0 0
0 0
0 0
0 0
0 0
0 0
0 0
0 0
0 0
0 0
0 0
0 0
0 0
0 0
0 0
0 0
0 0
0 0
0 0
0 0
0 0
0 0
0 0
0 0
0 0
0 0
0 0
0 0
0 0
0 0
0 0
0 0
0 0
0 0
0 0
0 0
0 0
0 0
0 0
0 0
0 0
0 0
0 0
0 0
0 0
0 0
0 0
0 0
0 0
0 0
0 0
0 0
0 0
0 0
0 0
0 0
0 0
0 0
0 0
0 0
0 0
0 0
0 0
0 0
0 0
0 0
0 0
0 0
0 0
0 0
0 0
0 0
0 0
0 0
0 0
0 0
0 0
0 0
0 0
0 0
0 0
0 0
0 0
0 0
0 0
0 0
0 0
0 0
0 0
0 0
0 0
0 0
0 0
0 0
0 0
0 0
0 0
0 0
0 0
0 0
0 0
0 0
0 0
0 0
0 0
0 0
0 0
0 0
0 0
0 0
0 0
0 0
0 0
0 0
0 0
0 0
0 0
0 0
0 0
0 0
0 0
0 0
0 0
0 0
0 0
0 0
0 0
0 0
0 0
0 0
0 0
0 0
0 0
0 0
0 0
0 0
0 0
0 0
0 0
0 0
0 0
0 0
0 0
0 0
0 0
0 0
0 0
0 0
0 0
0 0
0 0
0 0
0 0
0 0
0 0
0 0
0 0
0 0
0 0
0 0
0 0
0 0
0 0
0 0
0 0
0 0
0 0
0 0
0 0
0 0
0 0
0 0
0 0
0 0
0 0
0 0
0 0
0 0
0 0
0 0
0 0
0 0
0 0
0 0
0 0
0 0
0 0
0 0
0 0
0 0
0 0
0 0
0 0
0 0
0 0
0 0
0 0
0 0
0 0
0 0
0 0
0 0
0 0
0 0
0 0
0 0
0 0
0 0
0 0
0 0
0 0
0 0
0 0
0 0
0 0
0 0
0 0
0 0
0 0
0 0
0 0
0 0
0 0
0 0
0 0
0 0
0 0
0 0
0 0
0 0
0 0
0 0
0 0
0 0
0 0
0 0
0 0
0 0
0 0
0 0
0 0
0 0
0 0
0 0
0 0
0 0
0 0
0 0
0 0
0 0
0 0
0 0
0 0
0 0
0 0
0 0
0 0
0 0
0 0
0 0
0 0
0 0
0 0
0 0
0 0
0 0
0 0
0 0
0 0
0 0
0 0
0 0
0 0
0 0
0 0
0 0
0 0
0 0
0 0
0 0
0 0
0 0
0 0
0 0
0 0
0 0
0 0
0 0
0 0
0 0
0 0
0 0
0 0
0 0
0 0
0 0
0 0
0 0
0 0
0 0
0 0
0 0
0 0
0 0
0 0
0 0
0 0
0 0
0 0
0 0
0 0
0 0
0 0
0 0
0 0
0 0
0 0
0 0
0 0
0 0
0 0
0 0
0 0
0 0
0 0
0 0
0 0
0 0
0 0
0 0
0 0
0 0
0 0
0 0
0 0
0 0
0 0
0 0
0 0
0 0
0 0
0 0
0 0
0 0
0 0
0 0
0 0
0 0
0 0
0 0
0 0
0 0
0 0
0 0
0 0
0 0
0 0
0 0
0 0
0 0
0 0
0 0
0 0
0 0
0 0
0 0
0 0
0 0
0 0
0 0
0 0
0 0
0 0
0 0
0 0
0 0
0 0
0 0
0 0
0 0
0 0
0 0
0 0
0 0
0 0
0 0
0 0
0 0
0 0
0 0
0 0
0 0
0 0
0 0
0 0
0 0
0 0
0 0
0 0
0 0
0 0
0 0
0 0
0 0
0 0
0 0
0 0
0 0
0 0
0 0
0 0
0 0
0 0
0 0
0 0
0 0
0 0
0 0
0 0
0 0
0 0
0 0
0 0
0 0
0 0
0 0
      </DataArray> 
      <DataArray type="Float64" NumberOfComponents="2" Name="CauchyNormalStress" format="ascii">
23.9944 15.2563
21.9316 12.5019
22.8936 2.43483
11.6117 -0.615219
7.81283 0.0993811
4.81201 -0.0271806
3.15632 -0.25109
2.06072 -0.254817
0.776397 -0.112395
-0.143662 -0.00861411
-0.861954 -0.1187
-1.29683 -0.165725
-1.9189 -0.0869933
-2.3211 -0.00363258
-2.58665 -0.0959502
-2.64861 -0.119108
-2.84592 -0.0441944
-2.85654 0.010389
-2.7365 -0.0888675
-2.40683 -0.119466
-2.2124 -0.0431192
-1.82933 0.00780561
-1.2787 -0.111355
-0.447939 -0.161193
0.209218 -0.0536305
1.13739 0.0393328
2.38817 -0.120081
4.48731 -0.546844
6.47453 -0.778305
9.61681 -0.375169
20.6429 1.06801
-2.11282 3.28746
-2.78375 3.78704
-2.49529 6.47123
7.46908 20.2869
-1.7632 -0.0660909
-0.514029 0.646044
-0.113821 0.245551
-0.277377 -0.0928344
-0.265569 -0.242211
-0.0656009 -0.8175
-0.0418557 -1.0175
-0.0274774 -1.2226
-0.0961465 -1.31132
-0.146521 -1.51255
-0.166665 -1.26856
-0.173718 -1.44378
-0.224654 -1.41519
-0.30984 -1.45484
-0.394795 -1.32348
-0.465809 -1.32264
-0.531453 -1.091
-0.651492 -1.17284
-0.0151715 -1.46357
-1.38687 -0.103366
-1.66481 -0.130086
-1.24818 -0.308683
-1.36015 -0.396682
-0.946857 -0.690212
-194.23 -481.507
-1.07957 -4.4536
-0.323522 -1.50257
-2.28018 -5.54207
-18.4614 -94.1865
-6.45815 -83.2254
0.0903071 -47.136
-3.70499 -49.7439
-4.28953 -48.8456
-7.83956 -56.8228
42.7166 2.597
-31.3421 -94.5362
-41.7734 -113.212
-58.0152 -169.931
-18.6583 -93.5004
44.7935 1.12804
62.6804 24.8026
-46.7696 -17.5998
-176.401 -462.138
-6.90245 -83.5614
0.0755755 -47.6563
-3.83212 -50.025
-4.29113 -48.9889
-7.80633 -56.7871
0.0411154 -1.9134
-1.05953 -4.3869
-0.503821 -1.49383
-3.04633 -4.90382
-1.9134 0.262232
-0.523205 -3.4828
-0.0852358 -1.9053
-0.487493 -2.43892
-0.527447 -1.39031
-0.64266 -1.23402
-1.55202 3.39526
-1.37429 -0.0286124
-1.61181 -0.215535
-1.17498 -0.246522
-1.33266 -0.464992
-1.02358 -0.448026
-1.01759 -0.668398
-0.814814 -0.755355
-0.784833 -0.904397
-0.671235 -1.08637
-0.552697 -1.08892
-0.482865 -1.33022
-0.329622 -1.23062
-0.253669 -1.47416
-0.143103 -1.42066
-0.181544 -1.46335
-0.157695 -1.23974
-0.10078 -1.29634
-2.07886 4.94608
-0.743943 8.40211
8.15839 19.0286
-48.9666 -28.8285
-30.0046 -75.9127
-47.4938 -31.2585
-26.2117 -102.706
-33.4659 -83.0154
-5.75539 -61.258
-48.394 -22.6875
12.8677 -67.7072
4.21491 -9.59629
2.7396 -10.2738
-8.64167 -105.228
-9.12416 -108.26
6.25406 -25.0958
2.55663 -11.5213
1.31596 -51.2335
1.50281 -44.7362
-0.556106 -51.5114
2.79628 -39.0545
1.78439 -45.4665
-4.4559 -43.2233
-0.373381 -43.4683
-1.11112 -47.0805
-6.09235 -46.4587
3.95404 -36.0211
5.00597 -34.4005
4.31968 -46.9721
-24.7769 -15.1272
-25.8082 -15.1408
-27.4728 -16.6572
2.50035 -54.5624
3.42849 -41.4887
-14.2099 -47.966
-13.5591 -45.0502
-0.649222 -60.7914
-3.88692 -58.5892
-11.0104 -51.4894
-12.404 -55.2621
-0.880863 -56.3556
-18.9171 -12.3598
-22.589 -13.1794
-20.9539 -13.2767
2.2865 -34.6749
3.03139 -36.5762
-21.265 -21.3715
-13.9723 -32.5209
-2.88481 -37.5045
1.30027 -32.6136
0.977145 -34.9191
-3.04737 -40.5683
-14.9161 -34.8914
-22.6528 -22.2445
4.54758 -30.0908
6.15364 -41.9059
-35.4584 -25.7663
-34.4271 -20.503
-28.8506 -16.4718
-30.3156 -22.5154
7.69129 -43.3555
8.26674 -52.2126
6.71256 -50.4838
5.41757 -41.5815
5.3606 -32.4356
4.74043 -28.7503
-37.1902 -29.5733
-21.3176 -43.5376
-20.5708 -40.5392
-36.9375 -41.6038
6.09531 -64.5698
0.606658 -81.8155
-13.4842 -60.9409
-2.53621 -64.5362
7.31534 -59.424
-17.0063 -12.011
-19.4723 -12.3137
-19.4509 -11.8436
-19.9735 -12.2237
-16.2749 -10.3076
-15.7276 -10.1254
-15.0553 -9.67417
-17.2545 -11.4259
2.99404 -29.4582
4.01903 -26.7004
4.2255 -26.0564
3.06663 -30.3131
-16.048 -12.0374
-16.8641 -13.7088
-17.2468 -20.7792
-13.2541 -24.9272
-6.24103 -29.4913
-1.90048 -31.9722
-2.80904 -33.639
-7.30802 -31.2972
-14.384 -26.7049
-17.8092 -21.5347
-17.8637 -13.1482
-16.6255 -11.605
4.3477 -25.2648
6.75517 -33.0822
-47.1005 -37.2605
-38.9221 -21.4671
-42.3356 -26.1534
9.82033 -43.6256
9.83203 -49.0753
6.25225 -32.662
4.18643 -22.8937
-37.6554 -47.1318
-37.8636 -61.0141
10.4527 -70.0301
-17.8817 -72.6623
-38.6023 -75.3752
-14.3936 -63.1492
3.58837 -72.2175
-11.7706 -8.33978
-13.5098 -9.3963
-13.753 -9.32921
-11.9946 -8.29842
-11.1453 -8.07399
-11.1389 -7.84899
3.49375 -24.2972
2.95363 -23.91
-11.6719 -10.15
-8.68996 -17.1526
-0.56689 -24.6344
-1.93494 -25.7076
-9.51744 -17.5606
-11.6319 -9.38046
2.92168 -15.6878
3.60043 -18.2497
4.24882 -21.8873
5.0021 -22.4187
6.92501 -24.6785
8.99448 -32.3071
-40.6735 -59.4033
-49.7954 -22.9492
-45.2631 -40.7675
10.8503 -40.9275
11.0751 -43.3863
9.13977 -35.7611
7.06867 -29.07
5.49983 -24.7442
3.70376 -19.0219
2.68119 -13.927
-45.0202 -65.0151
-45.4621 -86.0211
12.3022 -51.8608
11.213 -94.2428
-43.3503 -100.106
12.734 -70.1801
11.9486 -48.7394
-24.8157 -81.7583
7.15846 -85.9248
-5.90779 -5.82028
-6.47198 -5.42653
-8.28186 -6.83917
-7.00675 -6.77014
-9.71608 -6.99253
-8.96736 -7.06337
-9.24596 -6.45408
-9.23775 -6.60362
-7.40031 -5.74224
-7.91541 -5.72214
-6.86172 -6.25025
-7.94502 -6.17509
-5.45891 -5.14665
-6.22396 -5.73658
3.27378 -21.6093
3.47501 -20.9745
3.54045 -18.2585
2.55895 -13.4933
3.57823 -17.6329
3.33815 -21.6405
1.78416 -23.1623
-7.76644 -6.98413
-6.04009 -9.40483
-2.32547 -14.9585
0.942491 -18.3741
-1.33115 -20.1087
-3.59755 -15.5516
-7.04312 -9.12291
-7.10912 -5.99943
1.11661 -6.95639
2.32943 -12.4643
3.11254 -14.1097
4.58399 -17.1811
6.29598 -20.7264
1.41946 -134.456
-38.2762 -20.1415
-22.8574 -2.61705
-39.2747 -15.4518
-4.92345 -122.935
9.4088 -32.1842
9.05915 -30.7732
6.36389 -22.5292
3.89754 -17.9597
1.33629 -8.21021
2.81452 -173.397
-13.9071 -133.154
2.00476 -167.628
-6.03679 -142.56
9.57423 -54.2969
-24.7338 -139.386
-82.5221 -162.782
9.32842 -44.8233
-79.0403 -142.923
-6.41596 -110.375
-0.341207 -3.18425
-2.64495 -4.45572
-5.06317 -4.45743
-5.84203 -4.15413
-5.33544 -3.91465
-3.54801 -4.00385
-0.509837 -3.58109
5.06586 -14.6914
1.89207 -9.25542
2.62989 -10.3247
3.70578 -16.1201
-0.0791489 -3.73064
5.51749 -11.4751
7.80336 -9.80107
6.12144 -12.3465
2.40971 -12.7803
-0.247506 -3.54755
1.16222 -3.98692
1.12221 -5.38268
0.278863 -2.90633
0.745746 -5.16705
0.708233 -5.20605
1.36409 -8.12905
1.1834 -6.93137
1.7666 -8.75422
1.86804 -8.70221
2.13067 -9.13644
1.80725 -8.05525
-34.4138 -55.8149
-17.7384 -5.64687
-16.0002 -5.06864
-35.4519 -38.9185
3.65829 -12.5689
4.51864 -15.0591
4.80034 -16.8018
3.29397 -14.1592
4.06492 -23.0512
3.81688 -20.8007
3.4736 -14.8018
4.36935 -15.5741
4.45366 -14.9079
3.49108 -12.2383
3.49844 -12.4521
2.65878 -10.5408
1.6031 -7.79822
1.90355 -9.21677
0.542843 -4.87831
0.734737 -4.90077
0.666468 -4.95884
0.479683 -3.99281
1.99957 -93.5924
2.21265 -124.492
-1.90929 -166.778
1.65302 -90.9875
1.57032 -159.443
0.879445 -119.711
1.27536 -27.6425
-5.11507 -24.7928
-3.22213 -195.064
2.41259 -27.153
5.06758 -131.061
-1.60205 -34.9771
4.16507 -1.74032
9.19809 3.17781
5.02177 -2.58483
0.933463 -2.2614
2.27508 -2.22186
-0.795626 -2.38519
-2.52265 -2.30413
-1.79434 -2.25022
-3.36298 -2.23836
-4.06578 -2.19856
-3.78509 -2.14012
-4.0475 -2.00296
-3.94448 -2.01713
-4.07624 -1.94469
-3.40862 -1.98047
-2.36815 -2.04371
-2.99855 -1.93978
-1.13453 -2.09338
1.54188 -2.29136
-0.125636 -2.02829
3.74653 -1.40944
10.1276 2.21864
4.75542 -1.56717
0.282602 -2.15947
0.286091 -2.64956
0.612164 -3.64725
0.524945 -3.41159
2.84101 -8.97802
5.81939 -2.36017
3.46553 -8.84567
5.44388 -10.6432
4.63394 -3.61235
9.80689 0.930811
6.29248 -5.51179
4.7085 -6.77119
8.84558 1.05148
0.41573 -1.35637
0.360511 -1.15364
0.499557 1.36477
0.829941 -0.332817
0.654967 -0.477844
0.306887 0.905152
3.93219 3.0702
18.5489 8.5712
4.74092 3.25152
4.38318 0.990553
4.82167 0.568467
14.7231 3.58588
9.02096 -6.13188
11.2026 -1.64447
1.60245 -2.39887
1.9526 -2.59809
-0.334436 -7.0892
1.07093 -7.30732
4.2193 -14.7578
3.60795 -14.2842
1.16662 -6.93363
0.603286 -4.42659
-0.010229 -2.15567
-1.90572 -4.0762
-4.48127 -3.89816
-5.5667 -3.91264
-5.57971 -4.31878
-3.90925 -4.50824
-0.72765 -4.31714
-2.35054 -2.10638
9.18804 -63.0365
6.37581 -81.0539
11.8075 -137.77
12.7932 -142.03
1.51924 -8.6503
4.42615 -17.5534
7.8871 -25.8119
7.86611 -30.066
9.72288 -38.4001
8.02383 -26.235
-36.8524 -42.5496
-32.799 -57.6184
4.59805 -15.9373
3.91705 -16.2325
3.10997 -15.1602
1.67968 -9.35486
3.13823 -17.6868
5.87202 -15.6218
-45.5014 -100.537
-48.8885 -120.04
-43.6893 -13.2839
-13.0963 -11.6692
-6.29849 -23.0285
-4.94343 -21.8025
-12.8026 -12.4687
1.62079 -28.3027
3.64 -19.922
3.92743 -21.7387
2.47914 -27.2978
-10.4663 -7.65605
-11.767 -8.32344
-10.5388 -7.59596
-13.165 -8.93591
-14.1674 -9.60476
-12.8283 -9.08957
-10.8605 -8.0187
-7.58 -69.4811
11.1194 -63.3084
7.52134 -89.9107
10.7435 -54.8561
-45.7892 -55.8946
-47.7528 -39.2934
4.90939 -25.6751
7.96833 -40.1566
-32.1789 -18.4351
-45.25 -28.6878
8.26897 -34.1266
5.17074 -28.5811
-20.8579 -56.5722
-20.3688 -53.013
-22.7304 -14.9251
-22.3918 -30.4595
-7.79577 -39.4219
-6.94145 -36.9703
-21.4122 -28.2089
-21.1397 -15.4533
4.53928 -32.1107
3.77458 -31.6424
-19.4654 -11.7736
-25.6818 -14.6741
2.28581 -59.5626
-6.01436 -68.3708
2.80512 -49.577
4.21345 -53.5298
1.26285 -41.3161
0.859093 -37.847
-3.94603 -53.2556
-1.71091 -49.1888
4.62805 -40.3445
5.86759 -201.968
-3.59776 -2.17851
-22.5605 -46.3437
-9.17347 -42.7785
-6.41174 -5.31641
8.22464 -88.8466
-2.63846 -3.25473
-34.8454 -273.653
-24.4026 -83.0259
-3.95616 -4.44993
-12.7298 -47.9075
3.37862 -126.455
-0.25461 -140.671
-20.4928 -139.62
-18.4171 -113.65
-10.9642 -221.355
-11.334 -60.1912
-18.611 -66.0841
-12.7556 -97.4226
5.85161 -128.132
5.11732 -141.307
1.15726 -103.432
-6.84947 -89.6649
-5.14014 -76.8243
-25.1454 -72.2243
-32.7883 -89.4472
-1.59019 -70.1518
4.80647 -116.238
-0.22365 -147.385
-16.86 -117.593
-20.5742 -147.655
-12.2854 -100.063
-11.3799 -60.2496
-18.5813 -66.2668
-18.747 -245.868
4.25909 -145.466
6.7634 -133.052
1.88391 -106.914
-5.01761 -78.2942
-6.42031 -91.9677
-1.43927 -71.5407
-25.2257 -72.7408
-32.782 -91.0321
5.48345 -120.116
-22.3668 -14.8927
3.46858 -8.50941
14.4121 4.81972
10.9515 -1.00416
-122.191 -232.889
-58.8923 -172.391
-90.1463 -131.011
-35.3505 -43.9179
-25.5014 -20.1555
-24.1809 -18.2585
11.6622 3.0641
1.54897 -8.63984
-89.8586 -147.307
-120.473 -236.568
-47.9336 -19.6884
10.6232 -1.55573
-24.9855 -25.9975
-33.6451 -59.4955
-39.6639 -123.971
-35.0056 -175.913
2.59225 -133.482
-128.707 -200.449
10.869 -97.0178
-43.0571 -96.9138
-57.4689 -118.286
-73.3985 -150.2
-15.1802 -174.335
-88.9737 -198.97
6.43179 -128.401
-129.523 -209.528
-65.3696 -138.919
-58.1225 -123.298
-36.9678 -158.186
-34.2087 -195.461
-5.48845 -153.893
2.8163 -143.549
-26.9418 -132.435
-41.1295 -138.588
-10.9362 -151.511
-49.9273 -176.496
0.328586 -141.36
-30.7359 -115.848
5.33926 -149.008
-20.6513 -96.1719
-9.84173 -113.236
-24.6526 -85.449
-37.5753 -235.549
9.51573 -152.847
3.03856 -134.697
-31.6363 -8.25957
-17.7824 -3.90742
-28.8844 -13.4011
8.59258 -1.97075
-37.3511 -27.2789
-40.8042 -13.8897
-34.3187 -9.29843
-31.1537 -10.668
-29.6943 -16.9319
-18.6987 -4.47448
-35.4786 -35.6523
-40.3126 -16.0552
6.69694 -153.362
-7.32437 -122.629
-14.2884 -111.061
-35.5649 -229.658
-18.3063 -100.332
5.41998 -137.495
8.50263 -148.945
-39.6891 -85.5638
-23.6698 -99.9178
-7.30378 -87.89
-16.0616 -75.7313
-48.9206 -109.782
-25.6302 -113.695
-0.349978 -114.478
-5.34934 -99.4589
-43.2298 -87.8196
-32.0605 -78.4535
-22.2689 -68.9018
-29.729 -65.9112
-37.2116 -61.284
-41.828 -56.4048
-43.124 -70.7863
-42.8854 -42.9621
-45.919 -52.5777
-44.012 -81.8381
-29.7525 -51.9625
-42.2932 -58.7124
-41.8385 -49.1037
-36.809 -51.2246
-29.0268 -47.1598
-29.4426 -35.5096
-29.1753 -57.2417
-42.5575 -35.1267
-37.0748 -38.1805
-30.2374 -39.332
-30.055 -29.5567
-45.0421 -32.5046
-39.6408 -27.6359
-34.6788 -23.8795
-37.3276 -22.6248
-39.7379 -24.8516
-41.9406 -24.6271
-36.5938 -20.8278
-32.3884 -18.2812
-35.4858 -19.8285
-30.1673 -17.4336
-35.8789 -33.3198
-42.1739 -39.2089
-41.5854 -32.2894
-46.1232 -46.2368
-46.075 -32.5531
-40.2358 -26.9826
-28.6126 -26.4413
-34.6651 -22.878
-29.7253 -17.929
-22.8852 -15.1268
-25.0177 -14.8939
-30.1955 -20.2785
-28.5974 -21.2597
-28.0046 -112.895
-6.93583 -141.211
-26.6366 -144.107
3.87108 -128.854
-41.77 -112.784
-31.2339 -94.2299
-14.8289 -97.5683
0.806907 -71.7976
-2.95019 -103.425
-4.69329 -75.2896
-39.5065 -101.199
-53.376 -78.7112
-4.41852 -73.6878
-2.9375 -100.617
0.649459 -70.4152
3.45292 -124.717
-40.05 -97.9124
-51.9045 -80.8566
-14.317 -96.5741
-26.7013 -141.418
-6.72698 -137.102
-27.5501 -111.314
61.358 29.5908
44.8891 2.03689
-46.5054 -31.2735
-44.2695 -20.3517
-42.0172 -27.0862
-46.0245 -17.1605
-40.4577 -42.137
-46.7415 -40.293
-48.2073 -30.9411
-39.9737 -62.6579
-39.2086 -72.4702
-45.1362 -53.7852
-39.2637 -92.392
-34.7152 -65.1115
-8.20322 -126.351
-25.4165 -107.225
-18.687 -100.292
-11.6294 -116.413
-18.8841 -122.452
-1.7736 -135.656
-35.8329 -111.002
-28.2366 -83.2647
-42.4303 -74.1232
-35.5947 -92.9397
-34.2276 -82.777
-46.9905 -102.014
-36.0234 -59.5765
-43.2717 -57.6786
-44.4055 -71.7073
-47.5383 -35.2378
-48.3664 -26.3219
-48.4702 -29.4573
-45.8314 -21.5149
-47.357 -19.4821
-48.1226 -26.8993
-46.42 -43.1911
-39.206 -38.002
-43.4371 -27.5904
-44.1308 -44.0712
-38.8021 -80.9923
-35.1678 -88.0499
-46.2995 -93.3932
-17.0981 -90.4351
-41.6166 -73.2878
-34.3299 -68.371
-24.571 -64.1865
-44.376 -25.6539
-45.7928 -27.6703
-40.5253 -23.9262
-47.9654 -33.9293
-47.1472 -28.3624
-48.779 -22.2766
-48.8004 -26.3627
-49.1583 -25.0604
-11.5043 -25.2369
-7.3878 -33.7021
-6.60223 -16.907
-3.45406 -70.3737
-0.843096 -52.5936
-4.25204 -14.3079
-6.00829 -3.73151
-9.42676 -2.45831
-15.7588 -26.4629
-12.3805 -116.495
-6.56477 -89.7836
-16.2915 -61.6285
5.97582 -98.7839
-23.8958 -42.598
-12.6138 -133.135
3.43989 -150.722
-65.4253 -364.698
-72.4963 -79.2492
-42.9714 -156.549
-7.68444 -180.107
-39.0215 -168.049
-102.716 -312.025
-72.5383 -73.9729
-80.1782 -383.621
-42.6391 -171.248
-40.1044 -184.188
-10.8487 -190.991
-98.8257 -337.457
-78.0403 -185.351
-58.1927 -220.737
-21.7763 -202.054
-178.551 -312.538
-75.4066 -302.893
2.72349 -152.846
-11.1931 -164.637
-62.4889 -155.754
-95.1959 -169.361
5.61809 -114.056
8.69642 -95.3784
7.80772 -111.767
9.14479 -73.4349
9.73307 -81.4931
3.37637 -104.833
-3.86432 -122.853
2.02554 -138.207
7.11481 -104.28
-41.8419 -109.3
-51.4205 -107.663
-51.5365 -120.634
-45.6375 -99.3208
-50.9569 -109.523
-64.6134 -131.017
-62.2272 -133.699
-21.2491 -117.928
-30.3585 -111.755
-1.66644 -147.203
2.97927 -131.402
-3.29294 -153.254
6.46595 -106.75
-12.1546 -191.839
-21.9914 -157.01
-7.00288 -135.157
-66.1892 -240.259
-102.811 -248.13
-122.336 -201.879
-140.048 -373.917
-181.92 -328.049
-93.2447 -185.482
-95.8217 -176.907
-41.6804 -208.446
-16.7677 -233.8
-74.5206 -144.477
-66.3598 -131.311
-61.675 -135.481
-53.7554 -128.195
-57.1677 -122.135
-42.5707 -130.823
-48.8084 -145.814
-85.9189 -157.504
-69.4305 -150.396
-68.966 -205.332
-60.801 -222.364
-29.0571 -215.908
-14.4945 -180.199
-59.0587 -179.554
-58.6107 -161.134
-51.5633 -148.872
-45.5076 -138.805
-17.9507 -147.136
-41.0684 -209.921
-78.4628 -222.68
-87.3448 -183.345
-68.8048 -159.39
-24.5666 -179.105
-61.0741 -142.415
-50.8703 -128.602
-26.6317 -134.212
-44.1445 -119.134
-15.6587 -104.564
-7.38244 -99.0253
-15.8032 -93.8362
-16.1606 -84.9223
-7.64233 -78.7341
-24.2649 -90.9965
1.0962 -122.814
5.78313 -105.627
9.57249 -108.72
4.22253 -100.861
8.61304 -92.7816
8.63622 -89.4401
-10.7601 -125.979
-14.7255 -106.738
-3.72628 -107.26
-12.2243 -114.481
1.43713 -95.2736
-25.447 -125.968
-36.3127 -106.618
-20.3039 -101.376
-1.73923 -90.069
-11.8414 -94.8296
-24.5992 -83.4552
-30.0867 -95.9281
3.32254 -86.1722
-8.06575 -86.6886
-10.8059 -78.9046
-3.44033 -75.1744
0.423431 -87.0278
4.67237 -79.3816
-1.51729 -79.7043
9.55016 -73.5345
7.70263 -68.0558
-1.83594 -70.8782
1.43971 -97.1312
-0.138936 -68.1287
-5.05754 -38.7822
1.99123 -62.9301
-6.81355 -21.5149
-2.92098 -18.057
3.97184 -49.9898
-4.97249 -87.4332
-13.2299 -21.2902
-7.94336 -19.8842
-15.3713 -45.575
-6.12495 -0.60813
-8.70198 -90.0716
-18.8977 -20.6968
-10.9012 -6.55023
-25.185 -69.0537
-39.3627 -30.2987
-15.833 -116.999
-10.3479 1.23213
-16.1063 -1.86887
0.407506 -31.2983
-1.33384 -18.0916
0.700669 -14.0241
-40.4897 40.7524
-91.5938 -142.046
1.02306 -14.4598
5.26128 -45.5507
-35.2827 -76.8355
-16.7179 -151.457
-47.08 -50.4676
-13.3905 1.73808
-21.7427 12.0761
-2.85017 -28.127
0.114447 -14.1003
-2.15983 -13.5308
0.734467 -14.645
-37.02 80.3415
-91.7413 -119.424
3.90386 -51.7597
1.70285 -8.62102
0.526171 -4.36751
0.665492 -5.07039
0.44843 -4.29915
-0.0244178 -1.0215
-0.151537 -0.737674
0.771285 -5.16373
3.10067 -13.4075
3.04174 -12.5464
2.11998 -9.15171
0.883999 -5.4774
0.279667 -4.21037
0.69104 -5.38696
-0.280565 -0.214353
-0.217316 -0.278804
3.5449 -14.0921
3.49747 -12.3583
1.07464 -6.11757
0.987472 -6.14929
0.751699 -5.98157
-0.0617891 0.112298
-0.297175 0.587043
1.18238 -6.27032
5.64605 -19.2053
5.80386 -18.5432
3.92743 -13.8627
1.43213 -7.2638
1.14533 -6.12854
1.65695 -7.46665
-0.968183 -0.90659
-0.972888 -0.730875
6.11024 -20.6855
3.98993 -15.2791
1.16616 -7.76631
1.74281 -7.9965
1.45352 -7.93459
-1.35681 -0.476581
-1.26141 -0.417006
1.48118 -7.81464
6.216 -22.4148
5.51065 -22.5521
3.62764 -18.0696
1.68865 -11.3129
1.65002 -8.11264
1.80529 -10.9865
-1.6401 -0.220412
-1.39364 -0.194044
5.9838 -25.5871
3.60994 -18.9614
1.5083 -7.68142
1.86959 -12.3938
1.36884 -7.66706
-0.953562 -0.942896
-0.63818 -1.20557
1.86969 -11.773
6.98807 -30.7327
6.37919 -26.1278
4.11081 -15.6084
1.97994 -8.65546
1.09218 -7.5039
1.6611 -8.4242
-0.513348 -1.38066
-0.510506 -2.43022
7.26053 -26.9536
4.04587 -13.9675
1.15635 -6.24852
1.43914 -7.41072
1.01806 -6.1561
-0.0783113 -1.74489
-0.674737 -3.411
1.69186 -7.57809
6.27203 -20.783
5.94753 -19.0567
1.92139 -8.72549
0.561302 -4.78313
0.448037 -4.20833
0.726574 -4.88261
-0.740547 -0.998656
-0.840001 -0.966743
0.222498 -4.15917
3.26406 -11.7634
3.32934 -12.6137
1.78583 -8.83465
0.602923 -4.86188
0.662307 -4.76862
0.683301 -4.92628
-0.995448 -0.648603
-1.08216 -0.577799
0.576623 -4.72324
2.95384 -12.3098
2.82093 -12.5004
-1.4251 -0.30706
0.39744 -4.07092
0.46738 -4.18537
0.475609 -4.20201
2.16504 -10.8587
-1.20204 -0.257995
-38.8326 -147.395
-11.4786 -150.872
-17.0836 -130.113
6.32594 -32.988
6.09005 -36.3206
3.07102 -24.3818
9.44332 -52.8833
8.71195 -36.9392
-43.7047 -161.491
-46.9244 -186.248
-78.0111 -170.407
6.68793 -38.3071
2.40165 -26.6806
5.5597 -40.1622
7.9058 -66.9407
9.589 -46.5842
-35.8205 -178.992
-16.0052 -164.338
-42.682 -157.699
-23.0565 -157.31
4.11837 -17.9009
2.9788 -13.4022
1.68007 -9.13059
2.65584 -13.2661
4.94777 -17.3956
3.08641 -11.4898
4.50636 -16.5526
5.38118 -20.1384
7.05697 -24.3313
6.58179 -23.4235
4.40357 -15.4292
6.92144 -22.3219
8.37094 -28.6412
8.44593 -30.7099
7.08111 -23.146
4.63376 -16.1813
7.08981 -24.6993
9.49147 -35.8366
8.55836 -29.4699
3.18581 -13.0071
1.96131 -9.09039
3.44335 -12.9396
4.57228 -16.7317
4.22677 -16.835
2.1327 -10.5134
1.43824 -7.94818
2.48466 -11.3219
3.48178 -15.2196
3.08724 -14.7336
-33.2205 -98.8317
-33.9877 -89.3938
12.656 -58.3442
10.8104 -58.3373
10.5758 -47.3572
10.7232 -67.7984
9.72601 -39.8505
11.6456 -56.6537
11.377 -67.4505
-42.325 -119.25
-48.2209 -110.501
4.98526 -21.0377
4.66998 -21.4345
4.47214 -21.7386
5.23492 -25.31
7.96663 -32.4023
7.80234 -29.0241
6.70411 -25.8599
8.5602 -30.9529
5.76734 -23.2902
7.61155 -34.4348
8.56816 -38.0931
11.3108 -46.5487
10.6532 -39.013
10.0776 -37.5484
9.65361 -34.0854
11.37 -52.6507
11.4819 -46.5919
10.1543 -36.5815
10.9917 -41.5687
9.55743 -33.248
11.1669 -45.3216
11.5311 -53.4194
10.7862 -47.7735
7.87346 -28.6042
6.6069 -22.7893
7.74596 -26.2681
5.84617 -20.0914
5.36535 -18.4011
7.06158 -23.6455
8.52283 -29.3596
8.63301 -33.265
7.65803 -29.2205
4.48726 -19.2131
4.04195 -18.2762
4.00381 -18.9195
5.11366 -25.417
12.2835 -81.6154
10.2286 -78.9226
7.94957 -92.5913
6.69424 -30.9449
6.23065 -26.9392
5.9312 -28.6116
5.52755 -29.2197
6.96739 -36.4625
10.5169 -46.348
9.91464 -39.6697
9.61433 -42.1024
8.71893 -44.6797
10.2967 -56.1913
9.45199 -37.7951
9.8135 -36.7835
10.3457 -42.3047
10.2675 -49.2284
9.00014 -38.9575
8.89468 -61.6368
5.69361 -65.5627
2.57471 -65.9851
5.00179 -59.591
3.79371 -72.6687
7.88243 -67.5101
5.66917 -76.5208
8.38094 -59.9469
10.6755 -62.1668
9.34977 -79.3573
0.257697 -66.8925
6.7282 -40.9524
5.9134 -36.9818
4.76358 -36.926
4.23291 -45.4505
6.90982 -55.1005
8.51942 -54.1506
8.30061 -49.8674
7.43313 -45.1401
4.58712 -54.9368
7.91131 -47.8742
8.75854 -43.5386
8.97967 -47.9086
8.01234 -38.6484
9.39516 -53.6149
6.38648 -52.9837
5.9996 -48.3613
7.48372 -33.6468
7.24221 -38.2518
5.78247 -36.6949
5.83932 -30.8751
7.27486 -58.1044
4.84137 -59.282
5.87162 -46.1061
4.84265 -50.0436
6.58 -24.9912
5.48918 -20.945
5.691 -21.0516
5.05789 -20.7521
7.2258 -29.7014
5.91849 -27.8044
5.59185 -23.8355
6.54697 -28.956
4.59476 -15.2521
3.17173 -11.5045
4.97471 -16.768
0.650567 -5.11254
3.64513 -13.2024
0.216981 -4.09013
0.639547 -5.09274
2.2628 -9.17542
-1.65747 -0.203624
-1.3648 -0.096399
12.1038 -79.8912
11.3647 -61.3351
10.1837 -75.1784
11.2495 -53.0182
10.3158 -79.6043
11.2793 -61.12
12.4573 -59.7644
11.5178 -69.146
0 0
0 0
0 0
0 0
0 0
0 0
0 0
0 0
0 0
0 0
0 0
0 0
0 0
0 0
0 0
0 0
0 0
0 0
0 0
0 0
0 0
0 0
0 0
0 0
0 0
0 0
0 0
0 0
0 0
0 0
0 0
0 0
0 0
0 0
0 0
0 0
0 0
0 0
0 0
0 0
0 0
0 0
0 0
0 0
0 0
0 0
0 0
0 0
0 0
0 0
0 0
0 0
0 0
0 0
0 0
0 0
0 0
0 0
0 0
0 0
0 0
0 0
0 0
0 0
0 0
0 0
0 0
0 0
0 0
0 0
0 0
0 0
0 0
0 0
0 0
0 0
0 0
0 0
0 0
0 0
0 0
0 0
0 0
0 0
0 0
0 0
0 0
0 0
0 0
0 0
0 0
0 0
0 0
0 0
0 0
0 0
0 0
0 0
0 0
0 0
0 0
0 0
0 0
0 0
0 0
0 0
0 0
0 0
0 0
0 0
0 0
0 0
0 0
0 0
0 0
0 0
0 0
0 0
0 0
0 0
0 0
0 0
0 0
0 0
0 0
0 0
0 0
0 0
0 0
0 0
0 0
0 0
0 0
0 0
0 0
0 0
0 0
0 0
0 0
0 0
0 0
0 0
0 0
0 0
0 0
0 0
0 0
0 0
0 0
0 0
0 0
0 0
0 0
0 0
0 0
0 0
0 0
0 0
0 0
0 0
0 0
0 0
0 0
0 0
0 0
0 0
0 0
0 0
0 0
0 0
0 0
0 0
0 0
0 0
0 0
0 0
0 0
0 0
0 0
0 0
0 0
0 0
0 0
0 0
0 0
0 0
0 0
0 0
0 0
0 0
0 0
0 0
0 0
0 0
0 0
0 0
0 0
0 0
0 0
0 0
0 0
0 0
0 0
0 0
0 0
0 0
0 0
0 0
0 0
0 0
0 0
0 0
0 0
0 0
0 0
0 0
0 0
0 0
0 0
0 0
0 0
0 0
0 0
0 0
0 0
0 0
0 0
0 0
0 0
0 0
0 0
0 0
0 0
0 0
0 0
0 0
0 0
0 0
0 0
0 0
0 0
0 0
0 0
0 0
0 0
0 0
0 0
0 0
0 0
0 0
0 0
0 0
0 0
0 0
0 0
0 0
0 0
0 0
0 0
0 0
0 0
0 0
0 0
0 0
0 0
0 0
0 0
0 0
0 0
0 0
0 0
0 0
0 0
0 0
0 0
0 0
0 0
0 0
0 0
0 0
0 0
0 0
0 0
0 0
0 0
0 0
0 0
0 0
0 0
0 0
0 0
0 0
0 0
0 0
0 0
0 0
0 0
0 0
0 0
0 0
0 0
0 0
0 0
0 0
0 0
0 0
0 0
0 0
0 0
0 0
0 0
0 0
0 0
0 0
0 0
0 0
0 0
0 0
0 0
0 0
0 0
0 0
0 0
0 0
0 0
0 0
0 0
0 0
0 0
0 0
0 0
0 0
0 0
0 0
0 0
0 0
0 0
0 0
0 0
0 0
0 0
0 0
0 0
0 0
0 0
0 0
0 0
0 0
0 0
0 0
0 0
0 0
0 0
0 0
0 0
0 0
0 0
0 0
0 0
0 0
0 0
0 0
0 0
0 0
0 0
0 0
0 0
0 0
0 0
0 0
0 0
0 0
0 0
0 0
0 0
0 0
0 0
0 0
0 0
0 0
0 0
0 0
0 0
0 0
0 0
0 0
0 0
0 0
0 0
0 0
0 0
0 0
0 0
0 0
0 0
0 0
0 0
0 0
0 0
0 0
0 0
0 0
0 0
0 0
0 0
0 0
0 0
0 0
0 0
0 0
0 0
0 0
0 0
0 0
0 0
0 0
0 0
0 0
0 0
0 0
0 0
0 0
0 0
0 0
0 0
0 0
0 0
0 0
0 0
0 0
0 0
0 0
0 0
0 0
0 0
0 0
0 0
0 0
0 0
0 0
0 0
0 0
0 0
0 0
0 0
0 0
0 0
0 0
0 0
0 0
0 0
0 0
0 0
0 0
0 0
0 0
0 0
0 0
0 0
0 0
0 0
0 0
0 0
0 0
0 0
0 0
0 0
0 0
0 0
0 0
0 0
0 0
0 0
0 0
0 0
0 0
0 0
0 0
0 0
0 0
0 0
0 0
0 0
0 0
0 0
0 0
0 0
0 0
0 0
0 0
0 0
0 0
0 0
0 0
0 0
0 0
0 0
0 0
0 0
0 0
0 0
0 0
0 0
0 0
0 0
0 0
0 0
0 0
0 0
0 0
0 0
0 0
0 0
0 0
0 0
0 0
0 0
0 0
0 0
0 0
0 0
0 0
0 0
0 0
0 0
0 0
0 0
0 0
0 0
0 0
0 0
0 0
0 0
0 0
0 0
0 0
0 0
0 0
0 0
0 0
0 0
0 0
0 0
0 0
0 0
0 0
0 0
0 0
0 0
0 0
0 0
0 0
0 0
0 0
0 0
0 0
0 0
0 0
0 0
0 0
0 0
0 0
0 0
0 0
0 0
0 0
0 0
0 0
0 0
0 0
0 0
0 0
0 0
0 0
0 0
0 0
0 0
0 0
0 0
0 0
0 0
0 0
0 0
0 0
0 0
0 0
0 0
0 0
0 0
0 0
0 0
0 0
0 0
0 0
0 0
0 0
0 0
0 0
0 0
0 0
0 0
0 0
0 0
0 0
0 0
0 0
0 0
0 0
0 0
0 0
0 0
0 0
0 0
0 0
0 0
0 0
0 0
0 0
0 0
0 0
0 0
0 0
0 0
0 0
0 0
0 0
0 0
0 0
0 0
0 0
0 0
0 0
0 0
0 0
0 0
0 0
0 0
0 0
0 0
0 0
0 0
0 0
0 0
0 0
0 0
0 0
0 0
0 0
0 0
0 0
0 0
0 0
0 0
0 0
0 0
0 0
0 0
0 0
0 0
0 0
0 0
0 0
0 0
0 0
0 0
0 0
0 0
0 0
0 0
0 0
0 0
0 0
0 0
0 0
0 0
0 0
0 0
0 0
0 0
0 0
0 0
0 0
0 0
0 0
0 0
0 0
0 0
0 0
0 0
0 0
0 0
0 0
0 0
0 0
0 0
0 0
0 0
0 0
0 0
0 0
0 0
0 0
0 0
0 0
0 0
0 0
0 0
0 0
0 0
0 0
0 0
0 0
0 0
0 0
0 0
0 0
0 0
0 0
0 0
0 0
0 0
0 0
0 0
0 0
0 0
0 0
0 0
0 0
0 0
0 0
0 0
0 0
0 0
0 0
0 0
0 0
0 0
0 0
0 0
0 0
0 0
0 0
0 0
0 0
0 0
0 0
0 0
0 0
0 0
0 0
0 0
0 0
0 0
0 0
0 0
0 0
0 0
0 0
0 0
0 0
0 0
0 0
0 0
0 0
0 0
0 0
0 0
0 0
0 0
0 0
0 0
0 0
0 0
0 0
0 0
0 0
0 0
0 0
0 0
0 0
0 0
0 0
0 0
0 0
0 0
0 0
0 0
0 0
0 0
0 0
0 0
0 0
0 0
0 0
0 0
0 0
0 0
0 0
0 0
0 0
0 0
0 0
0 0
0 0
0 0
0 0
0 0
0 0
0 0
0 0
0 0
0 0
0 0
0 0
0 0
0 0
0 0
0 0
0 0
0 0
0 0
0 0
0 0
0 0
0 0
0 0
0 0
0 0
0 0
0 0
0 0
0 0
0 0
0 0
0 0
0 0
0 0
0 0
0 0
0 0
0 0
0 0
0 0
0 0
0 0
0 0
0 0
0 0
0 0
0 0
0 0
0 0
0 0
0 0
0 0
0 0
0 0
0 0
0 0
0 0
0 0
0 0
0 0
0 0
0 0
0 0
0 0
0 0
0 0
0 0
0 0
0 0
0 0
0 0
0 0
0 0
0 0
0 0
0 0
0 0
0 0
0 0
0 0
0 0
0 0
0 0
0 0
0 0
0 0
0 0
0 0
0 0
0 0
0 0
0 0
0 0
0 0
0 0
0 0
0 0
0 0
0 0
0 0
0 0
0 0
0 0
0 0
0 0
0 0
0 0
0 0
0 0
0 0
0 0
0 0
0 0
0 0
0 0
0 0
0 0
0 0
0 0
0 0
0 0
0 0
0 0
0 0
0 0
0 0
0 0
0 0
0 0
0 0
0 0
0 0
0 0
0 0
0 0
0 0
0 0
0 0
0 0
0 0
0 0
0 0
0 0
0 0
0 0
0 0
0 0
0 0
0 0
0 0
0 0
0 0
0 0
0 0
0 0
0 0
0 0
0 0
0 0
0 0
0 0
0 0
0 0
0 0
0 0
0 0
0 0
0 0
0 0
0 0
0 0
0 0
0 0
0 0
0 0
0 0
0 0
0 0
0 0
0 0
0 0
0 0
0 0
0 0
0 0
0 0
0 0
0 0
0 0
0 0
0 0
0 0
0 0
0 0
0 0
0 0
0 0
0 0
0 0
0 0
0 0
0 0
0 0
0 0
0 0
0 0
0 0
0 0
0 0
0 0
0 0
0 0
0 0
0 0
0 0
0 0
0 0
0 0
0 0
0 0
0 0
0 0
0 0
0 0
0 0
0 0
0 0
0 0
0 0
0 0
0 0
0 0
0 0
0 0
0 0
0 0
0 0
0 0
0 0
0 0
0 0
0 0
0 0
0 0
0 0
0 0
0 0
0 0
0 0
0 0
0 0
0 0
0 0
0 0
0 0
0 0
0 0
0 0
0 0
0 0
0 0
0 0
0 0
0 0
0 0
0 0
0 0
0 0
0 0
0 0
0 0
0 0
0 0
0 0
0 0
0 0
0 0
0 0
0 0
0 0
0 0
0 0
0 0
0 0
0 0
0 0
0 0
0 0
0 0
0 0
0 0
0 0
0 0
0 0
0 0
0 0
0 0
0 0
0 0
0 0
0 0
0 0
0 0
0 0
0 0
0 0
0 0
0 0
0 0
0 0
0 0
0 0
0 0
0 0
0 0
0 0
0 0
0 0
0 0
0 0
0 0
0 0
0 0
0 0
0 0
0 0
0 0
0 0
0 0
0 0
0 0
0 0
0 0
0 0
0 0
0 0
0 0
0 0
0 0
0 0
0 0
0 0
0 0
0 0
0 0
0 0
0 0
0 0
0 0
0 0
0 0
0 0
0 0
0 0
0 0
0 0
0 0
0 0
0 0
0 0
0 0
0 0
0 0
0 0
0 0
0 0
0 0
0 0
0 0
0 0
0 0
0 0
0 0
0 0
0 0
0 0
0 0
0 0
0 0
0 0
0 0
0 0
0 0
0 0
0 0
0 0
0 0
0 0
0 0
0 0
0 0
0 0
0 0
0 0
0 0
0 0
0 0
0 0
0 0
0 0
0 0
0 0
0 0
0 0
0 0
0 0
0 0
0 0
0 0
0 0
0 0
0 0
0 0
0 0
0 0
0 0
0 0
0 0
0 0
0 0
0 0
0 0
0 0
0 0
0 0
0 0
0 0
0 0
0 0
0 0
0 0
0 0
0 0
0 0
0 0
0 0
0 0
0 0
0 0
0 0
0 0
0 0
0 0
0 0
0 0
0 0
0 0
0 0
0 0
0 0
0 0
0 0
0 0
0 0
0 0
0 0
0 0
0 0
0 0
0 0
0 0
0 0
0 0
0 0
0 0
0 0
0 0
0 0
0 0
0 0
0 0
0 0
0 0
0 0
0 0
0 0
0 0
0 0
0 0
0 0
0 0
0 0
0 0
0 0
0 0
0 0
0 0
0 0
0 0
0 0
0 0
0 0
0 0
0 0
0 0
0 0
0 0
0 0
0 0
0 0
0 0
0 0
0 0
0 0
0 0
0 0
0 0
0 0
0 0
0 0
0 0
0 0
0 0
0 0
0 0
0 0
0 0
0 0
0 0
0 0
0 0
0 0
0 0
0 0
0 0
0 0
0 0
0 0
0 0
0 0
0 0
0 0
0 0
0 0
0 0
0 0
0 0
0 0
0 0
0 0
0 0
0 0
0 0
0 0
0 0
0 0
0 0
0 0
0 0
0 0
0 0
0 0
0 0
0 0
0 0
0 0
0 0
0 0
0 0
0 0
0 0
0 0
0 0
0 0
0 0
0 0
0 0
0 0
0 0
0 0
0 0
0 0
0 0
0 0
0 0
0 0
0 0
0 0
0 0
0 0
0 0
0 0
0 0
0 0
0 0
0 0
0 0
0 0
0 0
0 0
0 0
0 0
0 0
0 0
0 0
0 0
0 0
0 0
0 0
0 0
0 0
0 0
0 0
0 0
0 0
0 0
0 0
0 0
0 0
0 0
0 0
0 0
0 0
0 0
0 0
0 0
0 0
0 0
0 0
0 0
0 0
0 0
0 0
0 0
0 0
0 0
0 0
0 0
0 0
0 0
0 0
0 0
0 0
0 0
0 0
0 0
0 0
0 0
0 0
0 0
0 0
0 0
0 0
0 0
0 0
0 0
0 0
0 0
0 0
0 0
0 0
0 0
0 0
0 0
0 0
0 0
0 0
0 0
0 0
0 0
0 0
0 0
0 0
0 0
0 0
0 0
0 0
0 0
0 0
0 0
0 0
0 0
0 0
0 0
0 0
0 0
0 0
0 0
0 0
0 0
0 0
0 0
0 0
0 0
0 0
0 0
0 0
0 0
0 0
0 0
0 0
0 0
0 0
0 0
0 0
0 0
0 0
0 0
0 0
0 0
0 0
0 0
0 0
0 0
0 0
0 0
0 0
0 0
0 0
0 0
0 0
0 0
0 0
0 0
0 0
0 0
0 0
0 0
0 0
0 0
0 0
0 0
0 0
0 0
0 0
0 0
0 0
0 0
0 0
0 0
0 0
0 0
0 0
0 0
0 0
0 0
0 0
0 0
0 0
0 0
0 0
0 0
0 0
0 0
0 0
0 0
0 0
0 0
0 0
0 0
0 0
0 0
0 0
0 0
0 0
0 0
0 0
0 0
0 0
0 0
0 0
0 0
0 0
0 0
0 0
0 0
0 0
0 0
0 0
0 0
0 0
0 0
0 0
0 0
0 0
0 0
0 0
0 0
0 0
0 0
0 0
0 0
0 0
0 0
0 0
0 0
0 0
0 0
0 0
0 0
0 0
0 0
0 0
0 0
0 0
0 0
0 0
0 0
0 0
0 0
0 0
0 0
0 0
0 0
0 0
0 0
0 0
0 0
0 0
0 0
0 0
0 0
0 0
0 0
0 0
0 0
0 0
0 0
0 0
0 0
0 0
0 0
0 0
0 0
0 0
0 0
0 0
0 0
0 0
0 0
0 0
0 0
0 0
0 0
0 0
0 0
0 0
0 0
0 0
0 0
0 0
0 0
0 0
0 0
0 0
0 0
0 0
0 0
0 0
0 0
0 0
0 0
0 0
0 0
0 0
0 0
0 0
0 0
0 0
0 0
0 0
0 0
0 0
0 0
0 0
0 0
0 0
0 0
0 0
0 0
0 0
0 0
0 0
0 0
0 0
0 0
0 0
0 0
0 0
0 0
0 0
0 0
0 0
0 0
0 0
0 0
0 0
0 0
0 0
0 0
0 0
0 0
0 0
0 0
0 0
0 0
0 0
0 0
0 0
0 0
0 0
0 0
0 0
0 0
0 0
0 0
0 0
0 0
0 0
0 0
0 0
0 0
0 0
0 0
0 0
0 0
0 0
0 0
0 0
0 0
0 0
0 0
0 0
0 0
0 0
0 0
0 0
0 0
0 0
0 0
0 0
0 0
0 0
0 0
0 0
0 0
0 0
0 0
0 0
0 0
0 0
0 0
0 0
0 0
0 0
0 0
0 0
0 0
0 0
0 0
0 0
0 0
0 0
0 0
0 0
0 0
0 0
0 0
0 0
0 0
0 0
0 0
0 0
0 0
0 0
0 0
0 0
0 0
0 0
0 0
0 0
0 0
0 0
0 0
0 0
0 0
0 0
0 0
0 0
0 0
0 0
0 0
0 0
0 0
0 0
0 0
0 0
0 0
0 0
0 0
0 0
0 0
0 0
0 0
0 0
0 0
0 0
0 0
0 0
0 0
0 0
0 0
0 0
0 0
0 0
0 0
0 0
0 0
0 0
0 0
0 0
0 0
0 0
0 0
0 0
0 0
0 0
0 0
0 0
0 0
0 0
0 0
0 0
0 0
0 0
0 0
0 0
0 0
0 0
0 0
0 0
0 0
0 0
0 0
0 0
0 0
0 0
0 0
0 0
0 0
0 0
0 0
0 0
0 0
0 0
0 0
0 0
0 0
0 0
0 0
0 0
0 0
0 0
0 0
0 0
0 0
0 0
0 0
0 0
0 0
0 0
0 0
0 0
0 0
0 0
0 0
0 0
0 0
0 0
0 0
0 0
0 0
0 0
0 0
0 0
0 0
0 0
0 0
0 0
0 0
0 0
0 0
0 0
0 0
0 0
0 0
0 0
0 0
0 0
0 0
0 0
0 0
0 0
0 0
0 0
0 0
0 0
0 0
0 0
0 0
0 0
0 0
0 0
0 0
0 0
0 0
0 0
0 0
0 0
0 0
0 0
0 0
0 0
0 0
0 0
0 0
0 0
0 0
0 0
0 0
0 0
0 0
0 0
0 0
0 0
0 0
0 0
0 0
0 0
0 0
0 0
0 0
0 0
0 0
0 0
0 0
0 0
0 0
0 0
0 0
0 0
0 0
0 0
0 0
0 0
0 0
0 0
0 0
0 0
0 0
0 0
0 0
0 0
0 0
0 0
0 0
0 0
0 0
0 0
0 0
0 0
0 0
0 0
0 0
0 0
0 0
0 0
0 0
0 0
0 0
0 0
0 0
0 0
0 0
0 0
0 0
0 0
0 0
0 0
0 0
0 0
0 0
0 0
0 0
0 0
0 0
0 0
0 0
0 0
0 0
0 0
0 0
0 0
0 0
0 0
0 0
0 0
0 0
0 0
0 0
0 0
0 0
0 0
0 0
0 0
0 0
0 0
0 0
0 0
0 0
0 0
0 0
0 0
0 0
0 0
0 0
0 0
0 0
0 0
0 0
0 0
0 0
0 0
0 0
0 0
0 0
0 0
0 0
0 0
0 0
0 0
0 0
0 0
0 0
0 0
0 0
0 0
0 0
0 0
0 0
0 0
0 0
0 0
0 0
0 0
0 0
0 0
0 0
0 0
0 0
0 0
0 0
0 0
0 0
0 0
0 0
0 0
0 0
0 0
0 0
0 0
0 0
0 0
0 0
0 0
0 0
0 0
0 0
0 0
0 0
0 0
0 0
0 0
0 0
0 0
0 0
0 0
0 0
0 0
0 0
0 0
0 0
0 0
0 0
0 0
0 0
0 0
0 0
0 0
0 0
0 0
0 0
0 0
0 0
0 0
0 0
0 0
0 0
0 0
0 0
0 0
0 0
0 0
0 0
0 0
0 0
0 0
0 0
0 0
0 0
0 0
0 0
0 0
0 0
0 0
0 0
0 0
0 0
0 0
0 0
0 0
0 0
0 0
0 0
0 0
0 0
0 0
0 0
0 0
0 0
0 0
0 0
0 0
0 0
0 0
0 0
0 0
0 0
0 0
0 0
0 0
0 0
0 0
0 0
0 0
0 0
0 0
0 0
0 0
0 0
0 0
0 0
0 0
0 0
0 0
0 0
0 0
0 0
0 0
0 0
0 0
0 0
0 0
0 0
0 0
0 0
0 0
0 0
0 0
0 0
0 0
0 0
0 0
0 0
0 0
0 0
0 0
0 0
0 0
0 0
0 0
0 0
0 0
0 0
0 0
0 0
0 0
0 0
0 0
0 0
0 0
0 0
0 0
0 0
0 0
0 0
0 0
0 0
0 0
0 0
0 0
0 0
0 0
0 0
0 0
0 0
0 0
0 0
0 0
0 0
0 0
0 0
0 0
0 0
0 0
0 0
0 0
0 0
0 0
0 0
0 0
0 0
0 0
0 0
0 0
0 0
0 0
0 0
0 0
0 0
0 0
0 0
0 0
0 0
0 0
0 0
0 0
0 0
0 0
0 0
0 0
0 0
0 0
0 0
0 0
0 0
0 0
0 0
0 0
0 0
0 0
0 0
0 0
0 0
0 0
0 0
0 0
0 0
0 0
0 0
0 0
0 0
0 0
0 0
0 0
0 0
0 0
0 0
0 0
0 0
0 0
0 0
0 0
0 0
0 0
0 0
0 0
0 0
0 0
0 0
0 0
0 0
0 0
0 0
0 0
      </DataArray> 
      <DataArray type="Float64" NumberOfComponents="1" Name="CauchyShearStress" format="ascii">
-8.78547
7.7449
-2.59051
0.753772
0.377587
0.521636
0.380178
0.188729
-0.0341768
-0.0717723
-0.0683697
-0.121586
-0.17412
-0.128243
-0.0605503
-0.04784
-0.0533992
0.0266625
0.0932031
0.0880627
0.0632303
0.120166
0.136984
0.0360207
-0.0978927
-0.125448
-0.236546
-0.788568
-0.996533
-1.30035
0.970079
-0.00315997
0.32125
0.758793
-9.75923
0.0467996
0.291097
0.347379
0.309093
0.0922467
0.0677457
0.170248
0.281491
0.264663
0.392406
0.294806
0.421834
0.559546
0.647521
0.64474
0.701872
0.721773
0.760963
0.355071
-0.182765
-0.358705
-0.552509
-0.69898
-0.843108
-2.18705
1.09548
1.50621
3.0097
-37.4043
-18.6591
-7.88214
-11.9868
-14.8977
-21.4771
0.272527
-36.105
-31.391
-23.7896
37.8917
-3.19355
-26.1458
37.7159
-6.61765
19.2572
8.17379
12.1205
14.9498
21.5142
-0.462158
-1.45771
-1.69135
-3.57594
0.00632226
-0.176534
0.310467
0.564103
1.04161
1.0785
0.264155
-0.197071
-0.349149
-0.511595
-0.648264
-0.730048
-0.785847
-0.806104
-0.863168
-0.748869
-0.719857
-0.692573
-0.611608
-0.628476
-0.452945
-0.252137
-0.180749
-0.262762
0.97962
1.88854
10.2272
2.52832
-20.5897
-11.7564
-20.5033
22.8598
13.3559
5.63166
5.93919
-5.35887
-0.476496
-19.5544
19.567
-4.75931
-5.36077
-9.80932
-9.29778
10.5122
-8.28479
9.23157
-9.04117
-9.28877
10.0125
10.0538
-8.0428
-7.65552
-8.9252
-4.54228
3.405
4.73666
10.0869
8.46907
11.4371
-10.3791
-11.9346
-12.5444
-12.0443
13.2076
11.0522
-4.79017
1.06589
4.45202
-7.82885
8.10567
-5.98245
-6.87013
-7.89205
-7.28964
7.68592
8.68535
7.81136
6.31547
-7.48616
-7.59631
-6.61267
-3.38055
1.48458
6.77938
-6.82473
-6.61089
7.76536
8.0833
7.21054
7.10715
8.04743
11.0004
-9.77911
-11.3213
-8.66782
-12.8525
-14.5276
12.9119
7.36263
-5.50555
-3.71237
-0.348235
-1.80966
1.43623
3.54969
2.47221
5.01944
-7.08135
-7.30504
7.16031
7.22715
-5.80725
-4.9485
-5.36411
-4.68119
-5.2702
-6.57587
7.01428
5.95724
5.31594
5.68075
5.03083
5.75401
-6.95081
-6.5331
-8.84412
0.210303
5.09876
-4.14235
4.653
6.75601
6.45524
13.4621
-16.3758
-3.38389
-17.968
18.7295
15.1633
10.5571
-5.59144
-4.07414
-1.42814
1.0113
3.08945
5.05694
-6.82893
6.66383
-4.93335
-3.41214
-4.73183
4.93588
3.70245
5.08235
-5.58885
-6.05275
-6.1279
-5.58772
-3.05104
-2.21586
-21.9271
-3.93454
17.1253
-0.462534
0.466448
3.52485
4.96182
5.59664
5.74889
4.70673
17.6901
-17.5254
2.40137
7.26382
-22.3531
-6.16063
-4.96675
20.7925
6.48845
-5.30068
-5.42138
-3.84202
-4.78345
-1.92663
-2.8111
0.242698
-0.583536
1.8192
1.12032
3.76132
2.86638
5.40974
4.48931
-5.40682
-6.29868
-6.60041
5.50285
6.30082
6.22829
4.82758
-4.76887
-2.21411
-2.00186
-3.14708
3.16223
2.37596
2.38155
5.05808
-3.34764
-4.5506
-3.9575
-3.11159
-1.10454
-39.3217
-14.5869
-1.15236
9.25254
41.4716
3.05553
-3.00481
2.94692
5.00442
3.37161
29.701
15.0657
-25.102
-15.6885
15.6995
-25.4661
2.52859
-11.9517
12.0712
17.2936
-5.47699
-3.3308
-1.77306
-0.34856
0.940789
2.25869
4.30631
-6.06341
-4.59561
5.21587
5.10555
-3.09938
-2.22906
-5.49262
4.28448
1.71537
3.18515
-3.63901
4.06225
-1.11636
-1.97809
-1.77461
-2.46967
-1.90902
-2.19092
-1.79864
-1.43404
-0.779425
-72.7165
-10.3854
8.43076
65.2075
0.217742
1.43332
3.20336
4.35416
9.70478
-8.37564
-4.34492
-2.85552
-1.2946
0.0775573
1.08124
1.55962
1.41076
2.32086
1.01907
1.30124
1.50021
1.66844
22.6183
37.7002
21.7224
-22.0875
-30.4862
-37.5166
15.5114
19.3062
22.8037
-13.9723
-31.8381
-21.8235
-2.97839
-5.64482
-2.0684
-1.77035
-1.7937
-1.23165
-1.15318
-1.22957
-0.654696
-0.444827
-0.568239
0.0686527
0.281794
0.177689
0.734644
0.883597
0.832521
1.30452
1.2684
1.35757
2.41246
5.42731
2.62926
-1.33967
-1.24116
1.90217
2.08989
-5.97457
-6.64552
5.70526
5.82159
6.24859
-1.39601
-2.03833
2.30678
1.97047
-2.14663
1.98526
-3.07126
-2.43748
2.14949
2.73529
-4.79596
-10.0043
-4.97152
4.85787
5.19904
8.18668
6.67244
-7.83263
4.6777
-5.23542
0.359964
-0.164697
6.2124
-6.50144
3.94559
-2.61579
5.81184
3.03326
1.56563
0.343146
-1.0384
-2.4979
-4.29115
-5.96148
-18.1329
26.3197
-28.9403
29.4391
2.96526
3.77848
0.593265
-6.86937
8.24088
0.392123
30.2231
-37.5141
-1.77887
-3.85074
-5.0455
-4.1055
3.36895
-4.58291
13.4517
-7.05651
-3.0951
4.21136
3.5085
-2.96311
-4.06852
6.36275
6.57925
-6.94806
-6.33316
5.70006
4.22824
1.98795
0.0165578
-2.88943
-5.1251
-5.80396
15.3537
2.61861
-5.09458
-3.44705
-15.0341
10.2316
6.50128
6.16267
3.72547
-3.92366
-4.74275
-7.11657
14.8558
-13.5436
5.68974
7.43195
8.31054
-7.38253
-6.62626
-5.80053
7.66857
-7.67649
2.93383
-0.783375
10.6333
-14.9112
9.52663
-9.44691
8.81648
-8.21869
11.4723
-10.3546
-8.3588
-41.8241
-3.81502
-45.262
-32.1076
-4.64203
-24.1509
3.42985
32.6811
59.8114
5.21584
36.195
33.205
-35.3549
-52.9961
-53.9899
-56.4352
-28.1857
-35.8716
-41.4436
-31.8161
-30.9915
-29.0871
-33.6954
-25.3403
-43.3203
-54.2331
-18.4418
-25.8194
32.4425
55.0144
50.5238
41.6761
28.3772
36.0873
34.2746
28.0992
31.9887
29.3688
25.716
33.9173
18.7138
43.6521
54.5358
26.2356
28.0808
2.37025
9.53316
3.12955
85.2766
23.4923
99.0001
42.9934
17.5985
-33.1422
-12.9774
-2.66989
-101.591
-83.4883
-38.8986
-4.11688
-22.547
-50.9976
29.2447
29.5352
4.80587
17.5494
-4.91541
22.2091
15.7167
-27.6168
-14.8213
-37.8788
4.56271
6.09753
-5.31767
-23.0638
0.151647
1.59252
-20.2007
-23.9598
-10.226
1.95005
15.3327
-9.20542
23.4881
13.7433
40.8078
58.4018
58.6529
38.9708
42.7893
32.2845
32.7786
4.01865
3.29459
10.1466
-0.236862
18.3458
2.64347
-2.15795
-8.04472
-13.9711
-5.35902
-24.5855
-8.25368
-35.9911
-56.5505
-59.4457
-37.1473
-41.4756
-31.5335
-30.1903
20.1695
23.3051
17.3606
18.2157
-15.4629
-25.1231
-11.3035
-16.2698
16.6058
19.2916
17.8884
17.2547
16.3845
15.7289
18.1585
11.7604
13.6584
16.1638
14.1321
-15.5156
-13.323
-13.7793
-12.4318
-9.20454
-15.2561
9.20838
10.463
10.7292
7.87537
7.67578
6.79246
5.78579
4.3835
-3.70343
-1.96101
-1.68335
-0.242297
2.03864
-2.09237
-8.64166
-10.0919
-7.80186
-11.661
-5.92471
-5.21249
-6.93083
-4.98215
-3.84033
-5.414
-2.74584
-5.46037
-6.2162
24.0418
21.0854
25.8771
23.6918
31.3361
36.1814
29.0262
15.5726
21.5814
14.716
75.8914
85.3092
-14.4527
-21.2257
-15.2104
-23.3774
-73.0674
-82.7004
-28.685
-25.322
-20.5764
-24.2345
28.7242
4.28851
11.0355
7.77585
12.8268
1.40427
23.5128
13.6874
7.94198
20.7454
20.1974
17.3361
17.1844
28.0624
27.6191
18.9893
31.4778
-29.4185
-17.4965
-27.1803
-13.1476
-30.4841
-18.9041
-18.1321
-21.8287
-12.7544
-29.4441
-18.3975
-16.4731
-10.4104
-7.43328
-6.4972
-7.78082
-3.56339
-3.96949
-13.2598
-18.4306
-13.5701
-16.5414
-19.5817
-21.3571
-20.0278
-21.1542
-17.3746
-18.5031
-16.9025
1.30995
3.86898
2.51176
6.48721
-1.21564
0.41767
4.17401
-0.717782
21.0821
26.7129
13.4685
31.4118
25.1263
11.1058
6.58996
8.26716
23.7666
44.0234
37.8747
45.144
29.1175
35.3482
47.3587
30.6503
-64.7576
-92.9416
-71.9066
-42.9208
-71.598
-153.84
101.2
40.5732
70.2866
68.5616
29.9043
145.207
31.1214
6.23101
6.69793
4.80394
-56.0184
-38.5637
-1.85653
22.0345
12.6549
-11.0315
-13.4218
-1.16624
-20.9745
-12.2064
5.84893
12.4051
-10.5258
-27.9534
25.3473
18.7032
22.0449
17.2705
15.2112
13.8131
23.3596
23.3277
25.2888
-3.16215
16.5323
11.7695
16.5019
0.174697
-21.6298
-10.0296
-24.5684
-10.769
-22.219
49.7908
10.4026
5.59659
-14.0369
-13.5745
28.4118
-14.6725
-14.1543
-24.5343
-6.88872
-14.0705
-25.1975
-28.2358
-13.5836
-1.31844
10.1391
-21.9786
-20.1321
-16.8031
1.00218
2.36119
-1.60871
-2.43341
-8.63277
1.59415
13.0185
-7.18978
2.66678
6.75944
4.06251
8.63301
8.80048
7.89013
20.4025
17.4425
20.3724
19.2248
16.4343
22.144
-4.77715
-1.75864
6.43202
-7.69375
0.406646
15.7393
-17.6866
-20.6009
-14.1806
-18.1584
-10.6114
-25.3857
-23.6366
-22.8589
-14.3329
-18.6206
-21.1467
-22.4986
-9.32342
-16.9573
-17.5949
-14.1329
11.8003
8.88781
13.7307
4.2669
6.44496
12.9016
11.3513
-28.6139
-26.702
-24.0729
-16.9531
-12.9222
-20.1984
-34.7889
-21.314
-17.8021
-37.5369
-3.92113
-39.5052
-25.5363
-6.53498
-42.194
-38.4659
-53.5528
-6.70909
-8.37509
-17.7222
-11.0182
-7.95048
-23.1128
-98.9975
-6.78357
-16.3363
51.9547
65.7452
46.9272
8.53413
9.99699
17.6605
8.84396
8.98053
7.25727
21.1612
92.5121
21.0712
1.8684
0.413052
0.720581
0.297936
-0.146618
-0.00290492
0.906654
3.12874
2.54751
1.49167
0.4626
0.260362
0.408675
0.0222192
-0.221547
2.66307
0.513326
0.0680363
0.290206
0.0388228
-0.23952
-0.11412
0.383506
0.966728
0.316964
-0.532454
-0.411253
-0.0604054
-0.556087
0.894582
0.84612
-0.506419
-3.41109
-1.50322
-1.19702
-1.77846
0.681421
0.553176
-0.950596
-4.80965
-5.54585
-6.31227
-3.8285
-2.17029
-4.53182
0.31506
0.141453
-7.57536
6.97408
2.07696
4.37941
1.70473
-0.892514
-1.06326
5.28247
9.09019
6.43268
3.61448
1.34646
1.51052
1.0903
-1.04954
-0.609364
5.61662
0.727382
0.117989
0.441904
0.0642945
-0.379624
0.0516705
0.591845
1.0375
0.343569
-1.09806
-0.298937
-0.146717
-0.448757
0.715668
0.721641
-0.0453513
-1.2573
-1.67015
-1.95924
-0.677874
-0.592721
-0.826713
0.714988
0.658126
-0.493458
-2.80876
-3.06092
0.742988
-0.579603
-0.670118
-0.829366
-3.45158
0.516561
30.0129
14.7037
18.1124
-10.2036
-13.0276
-11.0984
-14.9
-9.33278
-23.8948
-27.2985
-30.4032
12.4652
12.4855
15.8386
20.4872
11.7821
-0.4135
-16.1379
-1.46502
10.7919
4.33484
3.64259
2.58304
4.10314
2.03246
1.30318
2.24759
3.39659
1.82252
-3.09125
-1.95643
-2.15324
-1.0391
-4.81371
2.26368
2.21301
3.34381
5.322
1.56085
-2.52856
-1.59117
-2.25579
-2.4004
-3.45876
-3.00417
-2.04099
-3.07254
-3.86087
-4.448
23.1717
21.8137
-5.64958
-9.44713
-8.20397
-11.6995
-6.09778
-1.37193
-1.24071
-25.562
-22.4481
4.6813
5.3273
5.68635
6.05706
4.29871
3.18467
3.97724
1.99656
4.38342
5.50733
4.7975
-2.01208
-4.00739
-1.38444
0.466289
1.41797
0.843612
1.47592
2.76845
0.0106056
5.52734
-0.592682
-1.95856
-2.71229
-2.00878
-1.62307
-2.37518
-1.51055
-0.473259
-0.814204
-3.43494
-3.87499
-4.70649
-4.75844
-5.29533
-6.40258
-5.77204
-0.0794758
1.64619
5.85226
5.25699
6.1266
6.67511
6.52397
2.41111
2.18418
4.01269
5.52329
3.78601
-3.16429
-1.44628
-2.28224
-3.78058
-4.48686
5.14035
8.82128
10.6987
8.94996
-10.4931
-6.27974
-8.01239
-6.08761
-3.2921
-4.04197
-11.7562
7.1127
7.3501
7.92173
8.72102
7.58111
6.07105
6.1988
6.90512
9.14733
-6.72235
-5.4941
-5.42753
-5.7965
-5.1255
-8.03666
-8.11524
-5.59879
-6.70136
-7.48139
-6.79835
-7.48662
-9.16429
8.01063
8.62504
-3.86587
-3.90586
-3.14254
-4.35346
-4.80003
-6.07749
-5.14276
-5.63819
-0.749822
-0.195785
-0.382169
-0.083613
-1.10088
-0.0828789
-0.0858993
-0.6584
0.419691
0.193227
6.83563
10.6871
11.967
7.13171
0.608708
-0.497286
4.19783
1.07811
0
0
0
0
0
0
0
0
0
0
0
0
0
0
0
0
0
0
0
0
0
0
0
0
0
0
0
0
0
0
0
0
0
0
0
0
0
0
0
0
0
0
0
0
0
0
0
0
0
0
0
0
0
0
0
0
0
0
0
0
0
0
0
0
0
0
0
0
0
0
0
0
0
0
0
0
0
0
0
0
0
0
0
0
0
0
0
0
0
0
0
0
0
0
0
0
0
0
0
0
0
0
0
0
0
0
0
0
0
0
0
0
0
0
0
0
0
0
0
0
0
0
0
0
0
0
0
0
0
0
0
0
0
0
0
0
0
0
0
0
0
0
0
0
0
0
0
0
0
0
0
0
0
0
0
0
0
0
0
0
0
0
0
0
0
0
0
0
0
0
0
0
0
0
0
0
0
0
0
0
0
0
0
0
0
0
0
0
0
0
0
0
0
0
0
0
0
0
0
0
0
0
0
0
0
0
0
0
0
0
0
0
0
0
0
0
0
0
0
0
0
0
0
0
0
0
0
0
0
0
0
0
0
0
0
0
0
0
0
0
0
0
0
0
0
0
0
0
0
0
0
0
0
0
0
0
0
0
0
0
0
0
0
0
0
0
0
0
0
0
0
0
0
0
0
0
0
0
0
0
0
0
0
0
0
0
0
0
0
0
0
0
0
0
0
0
0
0
0
0
0
0
0
0
0
0
0
0
0
0
0
0
0
0
0
0
0
0
0
0
0
0
0
0
0
0
0
0
0
0
0
0
0
0
0
0
0
0
0
0
0
0
0
0
0
0
0
0
0
0
0
0
0
0
0
0
0
0
0
0
0
0
0
0
0
0
0
0
0
0
0
0
0
0
0
0
0
0
0
0
0
0
0
0
0
0
0
0
0
0
0
0
0
0
0
0
0
0
0
0
0
0
0
0
0
0
0
0
0
0
0
0
0
0
0
0
0
0
0
0
0
0
0
0
0
0
0
0
0
0
0
0
0
0
0
0
0
0
0
0
0
0
0
0
0
0
0
0
0
0
0
0
0
0
0
0
0
0
0
0
0
0
0
0
0
0
0
0
0
0
0
0
0
0
0
0
0
0
0
0
0
0
0
0
0
0
0
0
0
0
0
0
0
0
0
0
0
0
0
0
0
0
0
0
0
0
0
0
0
0
0
0
0
0
0
0
0
0
0
0
0
0
0
0
0
0
0
0
0
0
0
0
0
0
0
0
0
0
0
0
0
0
0
0
0
0
0
0
0
0
0
0
0
0
0
0
0
0
0
0
0
0
0
0
0
0
0
0
0
0
0
0
0
0
0
0
0
0
0
0
0
0
0
0
0
0
0
0
0
0
0
0
0
0
0
0
0
0
0
0
0
0
0
0
0
0
0
0
0
0
0
0
0
0
0
0
0
0
0
0
0
0
0
0
0
0
0
0
0
0
0
0
0
0
0
0
0
0
0
0
0
0
0
0
0
0
0
0
0
0
0
0
0
0
0
0
0
0
0
0
0
0
0
0
0
0
0
0
0
0
0
0
0
0
0
0
0
0
0
0
0
0
0
0
0
0
0
0
0
0
0
0
0
0
0
0
0
0
0
0
0
0
0
0
0
0
0
0
0
0
0
0
0
0
0
0
0
0
0
0
0
0
0
0
0
0
0
0
0
0
0
0
0
0
0
0
0
0
0
0
0
0
0
0
0
0
0
0
0
0
0
0
0
0
0
0
0
0
0
0
0
0
0
0
0
0
0
0
0
0
0
0
0
0
0
0
0
0
0
0
0
0
0
0
0
0
0
0
0
0
0
0
0
0
0
0
0
0
0
0
0
0
0
0
0
0
0
0
0
0
0
0
0
0
0
0
0
0
0
0
0
0
0
0
0
0
0
0
0
0
0
0
0
0
0
0
0
0
0
0
0
0
0
0
0
0
0
0
0
0
0
0
0
0
0
0
0
0
0
0
0
0
0
0
0
0
0
0
0
0
0
0
0
0
0
0
0
0
0
0
0
0
0
0
0
0
0
0
0
0
0
0
0
0
0
0
0
0
0
0
0
0
0
0
0
0
0
0
0
0
0
0
0
0
0
0
0
0
0
0
0
0
0
0
0
0
0
0
0
0
0
0
0
0
0
0
0
0
0
0
0
0
0
0
0
0
0
0
0
0
0
0
0
0
0
0
0
0
0
0
0
0
0
0
0
0
0
0
0
0
0
0
0
0
0
0
0
0
0
0
0
0
0
0
0
0
0
0
0
0
0
0
0
0
0
0
0
0
0
0
0
0
0
0
0
0
0
0
0
0
0
0
0
0
0
0
0
0
0
0
0
0
0
0
0
0
0
0
0
0
0
0
0
0
0
0
0
0
0
0
0
0
0
0
0
0
0
0
0
0
0
0
0
0
0
0
0
0
0
0
0
0
0
0
0
0
0
0
0
0
0
0
0
0
0
0
0
0
0
0
0
0
0
0
0
0
0
0
0
0
0
0
0
0
0
0
0
0
0
0
0
0
0
0
0
0
0
0
0
0
0
0
0
0
0
0
0
0
0
0
0
0
0
0
0
0
0
0
0
0
0
0
0
0
0
0
0
0
0
0
0
0
0
0
0
0
0
0
0
0
0
0
0
0
0
0
0
0
0
0
0
0
0
0
0
0
0
0
0
0
0
0
0
0
0
0
0
0
0
0
0
0
0
0
0
0
0
0
0
0
0
0
0
0
0
0
0
0
0
0
0
0
0
0
0
0
0
0
0
0
0
0
0
0
0
0
0
0
0
0
0
0
0
0
0
0
0
0
0
0
0
0
0
0
0
0
0
0
0
0
0
0
0
0
0
0
0
0
0
0
0
0
0
0
0
0
0
0
0
0
0
0
0
0
0
0
0
0
0
0
0
0
0
0
0
0
0
0
0
0
0
0
0
0
0
0
0
0
0
0
0
0
0
0
0
0
0
0
0
0
0
0
0
0
0
0
0
0
0
0
0
0
0
0
0
0
0
0
0
0
0
0
0
0
0
0
0
0
0
0
0
0
0
0
0
0
0
0
0
0
0
0
0
0
0
0
0
0
0
0
0
0
0
0
0
0
0
0
0
0
0
0
0
0
0
0
0
0
0
0
0
0
0
0
0
0
0
0
0
0
0
0
0
0
0
0
0
0
0
0
0
0
0
0
0
0
0
0
0
0
0
0
0
0
0
0
0
0
0
0
0
0
0
0
0
0
0
0
0
0
0
0
0
0
0
0
0
0
0
0
0
0
0
0
0
0
0
0
0
0
0
0
0
0
0
0
0
0
0
0
0
0
0
0
0
0
0
0
0
0
0
0
0
0
0
0
0
0
0
0
0
0
0
0
0
0
0
0
0
0
0
0
0
0
0
0
0
0
0
0
0
0
0
0
0
0
0
0
0
0
0
0
0
0
0
0
0
0
0
0
0
0
0
0
0
0
0
0
0
0
0
0
0
0
0
0
0
0
0
0
0
0
0
0
0
0
0
0
0
0
0
0
0
0
0
0
0
0
0
0
0
0
0
0
0
0
0
0
0
0
0
0
0
0
0
0
0
0
0
0
0
0
0
0
0
0
0
0
0
0
0
0
0
0
0
0
0
0
0
0
0
0
0
0
0
0
0
0
0
0
0
0
0
0
0
0
0
0
0
0
0
0
0
0
0
0
0
0
0
0
0
0
0
0
0
0
0
0
0
0
0
0
0
0
0
0
0
0
0
0
0
0
0
0
0
0
0
0
0
0
0
0
0
0
0
0
0
0
0
0
0
0
0
0
0
0
0
0
0
0
0
0
0
0
0
0
0
0
0
0
0
0
0
0
0
0
0
0
0
0
0
0
0
0
0
0
0
0
0
0
0
0
0
0
0
0
0
0
0
0
0
0
0
0
0
0
0
0
0
0
0
0
0
0
0
0
0
0
0
0
0
0
0
0
0
0
0
0
0
0
0
0
0
0
0
0
0
0
0
0
0
0
0
0
0
0
0
0
0
0
0
0
0
0
0
0
0
0
0
0
0
0
0
0
0
0
0
0
0
0
0
0
0
0
0
0
0
0
0
0
0
0
0
0
0
0
0
0
0
0
0
0
0
0
0
0
0
0
0
0
0
0
0
0
0
0
0
0
0
0
0
0
0
0
0
0
0
0
0
0
0
0
0
0
0
0
0
0
0
0
0
0
0
0
0
0
0
0
0
0
0
0
0
0
0
0
0
0
0
0
0
0
0
0
0
0
0
0
0
0
0
0
0
0
0
0
0
0
0
0
0
0
0
0
0
0
0
0
0
0
0
0
0
0
0
0
0
0
0
0
0
0
0
0
0
0
0
0
0
0
0
0
0
0
0
0
0
0
0
0
0
0
0
0
0
0
0
0
0
0
0
0
0
0
0
0
0
0
0
0
0
0
0
0
0
0
0
0
0
0
0
0
0
0
0
0
0
0
0
0
0
0
0
0
0
0
0
0
0
0
0
0
0
0
0
0
0
0
0
0
0
0
0
0
0
0
0
0
0
0
0
0
0
0
0
0
0
0
0
0
0
0
0
0
0
0
0
0
0
0
0
0
0
0
0
0
0
0
0
0
0
0
0
0
0
0
0
0
0
0
0
0
0
0
0
0
0
0
0
0
0
0
0
0
0
0
0
0
0
0
0
0
0
0
0
0
0
0
0
0
0
0
0
0
0
0
0
0
0
0
0
0
0
0
0
0
0
0
0
0
0
0
0
0
0
0
0
0
0
0
0
0
0
0
0
0
0
0
0
0
0
0
0
0
0
0
0
0
0
0
0
0
0
0
0
0
0
0
0
0
0
0
0
0
0
0
0
0
0
0
0
0
0
0
0
0
0
0
0
0
0
0
0
0
0
0
0
0
0
0
0
0
0
0
0
0
0
0
0
0
0
0
0
0
0
0
0
0
0
0
0
0
0
0
0
0
0
0
0
0
0
0
0
0
0
0
0
0
0
0
0
0
0
0
0
0
0
0
0
0
0
0
0
0
0
0
0
0
0
0
0
0
0
0
0
0
0
0
0
0
0
0
0
0
0
0
0
0
0
0
0
0
0
0
0
0
0
0
0
0
0
0
0
0
0
0
0
0
0
0
0
0
0
0
0
0
0
0
0
0
0
0
0
0
0
0
0
0
0
0
0
0
0
0
0
0
0
0
0
0
0
0
0
0
0
0
0
0
      </DataArray> 
      <DataArray type="Float64" NumberOfComponents="1" Name="NormalFibers" format="ascii">
0
0
0
0
0
0
0
0
0
0
0
0
0
0
0
0
0
0
0
0
0
0
0
0
0
0
0
0
0
0
0
0
0
0
0
0
0
0
0
0
0
0
0
0
0
0
0
0
0
0
0
0
0
0
0
0
0
0
0
0
0
0
0
0
0
0
0
0
0
0
0
0
0
0
0
0
0
0
0
0
0
0
0
0
0
0
0
0
0
0
0
0
0
0
0
0
0
0
0
0
0
0
0
0
0
0
0
0
0
0
0
0
0
0
0
0
0
0
0
0
0
0
0
0
0
0
0
0
0
0
0
0
0
0
0
0
0
0
0
0
0
0
0
0
0
0
0
0
0
0
0
0
0
0
0
0
0
0
0
0
0
0
0
0
0
0
0
0
0
0
0
0
0
0
0
0
0
0
0
0
0
0
0
0
0
0
0
0
0
0
0
0
0
0
0
0
0
0
0
0
0
0
0
0
0
0
0
0
0
0
0
0
0
0
0
0
0
0
0
0
0
0
0
0
0
0
0
0
0
0
0
0
0
0
0
0
0
0
0
0
0
0
0
0
0
0
0
0
0
0
0
0
0
0
0
0
0
0
0
0
0
0
0
0
0
0
0
0
0
0
0
0
0
0
0
0
0
0
0
0
0
0
0
0
0
0
0
0
0
0
0
0
0
0
0
0
0
0
0
0
0
0
0
0
0
0
0
0
0
0
0
0
0
0
0
0
0
0
0
0
0
0
0
0
0
0
0
0
0
0
0
0
0
0
0
0
0
0
0
0
0
0
0
0
0
0
0
0
0
0
0
0
0
0
0
0
0
0
0
0
0
0
0
0
0
0
0
0
0
0
0
0
0
0
0
0
0
0
0
0
0
0
0
0
0
0
0
0
0
0
0
0
0
0
0
0
0
0
0
0
0
0
0
0
0
0
0
0
0
0
0
0
0
0
0
0
0
0
0
0
0
0
0
0
0
0
0
0
0
0
0
0
0
0
0
0
0
0
0
0
0
0
0
0
0
0
0
0
0
0
0
0
0
0
0
0
0
0
0
0
0
0
0
0
0
0
0
0
0
0
0
0
0
0
0
0
0
0
0
0
0
0
0
0
0
0
0
0
0
0
0
0
0
0
0
0
0
0
0
0
0
0
0
0
0
0
0
0
0
0
0
0
0
0
0
0
0
0
0
0
0
0
0
0
0
0
0
0
0
0
0
0
0
0
0
0
0
0
0
0
0
0
0
0
0
0
0
0
0
0
0
0
0
0
0
0
0
0
0
0
0
0
0
0
0
0
0
0
0
0
0
0
0
0
0
0
0
0
0
0
0
0
0
0
0
0
0
0
0
0
0
0
0
0
0
0
0
0
0
0
0
0
0
0
0
0
0
0
0
0
0
0
0
0
0
0
0
0
0
0
0
0
0
0
0
0
0
0
0
0
0
0
0
0
0
0
0
0
0
0
0
0
0
0
0
0
0
0
0
0
0
0
0
0
0
0
0
0
0
0
0
0
0
0
0
0
0
0
0
0
0
0
0
0
0
0
0
0
0
0
0
0
0
0
0
0
0
0
0
0
0
0
0
0
0
0
0
0
0
0
0
0
0
0
0
0
0
0
0
0
0
0
0
0
0
0
0
0
0
0
0
0
0
0
0
0
0
0
0
0
0
0
0
0
0
0
0
0
0
0
0
0
0
0
0
0
0
0
0
0
0
0
0
0
0
0
0
0
0
0
0
0
0
0
0
0
0
0
0
0
0
0
0
0
0
0
0
0
0
0
0
0
0
0
0
0
0
0
0
0
0
0
0
0
0
0
0
0
0
0
0
0
0
0
0
0
0
0
0
0
0
0
0
0
0
0
0
0
0
0
0
0
0
0
0
0
0
0
0
0
0
0
0
0
0
0
0
0
0
0
0
0
0
0
0
0
0
0
0
0
0
0
0
0
0
0
0
0
0
0
0
0
0
0
0
0
0
0
0
0
0
0
0
0
0
0
0
0
0
0
0
0
0
0
0
0
0
0
0
0
0
0
0
0
0
0
0
0
0
0
0
0
0
0
0
0
0
0
0
0
0
0
0
0
0
0
0
0
0
0
0
0
0
0
0
0
0
0
0
0
0
0
0
0
0
0
0
0
0
0
0
0
0
0
0
0
0
0
0
0
0
0
0
0
0
0
0
0
0
0
0
0
0
0
0
0
0
0
0
0
0
0
0
0
0
0
0
0
0
0
0
0
0
0
0
0
0
0
0
0
0
0
0
0
0
0
0
0
0
0
0
0
0
0
0
0
0
0
0
0
0
0
0
0
0
0
0
0
0
0
0
0
0
0
0
0
0
0
0
0
0
0
0
0
0
0
0
0
0
0
0
0
0
0
0
0
0
0
0
0
0
0
0
0
0
0
0
0
0
0
0
0
0
0
0
0
0
0
0
0
0
0
0
0
0
0
0
0
0
0
0
0
0
0
0
0
0
0
0
0
0
0
0
0
0
0
0
0
0
0
0
0
0
0
0
0
0
0
0
0
0
0
0
0
0
0
0
0
0
0
0
0
0
0
0
0
0
0
0
0
0
0
0
0
0
0
0
0
0
0
0
0
0
0
0
0
0
0
0
0
0
0
0
0
0
0
0
0
0
0
0
0
0
0
0
0
0
0
0
0
0
0
0
0
0
0
0
0
0
0
0
0
0
0
0
0
0
0
0
0
0
0
0
0
0
0
0
0
0
0.00975062
0.00975062
0.0544397
0.0544397
-0.173359
-0.173359
-0.0871871
-0.0871871
-0.0043011
-0.0043011
-0.0815659
-0.0815659
0.00496658
0.00496658
0.0384723
0.0384723
-0.216692
-0.216692
-0.0269057
-0.0269057
-0.0687031
-0.0687031
-0.105817
-0.105817
-0.186044
-0.186044
0.0478552
0.0478552
-0.0877446
-0.0877446
0.124147
0.124147
-0.0734814
-0.0734814
-0.00514073
-0.00514073
0.0723945
0.0723945
-0.044857
-0.044857
-0.0259685
-0.0259685
-0.108298
-0.108298
-0.428121
-0.428121
-0.0422153
-0.0422153
-0.0545508
-0.0545508
-0.0381549
-0.0381549
-0.0253195
-0.0253195
-0.00732707
-0.00732707
-0.212551
-0.212551
0.0182618
0.0182618
0.0167041
0.0167041
0.0198633
0.0198633
-0.287142
-0.287142
-0.0452613
-0.0452613
-0.320911
-0.320911
-0.0167923
-0.0167923
-0.0659823
-0.0659823
-0.0249736
-0.0249736
0.014988
0.014988
-0.0841403
-0.0841403
-0.0637998
-0.0637998
0.104484
0.104484
-0.0964151
-0.0964151
-0.087351
-0.087351
-0.306536
-0.306536
-0.0835745
-0.0835745
-0.0517847
-0.0517847
-0.0548776
-0.0548776
-0.033643
-0.033643
-0.0348699
-0.0348699
0.153207
0.153207
-0.0494456
-0.0494456
0.0278532
0.0278532
-0.252473
-0.252473
-0.00731175
-0.00731175
-0.0256974
-0.0256974
-0.12622
-0.12622
-0.157925
-0.157925
-0.0109372
-0.0109372
-0.0327114
-0.0327114
-0.121932
-0.121932
0.0901142
0.0901142
0.00144522
0.00144522
-0.12069
-0.12069
-0.0898194
-0.0898194
-0.0890025
-0.0890025
-0.0907802
-0.0907802
0.0850131
0.0850131
0.118689
0.118689
-0.197824
-0.197824
-0.135028
-0.135028
-0.0444035
-0.0444035
-0.327862
-0.327862
0.0797901
0.0797901
-0.166078
-0.166078
-0.000379089
-0.000379089
-0.0496811
-0.0496811
-0.00605127
-0.00605127
-0.123439
-0.123439
-0.092474
-0.092474
-0.212653
-0.212653
0.0200235
0.0200235
-0.112516
-0.112516
-0.300082
-0.300082
-0.188061
-0.188061
-0.151534
-0.151534
-0.0423485
-0.0423485
-0.0147167
-0.0147167
0.0431952
0.0431952
-0.00923935
-0.00923935
-0.0425549
-0.0425549
-0.00159487
-0.00159487
0.0786738
0.0786738
-0.159161
-0.159161
-0.253081
-0.253081
-0.0186626
-0.0186626
0.011861
0.011861
-0.064728
-0.064728
-0.395929
-0.395929
-0.0868651
-0.0868651
-0.00218002
-0.00218002
-0.109015
-0.109015
-0.0441518
-0.0441518
-0.087619
-0.087619
-0.0162012
-0.0162012
0.015744
0.015744
-0.297059
-0.297059
-0.0727139
-0.0727139
-0.0503146
-0.0503146
-0.0585483
-0.0585483
-0.184067
-0.184067
0.146726
0.146726
0.0960817
0.0960817
0.021776
0.021776
0.0729188
0.0729188
-0.0175034
-0.0175034
-0.00819154
-0.00819154
-0.128498
-0.128498
-0.203112
-0.203112
0.0211234
0.0211234
-0.00968356
-0.00968356
-0.0382403
-0.0382403
0.022515
0.022515
-0.0671248
-0.0671248
-0.102932
-0.102932
-0.238058
-0.238058
-0.00914417
-0.00914417
-0.00986932
-0.00986932
0.00607003
0.00607003
-0.306555
-0.306555
-0.156538
-0.156538
0.0524397
0.0524397
0.00767564
0.00767564
-0.0430107
-0.0430107
0.0895133
0.0895133
-0.053837
-0.053837
-0.0118963
-0.0118963
-0.116743
-0.116743
-0.133433
-0.133433
-0.0474489
-0.0474489
-0.013927
-0.013927
-0.0672702
-0.0672702
-0.0129784
-0.0129784
-0.0312413
-0.0312413
-0.0225238
-0.0225238
-0.0164385
-0.0164385
-0.0442879
-0.0442879
0.0251884
0.0251884
-0.0399828
-0.0399828
-0.130816
-0.130816
-0.0248651
-0.0248651
-0.0162881
-0.0162881
0.0366857
0.0366857
-0.252626
-0.252626
-0.2175
-0.2175
-0.601785
-0.601785
-0.296211
-0.296211
-0.224936
-0.224936
0.0038325
0.0038325
-0.0388898
-0.0388898
-0.114636
-0.114636
0.0811639
0.0811639
-0.0555463
-0.0555463
0.0577875
0.0577875
-0.0114921
-0.0114921
-0.074954
-0.074954
-0.122815
-0.122815
0.0425496
0.0425496
-0.099367
-0.099367
-0.0598468
-0.0598468
-0.0456653
-0.0456653
-0.143213
-0.143213
-0.137432
-0.137432
-0.0181288
-0.0181288
0.0085869
0.0085869
-0.0848204
-0.0848204
-0.0217314
-0.0217314
-0.114728
-0.114728
-0.103842
-0.103842
-0.14
-0.14
-0.0180107
-0.0180107
-0.0253889
-0.0253889
-0.00217393
-0.00217393
-0.267443
-0.267443
-0.150371
-0.150371
-0.304304
-0.304304
-0.0133325
-0.0133325
-0.0156197
-0.0156197
0.0552172
0.0552172
0.0259838
0.0259838
0.0614991
0.0614991
0.10829
0.10829
-0.0930175
-0.0930175
-0.103722
-0.103722
0.00566636
0.00566636
-0.0317507
-0.0317507
-0.00106554
-0.00106554
-0.0249643
-0.0249643
-0.0652908
-0.0652908
0.0309834
0.0309834
-0.0385053
-0.0385053
-0.203821
-0.203821
-0.0167295
-0.0167295
0.0707567
0.0707567
-0.031609
-0.031609
-0.4086
-0.4086
0.0693332
0.0693332
0.0182508
0.0182508
-0.0298172
-0.0298172
-0.154774
-0.154774
-0.00435888
-0.00435888
-0.0269225
-0.0269225
-0.17475
-0.17475
-0.0818234
-0.0818234
0.0683465
0.0683465
-0.0405326
-0.0405326
-0.0785754
-0.0785754
-0.194817
-0.194817
0.115258
0.115258
0.114683
0.114683
-0.00303546
-0.00303546
-0.23852
-0.23852
0.0264402
0.0264402
-0.0601784
-0.0601784
-0.0933198
-0.0933198
-0.01832
-0.01832
0.000756884
0.000756884
-0.0246196
-0.0246196
-0.187731
-0.187731
-0.0584927
-0.0584927
-0.0161787
-0.0161787
-0.0171222
-0.0171222
-0.0622705
-0.0622705
-0.243596
-0.243596
0.00736032
0.00736032
-0.0511906
-0.0511906
-0.0747278
-0.0747278
-0.30807
-0.30807
-0.215864
-0.215864
-0.187986
-0.187986
-0.0556337
-0.0556337
-0.0124645
-0.0124645
-0.0106567
-0.0106567
0.12541
0.12541
-0.00532384
-0.00532384
-0.0254085
-0.0254085
-0.0151663
-0.0151663
0.112595
0.112595
-0.221153
-0.221153
-0.0945675
-0.0945675
-0.0163312
-0.0163312
-0.2937
-0.2937
-0.298566
-0.298566
-0.0106806
-0.0106806
-0.331834
-0.331834
-0.00308063
-0.00308063
-0.193107
-0.193107
0.0586223
0.0586223
-0.0294425
-0.0294425
-0.00162803
-0.00162803
-0.0497815
-0.0497815
-0.447855
-0.447855
-0.0582625
-0.0582625
-0.0251866
-0.0251866
-0.0566716
-0.0566716
-0.200036
-0.200036
-0.0924558
-0.0924558
-0.0922759
-0.0922759
0.136657
0.136657
-0.0180528
-0.0180528
-0.226159
-0.226159
-0.0259475
-0.0259475
-0.0117252
-0.0117252
-0.295399
-0.295399
-0.0410578
-0.0410578
-0.237772
-0.237772
-0.0281115
-0.0281115
-0.00711568
-0.00711568
-0.120032
-0.120032
0.0443806
0.0443806
0.00320962
0.00320962
-0.0699945
-0.0699945
-0.0874915
-0.0874915
-0.0632093
-0.0632093
-0.113292
-0.113292
-0.271668
-0.271668
0.0872488
0.0872488
-0.238898
-0.238898
0.0128011
0.0128011
-0.2803
-0.2803
-0.0815443
-0.0815443
-0.113788
-0.113788
-0.0142019
-0.0142019
0.0491972
0.0491972
-0.321965
-0.321965
0.0651328
0.0651328
0.0251599
0.0251599
0.127366
0.127366
-0.271417
-0.271417
-0.0798771
-0.0798771
-0.00486822
-0.00486822
-0.142674
-0.142674
-0.201029
-0.201029
-0.0539584
-0.0539584
-0.246999
-0.246999
-0.0973013
-0.0973013
-0.0281302
-0.0281302
-0.0473314
-0.0473314
0.0515461
0.0515461
-0.223405
-0.223405
0.0863809
0.0863809
-0.0717522
-0.0717522
0.00165382
0.00165382
-0.0893439
-0.0893439
0.0128822
0.0128822
0.047582
0.047582
-0.0824343
-0.0824343
-0.134364
-0.134364
-0.205157
-0.205157
0.0124923
0.0124923
-0.300892
-0.300892
0.0590034
0.0590034
-0.0393804
-0.0393804
-0.119249
-0.119249
-0.192016
-0.192016
-0.264296
-0.264296
-0.243823
-0.243823
-0.0331513
-0.0331513
-0.116578
-0.116578
-0.00150878
-0.00150878
-0.0180774
-0.0180774
-0.329619
-0.329619
-0.0332591
-0.0332591
0.105994
0.105994
0.0494292
0.0494292
-0.0390044
-0.0390044
-0.00288059
-0.00288059
0.00275065
0.00275065
0.000226739
0.000226739
-0.0939732
-0.0939732
-0.0901903
-0.0901903
0.0224799
0.0224799
-0.0171265
-0.0171265
-0.135635
-0.135635
0.0311472
0.0311472
-0.074183
-0.074183
-0.0462101
-0.0462101
-0.0564858
-0.0564858
-0.0252577
-0.0252577
-0.0228868
-0.0228868
-0.168148
-0.168148
-0.0169697
-0.0169697
0.01069
0.01069
-0.00905406
-0.00905406
0.119123
0.119123
-0.137503
-0.137503
-0.110034
-0.110034
-0.098213
-0.098213
-0.112019
-0.112019
-0.0400412
-0.0400412
-0.169854
-0.169854
-0.18429
-0.18429
-0.0877217
-0.0877217
-0.360301
-0.360301
0.0579249
0.0579249
-0.0246487
-0.0246487
-0.0188374
-0.0188374
0.11654
0.11654
0.0602168
0.0602168
-0.016331
-0.016331
-0.0013526
-0.0013526
-0.0322638
-0.0322638
-0.0338364
-0.0338364
-0.136051
-0.136051
-0.0896643
-0.0896643
-0.0918482
-0.0918482
-0.0828395
-0.0828395
-0.121497
-0.121497
-0.0280656
-0.0280656
0.03086
0.03086
0.0878702
0.0878702
-0.0575199
-0.0575199
-0.0869672
-0.0869672
-0.0354813
-0.0354813
-0.524693
-0.524693
0.0154805
0.0154805
0.055476
0.055476
-0.273169
-0.273169
0.0660318
0.0660318
-0.0422227
-0.0422227
0.0370295
0.0370295
-0.471436
-0.471436
-0.0586447
-0.0586447
0.0517873
0.0517873
-0.342232
-0.342232
-0.159042
-0.159042
-0.0877584
-0.0877584
-0.338592
-0.338592
-0.0328021
-0.0328021
-0.0317402
-0.0317402
-0.111161
-0.111161
-0.470883
-0.470883
-0.116288
-0.116288
-0.0153735
-0.0153735
-0.0370467
-0.0370467
0.00863797
0.00863797
-0.232757
-0.232757
-0.123191
-0.123191
0.0196907
0.0196907
-0.10431
-0.10431
-0.0406205
-0.0406205
-0.038022
-0.038022
-0.177386
-0.177386
-0.19234
-0.19234
-0.274091
-0.274091
-0.00432467
-0.00432467
-0.0614887
-0.0614887
-0.108045
-0.108045
-0.0572047
-0.0572047
-0.0672919
-0.0672919
0.0068787
0.0068787
-0.0907189
-0.0907189
0.0371134
0.0371134
-0.0662084
-0.0662084
-0.0514097
-0.0514097
-0.0211882
-0.0211882
0.0659893
0.0659893
-0.148466
-0.148466
-0.19059
-0.19059
-0.0186691
-0.0186691
-0.216324
-0.216324
-0.0512334
-0.0512334
-0.34009
-0.34009
-0.562758
-0.562758
0.0341576
0.0341576
0.063742
0.063742
0.0329669
0.0329669
-0.134911
-0.134911
0.00172885
0.00172885
-0.00784038
-0.00784038
-0.230597
-0.230597
-0.014943
-0.014943
-0.0176947
-0.0176947
0.00906851
0.00906851
-0.0110157
-0.0110157
-0.134452
-0.134452
-0.374296
-0.374296
-0.00773953
-0.00773953
-0.000820982
-0.000820982
-0.0398591
-0.0398591
-0.0427102
-0.0427102
-0.281593
-0.281593
-0.0138036
-0.0138036
-0.214221
-0.214221
0.0112833
0.0112833
-0.09944
-0.09944
-0.0657973
-0.0657973
0.0384606
0.0384606
-0.0572761
-0.0572761
0.0228572
0.0228572
0.0192363
0.0192363
-0.0518464
-0.0518464
-0.0109937
-0.0109937
-0.0715159
-0.0715159
-0.0790885
-0.0790885
-0.0242654
-0.0242654
0.0651119
0.0651119
-0.0580036
-0.0580036
-0.0926613
-0.0926613
0.0631931
0.0631931
-0.0130705
-0.0130705
-0.165601
-0.165601
-0.00660263
-0.00660263
-0.107046
-0.107046
-0.321202
-0.321202
-0.0416155
-0.0416155
-0.0802421
-0.0802421
-0.139249
-0.139249
0.0954409
0.0954409
0.0358976
0.0358976
-0.0770248
-0.0770248
0.0235835
0.0235835
-0.00996264
-0.00996264
-0.0876043
-0.0876043
-0.0737448
-0.0737448
-0.069908
-0.069908
-0.0170443
-0.0170443
0.000700463
0.000700463
-0.0623569
-0.0623569
-0.0655407
-0.0655407
-0.0217358
-0.0217358
-0.0435842
-0.0435842
-0.466469
-0.466469
-0.0154199
-0.0154199
-0.0559406
-0.0559406
-0.0713244
-0.0713244
-0.0308695
-0.0308695
0.0342092
0.0342092
-0.0402049
-0.0402049
-0.0682434
-0.0682434
0.0315717
0.0315717
0.0111901
0.0111901
-0.109587
-0.109587
-0.0824609
-0.0824609
-0.210169
-0.210169
-0.0324015
-0.0324015
0.00842514
0.00842514
-0.0274505
-0.0274505
-0.0224589
-0.0224589
-0.1264
-0.1264
-0.0153638
-0.0153638
-0.0445478
-0.0445478
-0.0423239
-0.0423239
-0.2379
-0.2379
-0.0273151
-0.0273151
-0.0263617
-0.0263617
-0.0631285
-0.0631285
-0.198721
-0.198721
-0.00605193
-0.00605193
-0.22397
-0.22397
-0.00683626
-0.00683626
-0.288946
-0.288946
-0.239046
-0.239046
-6.36019e-07
-6.36019e-07
0.0603161
0.0603161
0.0190031
0.0190031
-0.176052
-0.176052
-0.00536724
-0.00536724
-0.0549764
-0.0549764
-0.273163
-0.273163
0.0786676
0.0786676
-0.173297
-0.173297
-0.0616151
-0.0616151
-0.162001
-0.162001
-0.227098
-0.227098
0.0990037
0.0990037
-0.0352618
-0.0352618
-0.0905178
-0.0905178
-0.0197988
-0.0197988
-0.0977
-0.0977
-0.0220777
-0.0220777
-0.0296286
-0.0296286
-0.0620226
-0.0620226
-0.165739
-0.165739
-0.108099
-0.108099
0.0108845
0.0108845
-0.184994
-0.184994
-0.0783009
-0.0783009
-0.0925926
-0.0925926
-0.143099
-0.143099
-0.181451
-0.181451
-0.113455
-0.113455
0.0376807
0.0376807
-0.422768
-0.422768
0.0219312
0.0219312
-0.105839
-0.105839
-0.047454
-0.047454
-0.264602
-0.264602
-0.153385
-0.153385
0.0799485
0.0799485
-0.136392
-0.136392
-0.200553
-0.200553
-0.0598615
-0.0598615
-0.174202
-0.174202
-0.282462
-0.282462
0.0866427
0.0866427
-0.0647616
-0.0647616
-0.000881418
-0.000881418
-0.0211235
-0.0211235
-0.242712
-0.242712
-0.232777
-0.232777
-0.011807
-0.011807
-0.0696109
-0.0696109
0.0440995
0.0440995
-0.168242
-0.168242
-0.0113948
-0.0113948
-0.38267
-0.38267
-0.275809
-0.275809
-0.0418459
-0.0418459
-0.0419032
-0.0419032
-0.23005
-0.23005
-0.0917653
-0.0917653
0.13751
0.13751
-0.193699
-0.193699
0.128227
0.128227
-0.0533206
-0.0533206
-0.0502544
-0.0502544
-0.222574
-0.222574
-0.0295458
-0.0295458
-0.0083017
-0.0083017
-0.0449161
-0.0449161
-0.0642311
-0.0642311
-0.0523015
-0.0523015
-0.0526894
-0.0526894
0.00188553
0.00188553
-0.0331243
-0.0331243
-0.139853
-0.139853
-0.0449774
-0.0449774
-0.0586994
-0.0586994
-0.0396372
-0.0396372
-0.0188818
-0.0188818
-0.0701216
-0.0701216
0.0249558
0.0249558
-0.0467631
-0.0467631
0.00780134
0.00780134
-0.0277174
-0.0277174
-0.306723
-0.306723
-0.0569042
-0.0569042
-0.0893174
-0.0893174
0.050972
0.050972
-0.0257631
-0.0257631
0.0184351
0.0184351
-0.0495108
-0.0495108
-0.24504
-0.24504
-0.0177101
-0.0177101
-0.204327
-0.204327
-0.0442315
-0.0442315
-0.00887327
-0.00887327
-0.0538711
-0.0538711
-0.051826
-0.051826
-0.0509495
-0.0509495
-0.0664784
-0.0664784
-0.10577
-0.10577
0.103645
0.103645
0.00344964
0.00344964
-0.0091516
-0.0091516
-0.104909
-0.104909
0.0632011
0.0632011
-0.0289586
-0.0289586
-0.0161964
-0.0161964
-0.0578422
-0.0578422
-0.0493329
-0.0493329
-0.00842387
-0.00842387
-0.0364199
-0.0364199
-0.00112018
-0.00112018
-0.019513
-0.019513
-0.0717082
-0.0717082
0.0136258
0.0136258
-0.131499
-0.131499
-0.0649485
-0.0649485
0.132607
0.132607
-0.0172253
-0.0172253
0.0415023
0.0415023
-0.042124
-0.042124
-0.361764
-0.361764
-0.305731
-0.305731
-0.129518
-0.129518
0.0801299
0.0801299
-0.202054
-0.202054
-0.00460898
-0.00460898
-0.0218229
-0.0218229
-0.0238862
-0.0238862
-0.00680508
-0.00680508
-0.0547029
-0.0547029
-0.068831
-0.068831
-0.0207912
-0.0207912
-0.0984169
-0.0984169
-0.452863
-0.452863
-0.0337863
-0.0337863
-0.0530283
-0.0530283
-0.034629
-0.034629
-0.121759
-0.121759
0.0379777
0.0379777
-0.201847
-0.201847
-0.00985429
-0.00985429
0.0592475
0.0592475
-0.0101362
-0.0101362
-0.0245998
-0.0245998
-0.315419
-0.315419
-0.314989
-0.314989
-0.275737
-0.275737
-0.00462276
-0.00462276
0.0129246
0.0129246
-0.0592863
-0.0592863
-0.01304
-0.01304
-0.0208138
-0.0208138
-0.0248429
-0.0248429
-0.0111614
-0.0111614
0.0752706
0.0752706
-0.338033
-0.338033
-0.0200346
-0.0200346
-0.00227095
-0.00227095
-0.0109642
-0.0109642
-0.0285771
-0.0285771
-0.0173854
-0.0173854
0.0260283
0.0260283
-0.188763
-0.188763
-0.0398003
-0.0398003
-0.105415
-0.105415
-0.204749
-0.204749
-0.0694452
-0.0694452
-0.274397
-0.274397
-0.0916133
-0.0916133
-0.0869308
-0.0869308
-0.00692209
-0.00692209
-0.0323373
-0.0323373
0.0735631
0.0735631
0.107162
0.107162
-0.0223859
-0.0223859
-0.0117056
-0.0117056
0.024062
0.024062
-0.142083
-0.142083
-0.0134129
-0.0134129
0.0528955
0.0528955
-0.0529212
-0.0529212
-0.00067624
-0.00067624
-0.0199549
-0.0199549
-0.0279382
-0.0279382
-0.26248
-0.26248
0.105436
0.105436
-0.0134709
-0.0134709
-0.0973456
-0.0973456
-0.143832
-0.143832
-0.158796
-0.158796
-0.0202259
-0.0202259
-0.0129922
-0.0129922
-0.194733
-0.194733
0.0273167
0.0273167
-0.260288
-0.260288
-0.341415
-0.341415
0.026804
0.026804
-0.0216095
-0.0216095
-0.241531
-0.241531
-0.0461944
-0.0461944
-0.0614917
-0.0614917
-0.101366
-0.101366
-0.0319861
-0.0319861
0.0561946
0.0561946
-0.227063
-0.227063
-0.0875341
-0.0875341
0.0351514
0.0351514
-0.197823
-0.197823
-0.052773
-0.052773
-0.0454691
-0.0454691
-0.0201214
-0.0201214
-0.0178477
-0.0178477
-0.06422
-0.06422
-0.117062
-0.117062
-0.0224398
-0.0224398
0.0607154
0.0607154
-0.555338
-0.555338
0.00742191
0.00742191
-0.0275566
-0.0275566
-0.0798046
-0.0798046
0.0347375
0.0347375
-0.0769331
-0.0769331
-0.037313
-0.037313
-0.0526731
-0.0526731
-0.00713165
-0.00713165
0.0164856
0.0164856
0.0102752
0.0102752
0.0193617
0.0193617
-0.27824
-0.27824
-0.0758794
-0.0758794
0.010698
0.010698
0.0738818
0.0738818
0.0153454
0.0153454
0.0700856
0.0700856
-0.0335997
-0.0335997
0.0174783
0.0174783
-0.0358125
-0.0358125
-0.0379003
-0.0379003
-0.475745
-0.475745
0.0262845
0.0262845
-0.399122
-0.399122
0.0673057
0.0673057
0.00443265
0.00443265
-0.0741969
-0.0741969
-0.039768
-0.039768
-0.126954
-0.126954
-0.143557
-0.143557
-0.0462719
-0.0462719
-0.00618216
-0.00618216
0.0729715
0.0729715
-0.167697
-0.167697
-0.04289
-0.04289
-0.0359648
-0.0359648
0.101447
0.101447
0.00203544
0.00203544
-0.00929895
-0.00929895
0.00164254
0.00164254
-0.0155558
-0.0155558
-0.10512
-0.10512
-0.224815
-0.224815
-0.258815
-0.258815
-0.0382851
-0.0382851
0.0544168
0.0544168
-0.262755
-0.262755
-0.101797
-0.101797
0.0982598
0.0982598
-0.011915
-0.011915
0.00208014
0.00208014
-0.0730514
-0.0730514
-0.0596154
-0.0596154
-0.0160537
-0.0160537
-0.251542
-0.251542
0.153733
0.153733
-0.179292
-0.179292
-0.016238
-0.016238
-0.0772537
-0.0772537
-0.330909
-0.330909
0.0141498
0.0141498
-0.0636503
-0.0636503
-0.289896
-0.289896
0.109506
0.109506
-0.00781825
-0.00781825
0.0157188
0.0157188
-0.0459195
-0.0459195
0.061692
0.061692
-0.00419514
-0.00419514
-0.0120185
-0.0120185
-0.0854684
-0.0854684
-0.139076
-0.139076
-0.42743
-0.42743
-0.331827
-0.331827
0.0396873
0.0396873
-0.31543
-0.31543
-0.0606087
-0.0606087
-0.0301293
-0.0301293
0.00374003
0.00374003
-0.0982374
-0.0982374
0.0230986
0.0230986
-0.0119178
-0.0119178
0.0207355
0.0207355
-0.0104792
-0.0104792
0.000708415
0.000708415
-0.0860674
-0.0860674
-0.0523142
-0.0523142
-0.0112454
-0.0112454
-0.168642
-0.168642
0.0078273
0.0078273
-0.0633217
-0.0633217
-0.0732599
-0.0732599
0.0536841
0.0536841
-0.0851308
-0.0851308
-0.0392894
-0.0392894
0.0848145
0.0848145
0.0217389
0.0217389
0.0788141
0.0788141
-0.101749
-0.101749
-0.00420653
-0.00420653
-0.211828
-0.211828
-0.06512
-0.06512
-0.315989
-0.315989
-0.172432
-0.172432
-0.316344
-0.316344
-0.0249164
-0.0249164
-0.218868
-0.218868
0.00773834
0.00773834
-0.0578188
-0.0578188
-0.277397
-0.277397
-0.316337
-0.316337
0.0469115
0.0469115
-0.0627788
-0.0627788
0.0581206
0.0581206
0.0754863
0.0754863
-0.116055
-0.116055
-0.295218
-0.295218
-0.00985839
-0.00985839
0.0247377
0.0247377
0.0189375
0.0189375
0.0567032
0.0567032
-0.156317
-0.156317
-0.0579086
-0.0579086
0.0064522
0.0064522
-0.0586462
-0.0586462
-0.0649852
-0.0649852
-0.0800836
-0.0800836
0.0314812
0.0314812
-0.174373
-0.174373
-0.0208617
-0.0208617
-0.0182724
-0.0182724
-0.0385796
-0.0385796
-0.0563799
-0.0563799
-0.0160567
-0.0160567
-0.191195
-0.191195
-0.272678
-0.272678
-0.0413456
-0.0413456
-0.00947916
-0.00947916
-0.0614534
-0.0614534
0.012478
0.012478
-0.282045
-0.282045
-0.00362164
-0.00362164
0.079795
0.079795
-0.343131
-0.343131
-0.00728721
-0.00728721
-0.0874583
-0.0874583
-0.0966078
-0.0966078
-0.209332
-0.209332
-0.0488217
-0.0488217
-0.053298
-0.053298
-0.00648709
-0.00648709
-0.24144
-0.24144
-0.0612554
-0.0612554
-0.162655
-0.162655
0.00710048
0.00710048
-0.0236775
-0.0236775
0.0283298
0.0283298
0.0402484
0.0402484
-0.115959
-0.115959
0.00792945
0.00792945
0.00933879
0.00933879
0.00621607
0.00621607
0.00199104
0.00199104
-0.0104139
-0.0104139
-0.0672679
-0.0672679
-0.0679873
-0.0679873
-0.141585
-0.141585
-0.0212485
-0.0212485
0.0655402
0.0655402
-0.0745765
-0.0745765
-0.220308
-0.220308
0.0499989
0.0499989
-0.0728125
-0.0728125
-0.0241066
-0.0241066
-0.067076
-0.067076
-0.049359
-0.049359
-0.039535
-0.039535
-0.0209791
-0.0209791
-0.183703
-0.183703
-0.0240745
-0.0240745
-0.039834
-0.039834
-0.0388635
-0.0388635
-0.229333
-0.229333
-0.374686
-0.374686
-0.0477712
-0.0477712
-0.0247498
-0.0247498
-0.236677
-0.236677
-0.0541078
-0.0541078
-0.0239997
-0.0239997
-0.153387
-0.153387
-0.164782
-0.164782
-0.0686097
-0.0686097
-0.015637
-0.015637
-0.129635
-0.129635
0.0217718
0.0217718
0.0445955
0.0445955
0.00424621
0.00424621
-0.0136351
-0.0136351
-0.045819
-0.045819
0.0443889
0.0443889
0.117318
0.117318
-0.237259
-0.237259
-0.0327015
-0.0327015
-0.0464374
-0.0464374
-0.101171
-0.101171
-0.072378
-0.072378
0.0267959
0.0267959
-0.0841692
-0.0841692
0.0452056
0.0452056
-0.194121
-0.194121
-0.274873
-0.274873
0.131203
0.131203
-0.221554
-0.221554
-0.267349
-0.267349
-0.175888
-0.175888
-0.0935239
-0.0935239
-0.0336606
-0.0336606
-0.0349006
-0.0349006
-0.133984
-0.133984
-0.0934045
-0.0934045
0.00276868
0.00276868
-0.0321996
-0.0321996
-0.0137781
-0.0137781
0.0297978
0.0297978
-0.0886865
-0.0886865
-0.194197
-0.194197
-0.407693
-0.407693
-0.280839
-0.280839
-0.158392
-0.158392
-0.108752
-0.108752
-0.481786
-0.481786
-0.0223879
-0.0223879
-0.208031
-0.208031
0.0491646
0.0491646
-0.00678197
-0.00678197
-0.280272
-0.280272
-0.0929243
-0.0929243
-0.0800444
-0.0800444
-0.214784
-0.214784
-0.0171688
-0.0171688
-0.0303851
-0.0303851
-0.0178488
-0.0178488
-0.0417895
-0.0417895
-0.211025
-0.211025
-0.0263288
-0.0263288
-0.0208637
-0.0208637
-0.0186527
-0.0186527
-0.00406829
-0.00406829
-0.15793
-0.15793
-0.00917168
-0.00917168
-0.289493
-0.289493
-0.477854
-0.477854
-0.0489694
-0.0489694
0.0410427
0.0410427
-0.0879616
-0.0879616
-0.0911158
-0.0911158
-0.0332547
-0.0332547
-0.120076
-0.120076
0.0227819
0.0227819
-0.0214528
-0.0214528
-0.0161136
-0.0161136
-0.0130613
-0.0130613
-0.0113642
-0.0113642
-0.0088625
-0.0088625
-0.00695083
-0.00695083
-0.00511055
-0.00511055
-0.003443
-0.003443
-0.00205601
-0.00205601
-0.000657542
-0.000657542
0.000517542
0.000517542
0.00155992
0.00155992
0.00257603
0.00257603
0.00320438
0.00320438
0.00377785
0.00377785
0.00431189
0.00431189
0.00451055
0.00451055
0.00469185
0.00469185
0.00457926
0.00457926
0.00454813
0.00454813
0.00414287
0.00414287
0.00353548
0.00353548
0.00308189
0.00308189
0.00224766
0.00224766
0.00133168
0.00133168
5.64506e-05
5.64506e-05
-0.00101498
-0.00101498
-0.00217389
-0.00217389
-0.0040176
-0.0040176
-0.00550672
-0.00550672
-0.00819967
-0.00819967
-0.00973148
-0.00973148
-0.0113902
-0.0113902
-0.0153554
-0.0153554
-0.018346
-0.018346
-0.0193869
-0.0193869
-0.0229973
-0.0229973
-0.0298679
-0.0298679
-0.0328293
-0.0328293
-0.0362482
-0.0362482
-0.0449204
-0.0449204
-0.0531344
-0.0531344
-0.0625837
-0.0625837
-0.0759925
-0.0759925
-0.0993587
-0.0993587
-0.121909
-0.121909
-0.169168
-0.169168
-0.200838
-0.200838
-0.0971037
-0.0971037
0.0135766
0.0135766
-0.0293019
-0.0293019
-0.0440181
-0.0440181
-0.0357027
-0.0357027
-0.0358133
-0.0358133
-0.0334706
-0.0334706
-0.044804
-0.044804
-0.0635599
-0.0635599
-0.0746902
-0.0746902
-0.0864886
-0.0864886
-0.0977204
-0.0977204
-0.105523
-0.105523
-0.107214
-0.107214
-0.104161
-0.104161
-0.0986237
-0.0986237
-0.0903183
-0.0903183
-0.0802552
-0.0802552
-0.0689045
-0.0689045
-0.0584589
-0.0584589
-0.0483627
-0.0483627
-0.0405364
-0.0405364
-0.037189
-0.037189
-0.0338569
-0.0338569
-0.0192926
-0.0192926
-0.0179353
-0.0179353
-0.0155041
-0.0155041
-0.011757
-0.011757
-0.00974968
-0.00974968
-0.00838613
-0.00838613
-0.00548963
-0.00548963
-0.0042318
-0.0042318
-0.00215756
-0.00215756
-0.000987971
-0.000987971
6.25498e-05
6.25498e-05
0.00138193
0.00138193
0.00224357
0.00224357
0.0030624
0.0030624
0.00348826
0.00348826
0.00423206
0.00423206
0.00441252
0.00441252
0.00456552
0.00456552
0.00446928
0.00446928
0.00461597
0.00461597
0.00425056
0.00425056
0.00374026
0.00374026
0.00328972
0.00328972
0.00242424
0.00242424
0.00159854
0.00159854
0.000551351
0.000551351
-0.000699991
-0.000699991
-0.001972
-0.001972
-0.0035368
-0.0035368
-0.00519002
-0.00519002
-0.00713192
-0.00713192
-0.00895369
-0.00895369
-0.0110995
-0.0110995
-0.0133326
-0.0133326
-0.0163708
-0.0163708
-0.0218349
-0.0218349
-0.0332179
-0.0332179
-0.0373166
-0.0373166
-0.0405848
-0.0405848
-0.0485515
-0.0485515
-0.0584334
-0.0584334
-0.0695792
-0.0695792
-0.0813868
-0.0813868
-0.0913644
-0.0913644
-0.0998149
-0.0998149
-0.105321
-0.105321
-0.107452
-0.107452
-0.105477
-0.105477
-0.0993759
-0.0993759
-0.0854649
-0.0854649
-0.0711442
-0.0711442
-0.0565298
-0.0565298
-0.0460182
-0.0460182
-0.0401706
-0.0401706
-0.0316266
-0.0316266
-0.0326728
-0.0326728
-0.034891
-0.034891
-0.0279322
-0.0279322
-0.00771217
-0.00771217
-0.0809563
-0.0809563
-0.18683
-0.18683
-0.183548
-0.183548
-0.133483
-0.133483
-0.0941045
-0.0941045
-0.0800047
-0.0800047
-0.0597912
-0.0597912
-0.0520611
-0.0520611
-0.0470416
-0.0470416
-0.0373332
-0.0373332
-0.0313954
-0.0313954
-0.0294361
-0.0294361
-0.0247111
-0.0247111
      </DataArray> 
    </PointData>
    <CellData>
    </CellData>
  </Piece>
  </UnstructuredGrid>
</VTKFile>
