<?xml version="1.0"?>
<VTKFile type="UnstructuredGrid">
  <UnstructuredGrid>
  <Piece NumberOfPoints="3487"  NumberOfCells="1698">
    <Points>
      <DataArray type="Float64" NumberOfComponents="3" format="ascii">
39.9725 48.5027 0
60.0283 48.5015 0
40.6338 48.6337 0
41.2966 48.7558 0
41.9604 48.8689 0
42.6256 48.973 0
43.2921 49.068 0
43.9596 49.154 0
44.6282 49.231 0
45.2978 49.2989 0
45.9681 49.3577 0
46.6391 49.4075 0
47.3107 49.4483 0
47.9828 49.48 0
48.6552 49.5026 0
49.3279 49.5161 0
50.0007 49.5206 0
50.6734 49.5161 0
51.3461 49.5024 0
52.0185 49.4797 0
52.6905 49.4479 0
53.3621 49.4071 0
54.0331 49.3572 0
54.7034 49.2983 0
55.3729 49.2303 0
56.0415 49.1533 0
56.709 49.0672 0
57.3753 48.9721 0
58.0405 48.868 0
58.7043 48.7548 0
59.3669 48.6326 0
39.9912 49.5192 0
39.9912 49.2652 0
39.988 49.0111 0
39.9816 48.7569 0
19.8604 69.3893 0
39.9879 49.7809 0
39.9812 50.0424 0
39.9654 50.4208 0
39.9424 50.7987 0
39.8965 51.3448 0
39.8356 51.8894 0
39.7209 52.674 0
39.5752 53.4534 0
39.3097 54.5696 0
38.9804 55.669 0
38.7031 56.4515 0
38.3934 57.222 0
38.0519 57.9789 0
37.6793 58.721 0
37.0862 59.766 0
36.4314 60.7736 0
35.7173 61.74 0
-0.071714 49.3211 0
17.2511 69.2058 0
14.6878 68.6843 0
12.2142 67.8337 0
9.87239 66.6683 0
7.70229 65.208 0
11.589 31.4743 0
0.140303 46.5031 0
0.750063 43.7442 0
1.74583 41.0999 0
0 0 0
0.105623 3.69883 0
0.508863 7.38742 0
1.19967 11.0384 0
2.17231 14.6238 0
3.08432 17.2619 0
49.9996 -0.460096 0
5.1116 0 0
10.2232 0 0
15.3348 0 0
100 0 0
57.4152 -0.445812 0
64.8309 -0.393629 0
72.2365 -0.283854 0
88.412 31.4732 0
99.8945 3.69885 0
99.4914 7.38718 0
98.8006 11.0381 0
97.828 14.6235 0
96.916 17.2615 0
100.072 49.3206 0
99.8599 46.5026 0
99.2502 43.7437 0
98.2544 41.0993 0
80.1395 69.3885 0
99.9106 51.9309 0
99.4087 54.4979 0
98.5754 56.9771 0
97.4252 59.3263 0
95.9781 61.5051 0
60.0093 49.518 0
77.6283 69.2433 0
75.1551 68.785 0
72.7586 68.0208 0
70.4766 66.9625 0
68.9857 66.068 0
67.5779 65.0476 0
66.2639 63.909 0
65.0536 62.6606 0
64.2828 61.7389 0
63.5687 60.7725 0
62.9139 59.7649 0
62.3209 58.7199 0
61.6068 57.2209 0
61.0198 55.6678 0
60.6906 54.5686 0
60.4251 53.4522 0
60.2794 52.6728 0
60.0093 49.2639 0
60.0126 49.0098 0
60.019 48.7557 0
52.813 29.7812 0
26.5558 36.6052 0
40.3539 23.9183 0
24.9722 22.2413 0
71.8982 22.2547 0
72.6998 43.6395 0
54.7922 23.7351 0
15.2763 47.0588 0
38.3558 49.1268 0
23.5232 64.8768 0
7.67301 7.69985 0
91.9682 7.67745 0
29.1233 56.5503 0
37.1685 51.5937 0
28.0838 46.8776 0
29.721 47.8394 0
71.518 46.3636 0
30.9774 48.7383 0
70.5217 47.84 0
31.6392 45.333 0
30.8851 46.7844 0
70.0655 46.3544 0
68.9788 44.6832 0
31.2779 49.8321 0
30.8854 51.0522 0
28.1756 48.8301 0
45.313 40.9805 0
53.8401 40.6014 0
56.0213 40.1503 0
73.1348 47.1142 0
70.1259 49.0788 0
68.3208 42.1183 0
32.3222 42.4489 0
26.1351 45.3609 0
27.6803 44.37 0
30.3135 43.0042 0
70.4025 42.3153 0
72.6782 45.6297 0
44.853 42.7725 0
51.4296 41.6791 0
55.4056 42.2651 0
32.4422 48.777 0
68.5661 49.3174 0
39.4862 41.763 0
35.4486 43.0755 0
32.8955 46.2313 0
33.5729 47.9777 0
67.1087 47.9209 0
67.9822 46.1599 0
65.0634 42.738 0
60.41 41.4002 0
32.3503 51.0918 0
28.1967 50.685 0
41.7896 36.9886 0
46.8279 37.3924 0
52.0469 39.5642 0
58.668 38.9339 0
26.5802 51.5764 0
24.2779 50.009 0
74.2459 49.6193 0
71.1831 50.3259 0
69.1645 51.9077 0
67.9387 52.0439 0
59.7485 36.0559 0
66.4885 40.3682 0
34.1214 40.7449 0
36.0454 35.4899 0
23.1721 46.8458 0
21.6478 42.9599 0
28.3655 41.4897 0
74.3163 44.3906 0
76.6535 48.2248 0
43.0589 43.3602 0
46.2716 42.6463 0
49.9683 42.694 0
48.4342 42.477 0
51.7623 43.7313 0
54.0862 43.8469 0
52.9047 44.1425 0
56.2688 43.3955 0
33.8736 49.0721 0
33.7687 50.5835 0
66.5545 51.3966 0
66.6054 49.4079 0
41.8371 43.5974 0
40.709 43.3347 0
38.4686 42.9409 0
37.1497 43.5446 0
35.3505 45.2488 0
34.3267 46.5253 0
66.0223 46.2486 0
65.0141 44.9782 0
63.182 43.2277 0
61.6963 42.7799 0
58.8728 43.1946 0
57.5345 43.5112 0
33.3762 51.8045 0
29.1368 53.4029 0
40.8511 30.717 0
50.8841 35.7066 0
55.6583 33.9899 0
23.525 53.1128 0
76.9485 51.5832 0
70.2659 53.0109 0
66.4302 52.6368 0
65.4502 34.8754 0
30.9797 34.2973 0
19.428 46.9585 0
26.145 39.7305 0
71.9728 33.8214 0
72.0399 41.0778 0
77.4902 44.9872 0
43.1705 44.802 0
45.8118 44.4384 0
48.7656 44.5292 0
51.443 45.1575 0
53.7676 45.2731 0
56.2155 45.0934 0
34.8997 49.7844 0
65.0967 49.9999 0
40.8197 44.7763 0
38.3723 45.1167 0
36.029 46.9964 0
64.1395 46.7405 0
61.6451 45.0227 0
58.8206 44.8923 0
36.0491 52.0594 0
34.8943 52.8187 0
33.476 53.3263 0
31.8667 55.1123 0
26.0389 58.5603 0
22.9454 56.9583 0
32.4295 22.448 0
47.0431 26.402 0
63.112 22.7781 0
19.9427 54.6634 0
80.233 53.9294 0
75.8451 55.4461 0
71.9795 55.808 0
69.1272 55.1373 0
65.8015 53.6462 0
64.1241 53.4954 0
68.1209 28.7329 0
26.8138 29.828 0
17.1993 51.3948 0
14.5908 42.1182 0
22.4372 33.7961 0
84.9213 46.5211 0
84.7645 51.6594 0
75.1465 37.6479 0
81.2197 43.6205 0
42.4589 46.1322 0
41.4188 45.9403 0
44.9674 45.9779 0
43.6815 45.8948 0
47.7373 45.9191 0
46.3871 45.8517 0
50.6201 46.2322 0
49.2725 46.1362 0
53.0501 46.6272 0
51.7629 46.6435 0
55.5118 46.2394 0
54.2323 46.3315 0
58.0596 46.1927 0
56.7784 46.3552 0
36.3697 48.318 0
36.0191 49.3179 0
35.914 50.8304 0
63.4031 51.7646 0
63.8426 50.7514 0
63.8938 48.7613 0
63.8397 47.8595 0
40.29 45.677 0
39.3742 45.8558 0
38.0543 46.4586 0
37.3941 47.0413 0
62.8313 46.5887 0
62.0146 46.2656 0
60.528 45.8188 0
59.3987 45.8756 0
38.0403 52.2665 0
36.1486 53.5826 0
34.0322 56.4352 0
29.539 59.487 0
22.8023 61.0116 0
21.7602 15.2499 0
39.9829 15.9504 0
48.9022 11.2183 0
56.9299 16.6729 0
76.6197 15.4746 0
15.5727 56.6939 0
84.5878 57.1275 0
73.4717 59.1421 0
66.5572 55.3026 0
62.4814 53.2715 0
82.9422 7.76614 0
79.7098 22.4043 0
16.3042 7.8508 0
18.3762 22.131 0
10.6839 46.4022 0
16.6086 35.7219 0
15.5717 30.1622 0
89.4523 49.2697 0
83.2628 30.9986 0
81.5621 39.0002 0
41.9295 47.0334 0
44.2566 47.3083 0
46.8936 47.4589 0
49.592 47.6223 0
52.2272 47.702 0
54.7945 47.5936 0
57.356 47.339 0
37.3845 49.364 0
37.9055 51.0364 0
62.1998 50.5261 0
62.585 48.6104 0
39.9728 47.0203 0
38.3961 47.7812 0
38.5088 48.551 0
61.7676 48.2483 0
61.714 47.3856 0
59.7675 47.12 0
38.8765 50.8002 0
61.3606 50.7331 0
39.1763 52.5813 0
38.4394 53.1381 0
38.1421 54.2457 0
36.9874 55.0043 0
36.4749 56.7748 0
34.8192 58.29 0
33.3028 60.1401 0
30.676 62.2386 0
27.9059 64.378 0
27.1853 7.65529 0
38.6621 8.09408 0
59.871 8.3123 0
71.7514 7.72259 0
19.149 64.3073 0
14.8558 62.5616 0
10.6617 59.7642 0
6.21936 56.7108 0
5.94304 50.7837 0
94.2938 51.8782 0
93.3904 56.93 0
89.4122 60.2826 0
84.6642 62.8061 0
79.56 64.4926 0
74.6556 63.5433 0
70.3406 62.2791 0
66.8961 60.8402 0
65.2687 58.1762 0
62.7616 56.8607 0
62.1112 55.3348 0
61.8138 54.2273 0
61.0927 52.4958 0
93.513 14.4753 0
89.7927 20.5898 0
86.0825 24.8759 0
6.2331 14.4698 0
13.0324 24.352 0
9.7914 20.583 0
5.72248 45.2234 0
5.63804 40.287 0
12.3318 34.4421 0
94.2721 46.7667 0
88.1086 36.7651 0
93.3831 42.0515 0
41.0922 47.7987 0
40.431 47.672 0
42.1334 47.9906 0
43.4646 48.1895 0
42.7977 48.099 0
44.7513 48.2727 0
46.0909 48.3994 0
45.4202 48.3451 0
47.4417 48.4669 0
48.786 48.5212 0
48.1135 48.5031 0
50.1339 48.6172 0
51.4791 48.599 0
50.8066 48.6171 0
52.7666 48.5827 0
54.109 48.492 0
53.4384 48.5463 0
55.3891 48.3998 0
56.7249 48.2368 0
56.0581 48.3273 0
58.007 48.0742 0
59.3326 47.839 0
58.6713 47.9656 0
39.3598 51.2541 0
39.3064 51.7993 0
60.9626 51.7139 0
60.9092 51.1687 0
38.0047 50.1275 0
39.1292 49.3147 0
61.8001 49.7191 0
61.8219 49.1508 0
60.9825 49.3574 0
39.5144 47.8504 0
39.1699 47.9684 0
60.9503 47.9257 0
60.4628 47.7818 0
39.4591 50.3446 0
60.5094 50.3616 0
39.4835 49.7049 0
39.4785 49.9665 0
60.4901 49.9835 0
60.4851 49.7219 0
39.637 49.1286 0
39.6274 48.6207 0
39.6354 48.8746 0
60.5066 49.153 0
60.5083 48.899 0
60.5163 48.6452 0
61.0043 48.7888 0
39.2825 48.7385 0
60.9609 49.926 0
38.9758 49.8908 0
60.8973 47.0625 0
39.0564 47.1983 0
62.6395 49.5126 0
37.0335 50.3642 0
61.7605 51.5401 0
38.7772 51.7095 0
58.6377 47.1763 0
56.0744 47.5014 0
53.5146 47.6857 0
50.9398 47.7183 0
48.2442 47.5263 0
45.5429 47.3914 0
42.9701 47.2251 0
40.8889 46.8413 0
89.1809 44.4389 0
10.9134 40.5826 0
13.2799 16.0639 0
85.8793 16.2654 0
63.2027 55.0025 0
68.9684 58.1489 0
79.0091 59.5125 0
89.3514 54.5423 0
11.7174 52.4981 0
19.1679 59.3346 0
66.6865 15.525 0
30.7865 15.2601 0
26.287 61.7953 0
32.1143 57.6684 0
34.9936 54.3416 0
37.3033 52.8235 0
62.5311 47.7083 0
37.7351 48.3636 0
75.9027 28.4425 0
20.5524 28.3591 0
47.9188 19.0217 0
60.1592 44.575 0
63.1318 45.4694 0
37.0524 45.7193 0
39.6913 44.513 0
65.1485 48.0108 0
65.0461 51.9896 0
34.7945 51.2964 0
35.0042 48.2726 0
57.4817 45.209 0
54.9493 44.9775 0
52.5857 45.5688 0
50.3005 44.7463 0
47.2309 44.3122 0
44.3926 44.5645 0
41.9483 45.0392 0
74.3375 42.4018 0
80.2889 48.5551 0
17.991 43.0288 0
21.2832 50.4649 0
34.4698 29.4464 0
59.9666 29.9897 0
67.8144 53.2838 0
73.4307 52.7084 0
54.4563 38.4868 0
46.5148 32.6463 0
26.1955 55.0728 0
31.9577 52.3124 0
69.7449 39.7514 0
30.996 40.1212 0
57.5874 41.8136 0
63.2329 40.9863 0
66.8965 44.4876 0
33.6485 44.7789 0
37.2461 41.3699 0
41.726 42.1558 0
68.0632 50.8043 0
32.7427 49.8712 0
53.2235 42.7163 0
49.6365 40.6419 0
74.2952 46.3801 0
25.732 42.8554 0
71.9744 47.8487 0
26.5382 47.8679 0
69.0693 47.8313 0
32.1415 47.6832 0
71.0619 44.8785 0
29.6287 45.8864 0
29.8128 49.793 0
88.1274 34.126 0
96.892 38.6248 0
91.2862 35.4383 0
92.2324 38.2852 0
96.0814 37.4672 0
88.5053 40.4785 0
3.10822 38.6253 0
11.91 32.913 0
10.0234 34.7377 0
3.91899 37.4677 0
8.32083 37.2116 0
11.7016 36.7583 0
11.4112 22.4692 0
11.0095 26.3035 0
9.38866 24.4256 0
11.9008 28.757 0
4.14662 19.8407 0
5.35582 22.3513 0
8.246 22.6795 0
11.5342 18.321 0
13.1535 20.2093 0
8.01045 17.5305 0
6.96731 20.213 0
5.18738 17.1522 0
6.70721 24.7849 0
7.8134 26.5569 0
4.20185 14.5472 0
9.75441 15.2696 0
87.9384 22.7342 0
90.4036 24.4277 0
88.5482 26.5621 0
91.5464 22.6821 0
95.8536 19.8403 0
94.6443 22.3508 0
87.6783 29.0634 0
85.9838 20.5721 0
87.8374 18.4252 0
91.6547 17.5369 0
94.686 17.1544 0
92.8251 20.2163 0
95.6715 14.5498 0
93.2929 24.7842 0
92.1867 26.5561 0
89.6986 15.3735 0
65.8129 7.9986 0
62.34 3.95526 0
68.2893 3.65592 0
54.9455 3.9169 0
79.5536 0 0
84.6652 0 0
75.652 3.83016 0
69.2166 11.6182 0
63.2781 11.9179 0
32.9224 7.8552 0
31.179 3.62024 0
36.925 3.84797 0
23.8167 3.80241 0
20.4464 0 0
27.7644 -0.28287 0
44.3193 3.80531 0
34.7262 11.6764 0
28.9875 11.4539 0
81.6256 34.8363 0
85.3959 34.3311 0
85.0429 37.8886 0
86.247 31.4069 0
85.0343 41.9429 0
77.2608 33.7748 0
79.9947 30.9673 0
16.1007 32.664 0
14.1314 35.0502 0
13.9589 32.6149 0
14.1684 38.252 0
13.5777 30.8245 0
17.6581 29.811 0
18.7853 32.7611 0
16.5585 27.1498 0
14.1422 28.1107 0
15.7043 23.2389 0
15.8278 19.0964 0
19.4673 25.2414 0
81.5808 27.0781 0
82.8959 23.6381 0
84.8145 28.4895 0
82.7935 19.3318 0
77.8023 25.4189 0
79.7791 11.6155 0
74.1797 11.6101 0
77.3359 7.76188 0
71.6473 15.4964 0
81.2525 3.87619 0
84.4124 12.0136 0
81.2473 15.8718 0
52.9179 13.9422 0
54.3841 9.75624 0
58.397 12.4915 0
49.4497 5.37705 0
61.807 16.0917 0
52.4235 17.8426 0
48.4105 15.1203 0
44.441 13.5803 0
39.3255 12.0222 0
43.7846 9.64788 0
35.3862 15.5984 0
43.9521 17.4818 0
19.0326 11.5481 0
21.7532 7.77367 0
24.4781 11.4648 0
18.3709 3.91796 0
26.2787 15.2539 0
17.5211 15.6583 0
14.7903 11.9551 0
74.6167 33.7981 0
78.74 37.198 0
78.09 40.7739 0
74.7418 40.0243 0
21.4985 31.0761 0
19.3934 36.4729 0
17.0755 39.2701 0
19.7498 40.0754 0
73.9358 31.1298 0
73.5582 35.7357 0
72.4457 38.6988 0
70.8583 36.785 0
68.711 34.3476 0
66.7845 31.8023 0
70.0451 31.2788 0
62.7069 32.4336 0
64.0427 29.3593 0
72.0107 28.5879 0
67.5956 37.315 0
32.726 31.8728 0
35.2583 32.4671 0
33.5128 34.893 0
33.5228 37.8072 0
36.6461 38.4291 0
30.9888 37.2091 0
59.857 33.0224 0
62.5991 35.465 0
64.3414 37.9296 0
61.4894 38.5219 0
57.8124 31.9887 0
57.7029 35.023 0
57.1027 37.2708 0
55.0573 36.2381 0
46.6714 35.0191 0
48.6991 34.176 0
48.8563 36.5495 0
50.2606 38.1741 0
52.6698 37.0966 0
48.2318 39.017 0
38.9176 36.2387 0
38.4495 33.1042 0
41.3207 33.8522 0
37.6609 30.0804 0
43.6829 31.6809 0
44.1531 34.8176 0
39.5193 39.1803 0
44.3088 37.1905 0
46.0708 39.1864 0
43.5198 41.5684 0
47.4748 40.8113 0
43.5509 38.9842 0
41.7581 39.5719 0
90.8773 3.83809 0
87.4575 7.72718 0
86.3746 3.89695 0
88.9301 11.9801 0
89.7768 0 0
94.8884 0 0
95.9939 3.84463 0
96.5079 10.9406 0
92.7435 11.0746 0
95.7303 7.53628 0
91.0052 28.2737 0
90.3841 29.1098 0
4.09046 7.54739 0
6.95008 11.0831 0
3.36545 10.9375 0
10.4705 11.8898 0
8.99507 28.2748 0
9.61598 29.1114 0
3.82684 3.85532 0
13.2493 3.93748 0
11.9865 7.77995 0
8.94341 3.849 0
35.1687 -0.393018 0
42.5841 -0.445361 0
58.9513 23.2534 0
55.8601 20.2038 0
60.0203 19.726 0
51.3558 21.3768 0
64.8977 19.1492 0
61.5382 26.3827 0
57.3785 26.8634 0
67.5027 22.5139 0
70.0072 25.4908 0
65.6151 25.7578 0
73.8999 25.3511 0
69.2908 18.8945 0
78.1661 18.9413 0
75.8013 22.329 0
74.256 18.8582 0
23.368 18.7408 0
21.6763 22.1852 0
20.0666 18.692 0
22.7619 25.3028 0
27.8805 18.7569 0
29.6232 26.1418 0
25.8962 26.032 0
28.703 22.3437 0
23.6841 29.0932 0
31.6089 18.853 0
33.451 25.9461 0
30.6428 29.6369 0
40.6033 27.3179 0
43.6989 25.1581 0
43.948 28.5598 0
44.1366 21.469 0
47.4812 22.7124 0
46.7792 29.5246 0
37.4131 26.6841 0
36.2076 19.2008 0
40.1697 19.9348 0
36.393 23.1798 0
26.6876 33.2163 0
24.4965 35.1996 0
24.6273 31.8138 0
22.6091 38.7445 0
28.8976 32.0606 0
28.7688 35.4521 0
28.7757 38.3618 0
51.8489 32.7436 0
54.2353 31.8855 0
53.2714 34.8479 0
56.3894 29.8843 0
49.6644 31.2131 0
50.9176 25.0664 0
53.8024 26.7582 0
49.9278 28.091 0
6.56532 36.7901 0
6.9787 38.7469 0
5.22229 38.3304 0
9.61526 38.9 0
8.27398 40.4347 0
4.37264 39.456 0
4.81066 36.3717 0
5.7794 35.3432 0
7.56794 35.8014 0
10.8611 35.7506 0
10.0099 36.9849 0
9.17109 35.9721 0
11.3062 38.6684 0
8.42101 34.56 0
11.1763 34.5912 0
12.0157 35.5985 0
11.7431 30.1251 0
10.2554 29.9303 0
11.0754 29.3385 0
12.4645 26.5552 0
10.4463 28.5151 0
10.9111 30.7246 0
89.7448 29.9285 0
88.0456 30.2754 0
88.7146 29.4896 0
89.3438 28.6668 0
86.8827 26.9704 0
89.0902 30.7229 0
85.8203 32.8683 0
87.1809 32.7739 0
86.7607 34.2338 0
87.3292 31.4432 0
88.2727 32.7962 0
88.1189 35.4442 0
86.7523 35.5509 0
84.3241 32.668 0
84.7553 31.2035 0
86.775 39.1842 0
86.77 41.2126 0
85.0396 39.9144 0
88.8438 42.4575 0
87.1086 43.1908 0
83.2981 40.473 0
83.3021 38.4457 0
86.5758 37.33 0
88.308 38.6202 0
79.4424 34.3067 0
78.6271 32.3702 0
80.8071 32.9027 0
76.5793 31.1088 0
77.9485 29.7059 0
81.629 30.9832 0
82.4421 32.9166 0
81.5938 36.9179 0
80.1832 36.0166 0
14.1487 36.6498 0
12.9347 37.5072 0
12.916 35.9058 0
12.5398 39.4172 0
13.2318 34.7479 0
15.3702 35.3871 0
15.3889 36.9887 0
12.9361 32.7684 0
12.7528 31.8762 0
13.7709 31.7194 0
11.749 32.1928 0
12.5842 31.1534 0
14.5744 30.4939 0
14.7692 31.3901 0
13.1472 33.5321 0
12.1204 33.6767 0
16.882 31.2383 0
18.2236 31.2854 0
17.4429 32.7128 0
19.1051 29.0857 0
19.6716 30.5606 0
17.6993 34.2433 0
16.3552 34.1928 0
15.8389 31.4127 0
16.6148 29.9868 0
13.8606 29.4682 0
12.7428 29.7845 0
13.0218 28.4302 0
13.5865 26.2317 0
14.8592 29.1343 0
16.0658 28.6563 0
17.1101 28.4794 0
18.557 27.7531 0
17.4664 24.6413 0
86.2457 28.7725 0
86.9565 30.229 0
85.5292 29.9492 0
84.0358 29.7422 0
85.4485 26.6815 0
82.4201 29.0387 0
80.7847 29.0213 0
80.6459 24.7417 0
78.7401 27.759 0
80.1502 38.1003 0
79.826 39.8871 0
78.415 38.9856 0
76.6172 39.212 0
76.2136 41.5876 0
76.943 37.4231 0
15.6222 38.7623 0
15.8328 40.6945 0
14.3787 40.1838 0
17.5327 41.1485 0
16.2911 42.5746 0
12.7517 41.3525 0
16.8414 37.4952 0
19.5714 38.2737 0
18.4128 39.6732 0
18.2352 37.8728 0
18.8704 41.5523 0
18.0011 36.0978 0
20.9169 35.1358 0
21.001 37.6082 0
20.6986 41.5171 0
21.18 39.4108 0
24.5836 37.676 0
22.5244 36.2701 0
19.8198 42.9952 0
22.1287 40.8523 0
24.1702 40.7988 0
23.6903 42.9082 0
79.6544 42.1982 0
79.3547 44.3042 0
77.7903 42.8799 0
80.7547 46.0866 0
78.8896 46.7714 0
75.9133 43.6952 0
81.3916 41.3093 0
90.3705 39.3847 0
92.8087 40.1675 0
90.9456 41.2635 0
94.5625 38.4516 0
95.1392 40.3389 0
91.2831 43.2469 0
90.1722 37.5233 0
93.2379 35.9002 0
93.7121 37.328 0
91.7604 36.8609 0
95.1896 36.3714 0
89.6996 36.1052 0
92.2338 34.9125 0
94.2212 35.3427 0
89.521 33.4315 0
91.0987 34.0818 0
89.7087 34.7791 0
93.1804 34.3879 0
92.0722 33.5124 0
93.8284 44.4084 0
96.3173 42.8936 0
96.7622 45.255 0
90.9016 32.7235 0
89.681 32.0353 0
97.1728 48.0404 0
91.7276 45.6009 0
10.4993 32.8176 0
10.9642 33.8197 0
9.55643 33.7334 0
6.81969 34.3884 0
7.9279 33.5127 0
5.6788 42.7555 0
3.23557 44.4827 0
3.19327 42.0117 0
2.82428 47.268 0
9.09719 32.7235 0
10.3206 32.0346 0
8.31591 42.8978 0
66.0824 59.5082 0
65.2322 60.806 0
64.4185 59.4739 0
65.9747 61.7501 0
60.1648 51.8881 0
60.1039 51.3436 0
63.7946 58.4477 0
67.1183 58.1622 0
67.932 59.494 0
68.6183 61.5595 0
68.9589 63.6627 0
67.237 62.9436 0
70.4086 64.6202 0
60.058 50.7975 0
60.0351 50.4196 0
69.6546 60.2137 0
77.1079 64.0176 0
77.3568 66.6377 0
74.9054 66.1634 0
79.8499 66.9398 0
60.0193 50.0412 0
60.0126 49.7796 0
72.5655 65.2519 0
76.8316 61.527 0
79.2847 62.0017 0
82.1118 63.649 0
84.9883 65.7438 0
82.4371 66.5868 0
87.3969 64.7354 0
94.2591 63.4767 0
92.2977 65.2073 0
81.8374 61.1585 0
91.4012 58.6063 0
93.8251 60.2021 0
91.8364 61.8782 0
95.4083 58.1269 0
90.1276 66.6676 0
87.7857 67.833 0
89.7701 63.4739 0
89.3819 57.4115 0
91.3714 55.7352 0
93.8422 54.4039 0
96.852 53.1859 0
96.4 55.7133 0
97.1835 50.5988 0
85.3121 68.6836 0
82.7488 69.205 0
91.8229 53.2107 0
6.08086 53.7467 0
3.40498 55.604 0
3.26627 52.6382 0
4.39669 58.0177 0
5.74094 63.4773 0
4.02193 61.5057 0
2.93491 50.0513 0
8.82963 51.6412 0
8.96716 54.6021 0
8.44056 58.2375 0
8.20044 61.6191 0
5.97987 60.0929 0
10.2668 63.2148 0
2.57493 59.3269 0
1.42467 56.9776 0
11.189 56.1292 0
17.0026 63.4342 0
16.9176 66.4947 0
14.7717 65.6219 0
19.5049 66.8475 0
0.591401 54.4984 0
0.0895326 51.9315 0
12.3632 64.6135 0
17.0112 60.9475 0
19.1584 61.8202 0
29.2908 63.3082 0
31.5493 63.6432 0
30.1643 64.7128 0
32.8115 62.4496 0
34.9464 62.6617 0
33.7361 63.91 0
28.7148 65.6704 0
27.0966 63.0863 0
28.4818 62.0166 0
34.061 59.2151 0
35.6255 59.5314 0
34.8673 60.4565 0
36.2494 58.5052 0
32.4221 65.0487 0
31.0143 66.069 0
34.1248 61.4005 0
32.7087 58.904 0
33.4669 57.9789 0
29.5234 66.9635 0
37.0772 57.7477 0
37.4342 56.9982 0
37.7277 56.2218 0
35.7344 55.5578 0
27.2414 68.0217 0
83.5103 34.5852 0
85.2207 36.1086 0
83.3322 36.366 0
91.8739 50.5724 0
91.8628 48.0191 0
94.2834 49.3221 0
89.3171 46.8533 0
89.4021 51.9052 0
15.1188 33.8599 0
14.045 33.8323 0
15.0298 32.64 0
8.31226 48.5901 0
5.83199 48.0033 0
8.20232 45.8133 0
10.7976 43.4908 0
11.2003 49.4494 0
15.3505 27.6299 0
14.7969 25.7475 0
83.1979 27.784 0
83.8288 25.9724 0
67.7628 56.7258 0
65.9128 56.739 0
64.2356 56.5894 0
64.8798 55.1523 0
74.0638 61.3422 0
72.4981 62.911 0
71.9057 60.7099 0
71.2199 58.6454 0
76.2403 59.3271 0
87.0007 58.704 0
87.038 61.5442 0
84.626 59.9657 0
81.798 58.3198 0
86.9695 55.8351 0
15.214 59.6266 0
12.759 61.1628 0
13.1164 58.2281 0
13.6453 54.5961 0
17.3706 58.0141 0
31.4211 59.8132 0
31.9894 61.1893 0
30.1076 60.8624 0
27.9128 60.6411 0
30.8266 58.5777 0
35.2537 56.6048 0
35.6471 57.5324 0
34.4258 57.3624 0
33.0733 57.0518 0
34.513 55.3884 0
77.9992 35.4871 0
76.2035 35.7106 0
84.8432 49.0891 0
87.1877 47.8948 0
87.1084 50.4654 0
87.0514 45.4815 0
87.0587 53.1001 0
82.5272 50.1073 0
82.6049 47.5389 0
19.0902 34.6168 0
20.611 33.2783 0
69.0477 56.6428 0
67.8421 55.2198 0
67.1857 54.2929 0
68.4708 54.2106 0
73.9121 55.627 0
74.658 57.2934 0
72.7257 57.4749 0
77.4274 57.4789 0
70.4736 56.9779 0
72.7049 54.2577 0
74.6379 54.0772 0
82.4985 52.7947 0
84.6762 54.3924 0
82.411 55.528 0
79.6209 56.7198 0
80.2612 51.2411 0
18.5713 53.0288 0
17.7573 55.6785 0
16.3855 54.0431 0
19.5551 56.9982 0
14.4579 51.9466 0
19.2412 50.9303 0
20.6127 52.5636 0
24.4924 57.7591 0
24.4204 59.7859 0
22.8738 58.9844 0
26.163 60.1775 0
24.5448 61.4033 0
20.9853 60.1729 0
21.0564 58.1463 0
24.5704 56.0156 0
26.1172 56.8162 0
31.9906 56.3901 0
32.9496 55.7734 0
33.4303 54.7269 0
31.9123 53.7122 0
84.9785 44.2308 0
83.0708 45.0713 0
83.1268 42.7828 0
71.1227 54.4094 0
70.5533 55.4726 0
69.6964 54.0738 0
69.0401 53.1472 0
71.8482 52.8596 0
78.5909 52.7564 0
78.0387 54.6877 0
76.3967 53.514 0
75.1894 52.1457 0
78.6185 50.0688 0
23.2352 55.0351 0
21.4443 55.8106 0
21.7338 53.8882 0
22.4042 51.7885 0
24.8604 54.0925 0
78.471 48.3904 0
77.0719 46.6055 0
75.8926 45.6835 0
75.4742 47.3027 0
22.4098 44.9021 0
21.3003 46.9027 0
20.5378 44.9593 0
22.2276 48.6553 0
20.3556 48.7112 0
18.7093 44.9929 0
24.4525 44.8512 0
72.3068 51.5173 0
70.7244 51.6681 0
69.623 50.565 0
71.5787 49.087 0
75.4496 48.9219 0
76.801 49.9037 0
75.5972 50.6014 0
73.8382 51.1634 0
74.2705 47.9994 0
25.4291 50.7925 0
25.0526 52.3448 0
23.9014 51.5607 0
26.3879 53.3243 0
22.7806 50.2372 0
25.4081 48.9386 0
26.5593 49.7218 0
27.6662 54.238 0
27.8587 52.4893 0
29.475 51.5978 0
30.5474 52.8578 0
23.725 48.4269 0
24.8553 47.3569 0
72.7143 49.9725 0
73.11 48.7342 0
27.581 57.5553 0
29.3312 58.0183 0
27.7892 59.0234 0
30.619 57.109 0
27.6596 55.8113 0
30.502 54.2572 0
30.495 55.8313 0
29.1301 54.9763 0
23.1628 62.9437 0
21.3363 64.5918 0
20.9752 62.659 0
21.6912 67.1323 0
24.9048 63.3358 0
26.3749 66.5815 0
24.1842 66.8308 0
25.7146 64.6271 0
24.8449 68.7859 0
22.3716 69.2442 0
14.933 44.5873 0
12.9798 46.7316 0
12.636 44.2585 0
13.4957 49.7765 0
16.6331 45.0433 0
18.3132 49.176 0
16.2379 49.2263 0
17.3522 47.0095 0
58.4004 8.00984 0
59.9994 9.9328 0
79.5161 20.1029 0
77.0175 20.2837 0
69.2266 13.7769 0
67.5727 15.6294 0
37.2026 13.129 0
34.8575 12.2869 0
72.2277 44.265 0
70.3885 42.5723 0
36.7292 21.8549 0
37.327 24.2744 0
46.0459 7.98527 0
45.1614 10.3241 0
1.81856 10.3841 0
4.0262 9.20312 0
16.1339 3.96741 0
14.3548 2.24069 0
37.8197 13.1973 0
37.7816 10.7002 0
72.3026 1.01608 0
69.8366 1.38409 0
65.3453 24.8501 0
65.8021 22.4026 0
17.0808 0.161817 0
19.096 1.611 0
30.7248 0.209841 0
29.0019 2.02757 0
20.1996 28.7678 0
18.0723 27.4706 0
87.2133 22.7541 0
89.6956 23.1378 0
80.4367 11.775 0
79.0213 9.7228 0
53.4917 14.1305 0
52.9654 16.5739 0
79.8512 20.5097 0
77.3451 20.4464 0
95.4376 2.45924 0
96.8531 4.51469 0
40.4195 38.1829 0
38.2128 39.3526 0
34.397 26.865 0
35.0564 29.2657 0
88.3306 30.2877 0
87.7236 27.9049 0
42.4572 31.7139 0
44.3344 30.069 0
26.0929 12.7282 0
26.9248 10.3762 0
40.5669 37.2589 0
42.7949 36.1328 0
65.9018 38.4304 0
67.4328 40.4036 0
21.6853 36.3141 0
24.1767 36.5132 0
87.2991 17.897 0
88.9328 16.0316 0
31.3178 9.78652 0
28.8887 10.3852 0
60.2734 8.07489 0
61.57 10.2142 0
62.4116 9.15696 0
60.9638 7.11649 0
18.7638 6.91795 0
18.1858 9.32193 0
63.0381 43.5805 0
62.3484 45.979 0
84.261 25.6685 0
83.5656 28.0378 0
47.3545 44.0288 0
49.2171 42.3637 0
30.7319 4.62247 0
33.107 5.38212 0
37.1787 2.09502 0
36.8727 -0.383804 0
39.5032 0.329394 0
37.8384 2.19638 0
66.8337 34.2939 0
64.5794 35.356 0
25.2664 21.1668 0
23.6954 23.1037 0
89.1861 30.0456 0
86.9267 28.9525 0
74.269 9.93126 0
76.6506 9.20172 0
80.3403 12.6965 0
81.7443 14.7549 0
81.0829 16.8146 0
80.1651 19.1084 0
78.3998 10.6447 0
79.7458 12.742 0
67.643 27.2712 0
65.1506 27.1561 0
62.4101 24.6757 0
59.9851 24.0896 0
61.7019 24.499 0
62.4713 26.8743 0
69.4896 32.652 0
67.0056 32.4007 0
82.5749 12.4073 0
85.024 12.9774 0
51.4559 17.9323 0
53.5319 19.3167 0
66.9661 15.8019 0
65.1461 14.084 0
20.0485 22.2437 0
20.4992 19.8092 0
53.0578 23.8272 0
52.9499 21.3302 0
62.0614 33.7169 0
64.0256 35.2596 0
67.9191 28.0326 0
69.8825 26.5045 0
27.3829 19.2006 0
25.4522 17.6363 0
43.3791 3.75091 0
43.9076 1.30847 0
90.2387 10.2396 0
88.4386 8.50931 0
67.9444 36.561 0
68.6225 34.1669 0
9.51092 8.16454 0
11.9712 7.67483 0
49.9622 6.34079 0
52.337 7.12241 0
81.1055 29.002 0
83.0505 27.4498 0
43.1525 19.7909 0
45.5413 20.4988 0
72.9883 25.3549 0
75.2121 24.2316 0
59.2947 18.3484 0
57.0525 19.4342 0
94.8462 14.8473 0
92.4236 14.1983 0
8.74388 19.3902 0
11.2081 18.9063 0
17.476 22.606 0
15.8079 20.7694 0
16.9633 36.2532 0
18.1805 34.0843 0
59.7749 41.7442 0
57.585 42.9413 0
84.6004 20.2876 0
84.6433 22.7558 0
9.90284 19.9949 0
7.80193 21.3639 0
16.8762 29.8551 0
15.2517 31.7345 0
46.6495 3.21802 0
48.1049 5.25065 0
57.7778 40.1589 0
55.7423 41.6022 0
67.5007 36.8529 0
69.575 38.2473 0
68.3546 7.38385 0
70.246 5.7671 0
24.8128 8.44575 0
27.2404 9.00499 0
16.1274 15.4236 0
15.225 17.7332 0
96.9974 4.6329 0
94.5251 5.017 0
25.2537 33.662 0
26.0738 31.3118 0
16.82 15.6181 0
17.9512 17.8153 0
86.8961 15.6098 0
88.6096 13.8141 0
26.9989 36.2212 0
28.2699 38.3573 0
45.0635 36.8804 0
42.7698 37.8648 0
26.0083 33.5127 0
28.4848 33.1812 0
70.5279 15.8213 0
72.4972 17.3681 0
49.8259 47.4822 0
50.9703 45.2604 0
82.7552 18.2549 0
81.0744 16.4098 0
12.4011 5.57777 0
9.97409 4.9787 0
18.2959 2.64418 0
20.5317 1.50919 0
98.917 4.25492 0
97.7252 6.43519 0
80.2808 37.2332 0
80.865 34.8273 0
48.5352 3.41248 0
48.4413 0.916015 0
46.0824 5.07951 0
43.9276 6.34937 0
61.0974 37.8657 0
59.0134 39.2354 0
81.1994 11.0386 0
81.7872 8.64774 0
79.2941 30.2926 0
76.9691 31.189 0
52.3963 7.93404 0
50.9322 5.90794 0
25.9241 29.8099 0
23.7915 28.5253 0
94.5768 17.4052 0
96.8606 16.3987 0
29.5936 31.9368 0
31.8985 32.8833 0
65.834 4.24154 0
65.8042 6.73982 0
53.261 1.71737 0
51.4525 3.44563 0
14.5685 9.02184 0
15.0974 6.60754 0
7.21192 18.7859 0
5.01186 17.6132 0
61.2062 40.1482 0
59.8908 42.2686 0
74.2002 7.20106 0
73.7959 4.73962 0
23.6058 30.133 0
23.8463 27.6623 0
78.799 6.84697 0
76.6398 5.55947 0
79.0327 11.2185 0
81.1525 12.5609 0
7.62886 2.52544 0
5.12782 2.59744 0
76.4343 15.8571 0
74.4506 14.3243 0
47.9024 9.15017 0
49.6885 10.897 0
80.0451 2.02188 0
82.5045 1.57735 0
29.1975 29.772 0
27.2451 28.2302 0
70.9553 16.2281 0
71.5101 13.8104 0
4.50256 13.5315 0
6.46115 11.9746 0
40.5449 0.0242928 0
39.5122 2.30002 0
60.4022 12.1981 0
59.8292 14.6278 0
41.2016 3.36267 0
39.1671 4.81911 0
33.6723 29.2749 0
36.1593 29.4558 0
33.2135 20.8008 0
32.9934 18.3204 0
79.5896 15.4562 0
80.1428 17.8709 0
72.6417 34.5277 0
70.5062 33.2294 0
56.7281 8.08284 0
54.3219 7.40796 0
44.5382 8.70859 0
43.2114 10.8281 0
82.563 16.43 0
83.6805 14.2265 0
11.5869 0.311212 0
10.6856 2.62701 0
78.0026 16.026 0
80.0365 17.4883 0
59.4359 2.82475 0
60.7552 4.94912 0
72.3133 1.14401 0
72.2042 3.63756 0
66.8254 2.52648 0
68.1287 0.383131 0
13.323 3.74898 0
15.1466 2.04649 0
71.9455 26.3767 0
74.4009 26.841 0
16.8503 17.3951 0
15.4398 19.4457 0
72.1989 38.1233 0
72.1193 35.6373 0
43.49 20.5765 0
41.231 21.6369 0
57.2493 19.0481 0
57.514 21.5326 0
64.6642 28.598 0
67.1439 28.3341 0
24.6804 31.7107 0
27.0852 31.0317 0
50.1165 28.5757 0
49.1096 30.8607 0
59.7991 36.9719 0
58.5341 34.8181 0
22.4745 28.8971 0
24.8883 28.2522 0
39.7092 35.6903 0
37.2613 36.1769 0
5.8837 10.0279 0
3.85295 11.4901 0
54.795 20.5767 0
56.8239 22.031 0
68.4918 19.4718 0
68.8017 17.0037 0
42.0191 42.4707 0
42.7816 44.8491 0
19.1082 24.407 0
16.9589 25.6809 0
69.2711 4.00207 0
66.9282 3.11994 0
18.7372 12.7391 0
19.4395 10.365 0
97.8457 0.546874 0
97.0398 2.89139 0
21.3119 0.582194 0
21.7844 2.97808 0
13.4319 5.94484 0
14.5727 8.13747 0
94.839 5.78469 0
95.3625 3.36214 0
58.6659 11.4042 0
59.463 13.7741 0
26.745 39.7245 0
25.2422 41.7177 0
62.4121 18.5467 0
64.5172 17.2186 0
9.50878 7.71383 0
11.9264 7.04785 0
44.2892 17.8725 0
41.9066 18.612 0
89.0351 10.7658 0
91.5033 10.3352 0
65.4854 41.3845 0
63.0609 40.7789 0
51.2691 34.1739 0
53.676 33.5251 0
12.7392 8.53357 0
14.7349 10.0198 0
75.0334 18.2811 0
72.5376 18.0783 0
69.1438 26.2267 0
69.5979 28.6754 0
19.5831 11.7143 0
21.8492 12.7566 0
36.9034 39.8111 0
34.499 39.1425 0
29.3393 28.0827 0
30.9536 29.9736 0
12.383 19.4796 0
13.5826 17.3012 0
42.0409 42.9152 0
39.6482 43.6337 0
34.2161 4.96184 0
33.7313 7.41522 0
94.9708 17.003 0
93.8879 14.7587 0
53.7699 26.0496 0
54.3488 28.4795 0
68.276 36.0765 0
67.5054 38.4432 0
71.2289 36.7938 0
69.2909 38.3574 0
30.4874 15.3733 0
32.6431 16.6128 0
62.748 7.85573 0
65.2294 8.14536 0
52.3907 17.0963 0
51.1234 19.2484 0
68.8594 3.46542 0
68.9102 5.96469 0
24.0198 7.64008 0
26.0599 9.04023 0
31.7916 14.4757 0
33.5084 16.2731 0
72.4457 5.87338 0
74.7168 4.90037 0
47.2264 15.0123 0
45.6874 16.9808 0
36.6724 41.5905 0
38.7049 40.1373 0
22.8267 10.3328 0
24.467 8.43913 0
22.9829 37.5189 0
25.3663 36.7563 0
79.5356 20.3427 0
81.7904 21.436 0
80.4318 15.9942 0
78.1526 14.9422 0
68.1608 33.9845 0
68.4103 36.4631 0
32.8016 26.745 0
35.0284 27.8595 0
49.0959 3.36407 0
47.456 5.25182 0
34.1935 40.3833 0
32.8285 42.4741 0
47.682 12.3468 0
48.2028 14.7918 0
50.258 18.5636 0
51.6288 16.4758 0
33.8476 30.4096 0
34.5336 28.012 0
2.33393 13.7755 0
4.82257 14.0428 0
40.0938 39.9909 0
40.8352 42.3746 0
10.1171 16.0785 0
9.50392 18.482 0
32.9503 15.9032 0
31.9098 18.1746 0
43.2459 0.7249 0
45.6666 0.0738401 0
37.1376 36.5972 0
39.3778 35.4944 0
81.2513 10.0095 0
81.7501 7.59982 0
30.4371 3.47563 0
28.2948 4.77703 0
49.4054 1.12318 0
47.6068 2.86204 0
60.7571 31.0156 0
62.5309 32.7732 0
26.1912 37.0162 0
24.5205 35.1764 0
33.9148 3.01487 0
36.4045 3.23584 0
46.8723 28.8302 0
45.8508 31.1092 0
19.4991 35.9441 0
21.2178 37.7365 0
56.1101 28.0278 0
58.602 28.0649 0
92.8461 9.42622 0
95.2666 10.0771 0
22.1103 28.8278 0
24.5803 29.1883 0
48.2812 17.4679 0
50.7271 17.9481 0
28.8305 21.4825 0
27.7758 19.2365 0
88.6643 17.9326 0
91.023 18.7938 0
85.3183 15.4199 0
82.8105 15.5436 0
59.5415 44.956 0
60.8273 47.0997 0
89.5364 2.51288 0
89.7508 4.98074 0
95.4832 9.76204 0
93.3863 8.39605 0
64.4519 41.2032 0
62.9695 43.2092 0
56.0082 25.8199 0
58.3249 24.9042 0
71.0467 1.73264 0
71.034 4.23088 0
51.4174 11.5698 0
50.5037 9.24271 0
58.3195 27.5966 0
57.6458 25.1916 0
9.311 7.81747 0
7.76483 5.87585 0
51.688 13.1792 0
49.2112 12.8834 0
49.7142 24.114 0
50.1422 26.5755 0
72.5757 28.1756 0
70.1752 27.4833 0
81.2753 36.1053 0
78.9644 37.0436 0
80.7521 18.1427 0
81.4032 20.5323 0
63.0478 6.0953 0
60.7648 5.07484 0
49.6095 11.5461 0
47.1201 11.377 0
44.484 28.2528 0
42.0341 28.7141 0
88.6501 7.77422 0
88.1176 10.1866 0
72.3017 6.22799 0
71.0052 8.34132 0
87.7007 13.8374 0
88.645 16.1328 0
36.5723 40.6266 0
38.2899 42.4358 0
62.5643 3.39138 0
63.7516 1.19267 0
39.9612 14.8687 0
40.1038 12.3738 0
19.3828 6.37789 0
21.5286 5.07212 0
36.3647 45.5921 0
38.7273 46.4079 0
34.5956 31.096 0
32.3645 32.2185 0
58.8999 19.3114 0
60.6878 21.0566 0
78.2383 16.0556 0
75.8086 15.4229 0
15.8936 28.7376 0
17.2502 26.6629 0
80.5557 1.65187 0
78.1467 2.2854 0
37.6521 41.4292 0
35.1706 41.7195 0
84.0603 21.2531 0
84.5469 23.6766 0
86.5756 7.28401 0
86.2321 4.83661 0
44.7624 5.77694 0
46.5622 7.51059 0
84.1499 19.6132 0
84.0115 22.0775 0
71.9373 17.3781 0
74.4226 17.1097 0
77.0907 24.8077 0
76.4822 22.4019 0
97.1694 15.2348 0
94.7036 14.7902 0
38.3609 23.3739 0
40.4418 21.9933 0
40.9067 1.50755 0
39.8483 3.77232 0
60.1581 22.2678 0
57.829 21.3725 0
23.1176 0.885252 0
24.5935 2.84958 0
71.8843 31.9814 0
69.4217 32.3788 0
44.2118 37.9501 0
42.2669 39.517 0
34.1344 4.16545 0
35.5944 6.18814 0
19.9651 15.4505 0
21.7214 17.2026 0
1.46337 8.33262 0
3.15424 10.1621 0
85.5904 24.8303 0
87.7203 23.5382 0
82.6793 14.7591 0
80.2448 14.1361 0
60.7738 3.02063 0
60.1678 5.44429 0
17.3139 24.1104 0
15.8136 22.1377 0
51.8037 38.6331 0
50.593 36.4486 0
59.7293 46.5931 0
62.0301 45.6181 0
81.6799 19.0621 0
81.9712 21.5166 0
60.0468 14.8678 0
57.641 14.2028 0
21.6258 24.2901 0
21.5203 26.7651 0
50.5579 36.4151 0
51.4999 34.1023 0
68.8053 23.9117 0
66.7434 22.4991 0
85.3732 31.8205 0
83.0319 32.6643 0
10.01 12.6564 0
7.94447 14.0723 0
90.6871 3.17221 0
88.5853 1.81803 0
85.565 8.40723 0
87.7282 7.16737 0
32.9745 40.2007 0
33.1346 42.6872 0
16.5712 0.838436 0
18.9317 1.64326 0
80.3889 27.3444 0
82.3353 25.7928 0
21.4249 10.9484 0
19.7373 9.13933 0
93.5403 17.0414 0
91.2405 16.0403 0
19.4277 35.4367 0
19.2921 32.9633 0
18.0052 35.0688 0
20.2599 33.986 0
76.6111 11.9674 0
75.0387 13.8763 0
20.8992 4.67294 0
18.5468 3.85006 0
26.3517 33.5792 0
24.1993 32.329 0
55.3269 6.80692 0
57.4771 5.53433 0
69.3543 3.65914 0
70.4236 5.92409 0
22.4322 16.904 0
21.7342 14.5356 0
89.5087 6.12423 0
87.0026 6.10174 0
60.1627 4.00595 0
57.6736 3.74924 0
86.6867 11.2773 0
84.2747 10.5753 0
80.903 22.3843 0
82.0854 20.2112 0
69.7539 32.2421 0
68.953 29.8819 0
42.454 48.6788 0
40.5307 47.0823 0
30.6779 29.1638 0
31.6003 31.4728 0
19.9542 37.263 0
20.2707 34.8025 0
64.2215 5.40587 0
62.4834 7.19562 0
91.4426 1.96582 0
90.991 4.40064 0
85.7655 10.0693 0
87.2467 12.0717 0
16.1076 1.26764 0
14.0641 2.70318 0
71.9258 36.3731 0
74.3474 35.7704 0
14.9014 16.1538 0
17.3356 16.7444 0
85.8178 30.6605 0
87.509 32.4727 0
8.12002 21.9561 0
10.6235 21.8016 0
49.9338 35.3187 0
52.42 35.1321 0
9.11119 20.4423 0
10.832 18.6286 0
62.5118 31.6879 0
60.2486 32.7297 0
37.5421 6.5642 0
39.0237 4.54898 0
9.74881 9.15885 0
11.9307 7.92918 0
60.1282 25.7169 0
57.6373 25.797 0
32.8682 16.9638 0
33.8155 19.2634 0
92.6404 11.4274 0
92.9668 13.8861 0
50.0439 4.13231 0
52.1278 5.51554 0
21.7814 11.7166 0
23.2524 13.7022 0
16.437 4.87776 0
18.7569 3.93119 0
38.9647 33.4999 0
41.0977 32.2031 0
2.02569 4.96959 0
2.94331 2.65635 0
17.4385 16.9816 0
16.4126 19.2412 0
81.4434 37.3023 0
82.4558 35.0441 0
72.8864 12.3747 0
74.7238 10.714 0
66.3039 41.1642 0
63.9148 41.8899 0
63.7195 26.1849 0
65.7023 24.6806 0
49.8631 5.7825 0
48.3251 7.75323 0
60.1701 40.4374 0
62.3919 41.5799 0
23.4059 10.747 0
24.5137 12.9528 0
60.0688 30.9539 0
61.0149 33.2645 0
85.0371 22.2549 0
87.5467 22.2056 0
74.549 19.6042 0
72.1217 18.9863 0
56.0418 12.1029 0
58.4803 12.637 0
61.6885 3.97856 0
60.6501 1.70468 0
60.7158 47.1995 0
58.2176 47.2991 0
50.6452 16.5193 0
50.9606 18.9993 0
26.1739 32.9445 0
27.1656 30.6594 0
43.7084 22.3088 0
41.6598 20.891 0
70.2179 18.3219 0
72.6906 18.7044 0
72.5714 1.36974 0
72.7276 3.86325 0
33.4391 16.8113 0
35.0745 18.685 0
55.2477 3.22674 0
57.6918 3.76655 0
62.7105 26.6934 0
60.2176 26.7118 0
59.5504 35.1997 0
59.6937 32.7082 0
41.7532 31.0424 0
39.3755 31.7972 0
65.6848 33.5442 0
63.6636 32.0769 0
41.2903 35.859 0
39.987 37.9898 0
73.1999 29.4788 0
72.7703 31.9252 0
50.7625 39.8532 0
51.8551 42.1 0
59.8118 9.77032 0
58.3189 7.76369 0
82.5434 19.817 0
84.8522 18.8604 0
66.2846 0.467536 0
68.7865 0.251801 0
72.7464 32.3681 0
74.619 30.7317 0
66.4997 33.2383 0
65.2272 35.378 0
67.8014 45.9271 0
68.5187 43.542 0
63.7011 22.731 0
64.7982 20.4965 0
80.4225 11.1598 0
82.0326 13.0672 0
31.0245 20.1963 0
30.0738 17.9018 0
25.3373 20.4597 0
26.912 22.3787 0
53.9785 28.3908 0
56.4572 28.1364 0
85.6909 28.0813 0
85.1722 25.671 0
37.8878 1.53614 0
40.3734 1.85097 0
42.1163 29.2371 0
43.0998 26.9413 0
19.9851 35.0881 0
22.4706 35.3395 0
84.4678 11.4356 0
86.9785 11.394 0
30.493 1.05431 0
32.9601 0.615928 0
61.9834 42.1474 0
59.8188 40.8997 0
40.0386 13.1653 0
38.0495 14.6795 0
71.8805 28.8821 0
70.0361 27.199 0
60.3432 29.9827 0
59.5823 27.6047 0
6.57823 10.6164 0
5.70883 12.9465 0
33.6231 6.58657 0
31.9993 4.69703 0
57.278 24.4533 0
59.7082 23.9053 0
61.7264 27.7486 0
59.2458 27.9877 0
12.9797 2.02286 0
15.1346 3.26725 0
72.4134 4.79228 0
69.9319 4.51148 0
30.5175 6.01918 0
28.1274 6.76221 0
80.7961 3.69996 0
78.2887 3.77053 0
54.3776 35.6639 0
52.3706 37.1452 0
30.6142 14.0576 0
33.0347 14.649 0
80.5745 9.09788 0
82.8694 8.11483 0
12.0576 31.3146 0
13.0308 29.0665 0
46.3766 5.06157 0
48.8275 5.56182 0
2.71476 5.30111 0
5.21809 5.20205 0
10.2005 9.50549 0
11.2064 11.7656 0
4.32797 17.7959 0
6.57712 16.6901 0
29.3966 8.27195 0
26.9007 8.26194 0
43.6835 1.74333 0
45.9956 2.70353 0
77.3437 2.73277 0
75.5695 4.42912 0
55.2026 26.4763 0
57.447 27.5648 0
24.835 19.1309 0
27.0222 17.9098 0
12.8384 30.6528 0
14.0786 28.5199 0
13.759 17.7318 0
15.6264 19.3711 0
31.5654 35.7658 0
33.6653 37.107 0
85.1041 18.8058 0
85.4388 16.361 0
54.9568 42.0847 0
56.1294 39.8803 0
56.8567 42.7392 0
54.3701 42.5119 0
69.3439 40.8084 0
68.4274 43.123 0
81.6176 5.17248 0
81.1808 7.58806 0
67.2815 28.4866 0
69.3707 27.134 0
23.4107 28.016 0
20.9181 28.1889 0
76.5392 32.8327 0
74.6444 31.2072 0
40.3877 1.55359 0
41.9339 -0.411944 0
21.4861 3.4197 0
19.2738 2.30396 0
32.7444 27.7609 0
34.5469 29.4762 0
39.7474 2.00288 0
37.9651 3.75869 0
68.5824 6.04505 0
66.5156 7.43374 0
7.17789 2.10039 0
8.72549 0.141961 0
59.0644 33.1402 0
57.1101 31.5869 0
22.6801 35.1321 0
24.2067 37.0905 0
76.6735 24.7079 0
76.1238 22.288 0
8.86558 16.6333 0
9.71513 18.9566 0
27.0496 16.47 0
28.4723 14.4148 0
31.9623 36.6921 0
32.7948 34.3411 0
22.2311 34.65 0
19.9957 33.5536 0
73.3049 36.8093 0
71.9754 34.6985 0
15.028 2.07283 0
16.9721 0.511239 0
52.2263 11.8848 0
52.095 9.38757 0
33.8336 8.52012 0
32.6903 6.30662 0
24.9812 41.4912 0
27.3752 40.759 0
57.5682 12.2629 0
59.789 11.1287 0
84.1642 34.8846 0
82.3518 33.1697 0
40.4 46.8544 0
38.8913 44.8635 0
18.0809 12.0543 0
20.5462 12.5054 0
92.7244 8.13489 0
94.407 6.30515 0
81.3314 32.7409 0
80.6137 30.3652 0
38.8458 14.5843 0
38.7122 17.0789 0
28.6025 11.3763 0
29.9907 13.4304 0
51.9089 39.2438 0
54.3953 39.4528 0
86.5214 27.8606 0
85.8628 25.4826 0
22.1653 2.28157 0
23.5713 4.28285 0
49.354 2.91442 0
47.2309 1.58816 0
18.8776 19.5265 0
21.3654 19.8289 0
2.07925 8.99495 0
4.26556 7.77603 0
20.2609 3.54667 0
18.8555 5.59862 0
62.9352 44.1284 0
65.1574 45.2742 0
34.515 20.9467 0
36.5985 19.5664 0
94.5986 1.02941 0
93.9671 3.4255 0
49.7449 42.1161 0
49.3594 39.6475 0
58.6694 10.5432 0
56.3213 9.68992 0
36.622 10.4752 0
34.3412 11.501 0
56.8212 43.5754 0
56.7493 46.0733 0
2.41553 12.5696 0
1.75204 10.1726 0
82.4283 4.92318 0
83.3219 2.62683 0
37.6753 47.0148 0
35.4194 45.939 0
65.9593 39.2482 0
68.2891 40.1548 0
24.6821 33.8116 0
27.1563 34.1426 0
68.4475 39.1584 0
70.8469 38.4708 0
13.8566 30.384 0
12.2276 28.5233 0
58.8579 44.1419 0
61.292 44.706 0
24.3352 5.51273 0
24.2079 7.98897 0
81.1036 20.7251 0
78.7168 21.4724 0
29.889 39.4492 0
29.5209 41.9123 0
23.734 16.8621 0
21.4703 15.8159 0
2.71602 8.19661 0
4.94439 7.05524 0
48.0304 30.5786 0
49.9852 29.0289 0
87.041 22.9806 0
84.6494 23.7161 0
34.6777 10.6911 0
32.3467 11.5998 0
47.5627 25.7577 0
46.1089 23.73 0
67.4006 24.0508 0
65.4121 22.5373 0
58.1984 29.8803 0
56.8583 31.9826 0
32.347 34.6251 0
34.6351 35.6134 0
57.4011 36.079 0
56.0414 33.9839 0
26.6763 3.22104 0
28.7717 1.84627 0
11.199 26.4679 0
12.7313 24.4995 0
63.4909 32.8299 0
61.8982 34.7454 0
28.509 11.2133 0
26.0621 11.7543 0
44.5069 45.5134 0
42.009 45.5797 0
30.8646 14.2556 0
31.9952 16.4676 0
13.2013 1.81607 0
15.3311 0.508113 0
76.1074 14.8401 0
73.8466 15.883 0
12.6653 6.48896 0
13.3155 8.87103 0
35.4786 4.7133 0
36.3492 7.05255 0
53.9892 17.4286 0
51.5359 17.8677 0
31.3255 8.29043 0
29.0214 7.35515 0
24.2993 6.51404 0
21.8023 6.75993 0
48.611 3.36819 0
51.0496 3.93398 0
32.1821 13.5725 0
32.1118 11.0809 0
1.56847 3.44593 0
4.04987 3.76831 0
62.8082 44.0192 0
60.4897 43.0864 0
42.6528 24.2036 0
40.1662 24.0448 0
48.349 30.5132 0
50.5225 31.7341 0
58.8648 35.0561 0
56.3808 35.2716 0
50.0162 46.3296 0
52.07 44.9069 0
26.9557 5.54553 0
26.3351 7.96733 0
43.5241 35.7966 0
42.1088 33.743 0
52.8711 27.7088 0
50.9791 29.3334 0
60.941 39.7105 0
62.0791 41.9341 0
46.9401 23.4128 0
45.6765 21.2605 0
19.252 2.92243 0
18.5395 0.572913 0
48.231 41.6513 0
49.1924 39.3452 0
47.8215 39.2416 0
45.373 38.7637 0
73.1976 11.369 0
72.6728 8.93165 0
52.5207 17.5914 0
50.7813 15.7999 0
25.0199 41.5421 0
27.5066 41.2543 0
51.9657 23.85 0
50.5559 25.91 0
25.8774 30.0974 0
28.3013 30.6824 0
5.3417 7.97587 0
2.85791 7.66626 0
20.9073 35.0042 0
18.783 36.3242 0
31.9205 18.969 0
34.1929 19.9857 0
30.1314 19.0622 0
27.782 18.2311 0
78.7084 17.3609 0
79.4434 19.7294 0
41.9298 31.8985 0
42.4761 29.4621 0
44.7976 12.3044 0
45.2543 9.84566 0
44.2089 19.8429 0
46.0529 18.1587 0
36.1128 2.23405 0
35.7764 4.70918 0
94.4921 4.84201 0
95.3088 7.19208 0
41.9269 21.5555 0
40.38 23.5176 0
57.7637 25.9242 0
55.7278 24.4807 0
62.6734 26.724 0
65.0782 27.3928 0
8.54304 15.5672 0
8.46804 18.0433 0
70.7934 30.7101 0
68.3521 30.1837 0
45.8887 35.4368 0
46.1351 32.9515 0
87.0834 2.72964 0
88.7779 4.55951 0
22.532 38.2438 0
22.8929 40.6984 0
66.2334 42.8967 0
64.1994 41.4441 0
77.3269 11.8372 0
77.8621 14.2573 0
50.845 46.7499 0
49.1606 48.5964 0
14.9008 13.2944 0
15.4051 10.874 0
75.5877 18.7753 0
75.3751 21.2432 0
59.0458 45.3368 0
61.0993 46.7626 0
83.7428 9.37771 0
86.1972 8.87294 0
6.95921 1.79385 0
4.45917 1.8879 0
80.722 18.817 0
82.5324 17.1175 0
13.6037 0.198038 0
11.1059 0.104935 0
14.9501 31.9249 0
17.326 31.1639 0
14.202 12.761 0
15.5791 14.8161 0
66.7425 0.729653 0
64.2699 1.14641 0
72.2251 24.2379 0
71.2686 26.5298 0
52.0155 31.167 0
50.0644 29.6133 0
29.3512 28.9316 0
28.0856 26.7937 0
76.0254 25.1455 0
76.2631 22.6787 0
88.1057 17.1347 0
90.3497 18.2579 0
56.5858 8.79383 0
54.2969 9.79092 0
30.6125 42.038 0
32.0935 44.0413 0
49.5617 37.9833 0
50.1525 35.5561 0
33.6031 30.3824 0
35.8344 31.489 0
51.2927 19.9197 0
50.1618 22.1469 0
48.011 19.9259 0
46.7675 17.7604 0
56.3008 36.4691 0
54.2126 37.8329 0
27.9567 27.777 0
28.5359 30.1927 0
32.5959 34.2138 0
33.2251 36.6226 0
91.754 14.6382 0
93.5873 16.3395 0
6.67141 6.13869 0
6.34389 8.59928 0
30.6159 35.5317 0
31.2877 33.1314 0
65.1819 34.6344 0
64.2508 36.945 0
70.9118 2.03947 0
72.52 0.143268 0
72.1719 24.8348 0
72.6518 22.399 0
12.9574 14.5295 0
14.9652 16.0008 0
48.3596 3.18424 0
50.7932 3.77196 0
17.3643 5.81262 0
17.5679 8.2636 0
6.47534 18.502 0
3.9853 18.2568 0
31.8629 33.6438 0
32.0415 36.1273 0
59.3082 32.6075 0
59.0136 35.0855 0
80.5536 24.2517 0
80.9331 26.6971 0
96.0479 18.3328 0
96.4687 15.8834 0
81.6329 13.0428 0
84.1081 12.6411 0
31.4383 34.1708 0
30.3631 31.9283 0
95.0787 8.61557 0
94.2067 10.938 0
92.6839 17.8159 0
94.9074 16.6857 0
25.3421 37.644 0
25.058 35.177 0
11.1399 27.0184 0
12.961 28.6916 0
25.229 16.9185 0
22.7655 17.3906 0
33.0784 22.0167 0
35.5659 22.1941 0
75.0642 22.8504 0
72.5645 22.8837 0
50.0605 27.3267 0
49.6805 29.7956 0
21.009 18.5142 0
20.4995 20.938 0
93.0907 7.19418 0
92.2673 9.53106 0
49.1255 47.8487 0
47.6831 45.8081 0
60.2879 38.796 0
62.1627 37.1522 0
68.4832 12.4076 0
66.4292 10.975 0
74.7364 11.3373 0
72.5651 12.5436 0
59.6031 41.6308 0
61.2395 43.5194 0
83.0169 11.9343 0
83.7027 9.5684 0
12.3031 9.70373 0
11.2172 7.48122 0
46.2395 42.7699 0
44.2387 41.2777 0
78.0916 4.12421 0
75.6251 4.50659 0
79.2157 34.3705 0
79.6713 31.9347 0
50.3177 26.046 0
47.8601 25.6378 0
15.9032 14.8229 0
18.3839 14.4209 0
24.643 1.72567 0
27.1196 1.87938 0
21.7899 5.84329 0
23.748 4.2694 0
38.4623 26.5127 0
36.0225 27.0344 0
39.6127 37.6907 0
37.1217 37.5462 0
20.4699 23.0691 0
19.066 21.0263 0
55.8194 8.41814 0
53.5419 9.44224 0
30.8153 38.4685 0
33.2623 37.9602 0
56.7762 41.5169 0
59.244 41.144 0
59.0466 12.1489 0
61.4942 11.6706 0
84.7928 1.93386 0
82.4342 2.74735 0
54.6796 35.4489 0
52.9138 37.2114 0
27.922 39.1 0
30.4169 38.9364 0
56.9005 32.3346 0
56.6123 29.8545 0
77.5902 21.083 0
75.7049 22.7045 0
36.6981 36.292 0
36.0594 38.7046 0
70.6399 32.1422 0
68.1758 32.53 0
48.9448 32.1615 0
50.2818 30.0536 0
64.3574 19.1441 0
65.3623 21.4313 0
36.9413 30.3108 0
39.4342 30.3533 0
52.1022 2.77925 0
54.2116 4.12538 0
16.1434 26.744 0
13.9284 25.5944 0
28.848 37.4055 0
26.3784 37.7991 0
66.2887 34.553 0
64.6995 32.6266 0
86.848 13.6798 0
85.7538 15.8949 0
79.8833 37.1991 0
77.5844 38.1676 0
1.05627 9.61731 0
2.74442 11.4497 0
22.321 6.92358 0
19.8272 6.68941 0
28.0446 23.9587 0
25.5704 23.6179 0
48.7814 5.2124 0
46.4092 4.41766 0
39.4177 8.13849 0
37.123 7.15835 0
13.196 16.0788 0
11.756 14.0639 0
35.2145 37.6105 0
33.3983 39.326 0
76.1209 7.88805 0
78.1941 6.52619 0
38.8967 43.5963 0
38.0864 41.2357 0
46.1956 9.2488 0
48.2306 7.79799 0
39.9168 30.7188 0
37.4977 31.3289 0
37.3443 28.9647 0
36.6774 31.3689 0
36.7359 26.7021 0
34.2648 27.0481 0
30.6654 4.30448 0
33.0159 5.13703 0
71.8097 31.699 0
73.9832 30.4843 0
24.1829 12.2424 0
26.5741 11.4798 0
33.2254 43.4123 0
35.5143 42.406 0
26.1122 22.2773 0
24.0919 23.7485 0
5.62536 2.55309 0
6.55557 0.24342 0
94.4045 5.86888 0
96.8174 6.54538 0
53.4037 18.7026 0
51.7011 16.8758 0
53.8033 45.1871 0
52.3224 47.1994 0
94.747 5.21597 0
93.3387 3.15704 0
30.2576 20.9498 0
27.8113 20.4581 0
57.509 1.9198 0
58.1166 4.34402 0
94.6308 11.4365 0
92.9882 9.55652 0
43.726 6.98556 0
46.1874 6.54854 0
49.3936 42.1259 0
47.4362 43.6781 0
42.4353 27.0774 0
44.8425 26.4282 0
24.2745 22.4351 0
21.7992 22.0754 0
69.9702 33.9278 0
70.1356 31.4459 0
18.3892 13.397 0
20.6157 14.5202 0
9.42482 28.6034 0
11.7069 27.5521 0
62.0125 24.2869 0
60.7835 22.1118 0
81.7093 24.9741 0
79.2065 24.8983 0
22.8619 29.0661 0
20.743 30.3853 0
14.2648 29.426 0
14.3786 31.8887 0
12.6243 12.9349 0
13.6591 15.1784 0
67.3453 22.5892 0
67.7925 20.1421 0
79.3061 21.6775 0
81.72 22.3567 0
15.2777 21.5461 0
14.2107 23.7855 0
21.2667 13.451 0
18.9091 12.6205 0
44.9085 44.7768 0
42.4133 44.6621 0
62.223 37.8354 0
60.805 35.7793 0
59.6097 47.0311 0
61.9397 46.1267 0
39.9836 37.5631 0
42.4779 37.5138 0
55.7195 30.0609 0
53.3838 29.188 0
67.6118 40.5324 0
65.1264 40.7831 0
71.0744 5.51727 0
73.5639 5.58999 0
80.9164 3.25887 0
80.8444 0.803425 0
59.6878 6.88961 0
57.9445 8.67707 0
32.3939 19.3473 0
31.5927 21.7101 0
43.9587 32.2546 0
44.0695 34.7488 0
97.8281 14.0925 0
97.9821 11.6089 0
74.0915 18.4025 0
72.1408 16.8331 0
77.0473 31.3484 0
76.3387 33.7257 0
55.9598 48.4301 0
56.3187 45.9569 0
40.1683 1.02587 0
37.7505 1.68334 0
72.0195 19.8912 0
74.496 19.5558 0
41.8385 44.4833 0
44.3167 44.7942 0
87.0989 2.73687 0
86.5283 5.13983 0
19.3907 21.8115 0
18.9436 19.3825 0
17.542 36.0801 0
16.3131 33.9333 0
26.0886 37.8226 0
24.2017 39.4619 0
61.6703 6.13679 0
59.7021 4.5933 0
39.7441 29.8968 0
40.0586 32.3712 0
63.2633 5.36426 0
60.7924 5.73604 0
60.5811 6.48511 0
61.4365 4.13815 0
79.3015 36.7248 0
76.8661 37.2788 0
46.8296 23.2089 0
47.7854 20.9 0
81.9547 12.2589 0
79.4702 12.5955 0
17.6986 12.8875 0
18.5194 15.2146 0
48.2106 40.4285 0
46.3981 42.1476 0
65.3553 19.633 0
64.1294 17.4544 0
42.9318 39.8402 0
41.7545 42.0444 0
54.5009 16.7834 0
53.4299 19.0393 0
22.943 29.2114 0
25.3324 28.4816 0
23.2547 14.8084 0
20.8094 14.2763 0
92.3471 7.7687 0
90.8265 9.73026 0
32.1614 31.8957 0
33.6265 29.8747 0
68.7007 28.3845 0
68.9364 30.8632 0
97.6832 2.40904 0
96.2007 4.39763 0
67.3443 14.8614 0
69.8051 14.4596 0
78.3316 23.1993 0
78.7945 20.7693 0
37.5849 15.8665 0
35.2066 15.1247 0
68.8994 9.18902 0
69.4587 6.76091 0
32.9628 20.0884 0
34.3063 17.9809 0
33.2951 31.4635 0
34.9441 29.5886 0
87.8766 25.8506 0
89.8483 27.399 0
84.2521 23.5313 0
86.6788 24.1734 0
38.5266 11.0522 0
36.1015 11.6511 0
65.6745 40.1784 0
63.5045 38.9393 0
37.6953 1.4306 0
35.5221 2.67103 0
75.4655 39.7453 0
75.8987 42.1936 0
67.3592 2.06785 0
67.1304 4.55607 0
71.9681 15.0686 0
70.1254 13.3717 0
63.3538 31.7366 0
65.8438 31.894 0
39.5798 3.02984 0
38.849 5.4206 0
46.2301 18.5441 0
47.7957 16.5975 0
37.5268 38.5674 0
36.317 40.7521 0
90.1889 7.28752 0
90.9123 4.92075 0
92.5964 19.982 0
90.1902 19.2677 0
55.8869 19.0679 0
56.1398 16.582 0
22.8831 18.6779 0
21.5036 20.7517 0
32.7526 15.9034 0
34.5345 17.6373 0
72.9586 38.1716 0
73.3132 35.7122 0
61.7351 40.5454 0
63.1674 42.592 0
27.4784 32.7019 0
29.7724 31.7113 0
27.6614 16.4869 0
25.8169 14.8271 0
39.4874 2.23379 0
37.4612 3.70258 0
18.6445 28.3058 0
17.812 25.9749 0
73.4964 2.57218 0
75.2321 0.818711 0
75.7653 41.8474 0
73.2665 41.9848 0
57.3508 43.7126 0
54.9307 43.0938 0
27.2615 8.92761 0
28.8933 10.791 0
24.2137 7.72257 0
23.0518 9.93117 0
76.6075 41.3339 0
74.4989 42.666 0
30.3921 38.3549 0
32.0744 40.1911 0
47.7331 27.2747 0
48.5144 29.6463 0
78.4282 6.91267 0
80.9136 6.59761 0
75.9993 10.2844 0
76.2636 12.7485 0
69.5124 33.8838 0
68.8985 31.469 0
77.7118 16.9597 0
79.6972 18.4844 0
84.4576 32.3358 0
85.6313 34.5217 0
64.8896 34.2272 0
64.2058 31.8278 0
32.4194 10.0143 0
29.924 9.97806 0
29.5317 44.2001 0
31.8248 45.1909 0
20.0881 28.8612 0
22.5488 28.429 0
45.1558 28.1179 0
47.363 26.9569 0
19.3103 33.6233 0
20.5861 31.4863 0
66.1221 9.189 0
66.1508 6.69131 0
61.7128 1.48325 0
64.0721 0.639148 0
80.953 1.3821 0
79.8132 3.5469 0
40.5933 47.2781 0
38.0959 47.1507 0
58.7903 25.8409 0
59.6078 28.2007 0
14.8234 23.2644 0
16.9276 24.6002 0
4.0892 14.3884 0
6.13778 12.9497 0
84.2615 21.5243 0
82.6338 19.6364 0
8.18083 0.604733 0
5.72069 0.180528 0
75.4197 19.9144 0
73.0684 20.7489 0
52.4313 9.64392 0
50.7793 7.76842 0
43.3118 5.54064 0
45.7101 4.82943 0
39.2646 2.57712 0
37.8564 4.64397 0
3.30965 8.61903 0
0.870487 8.06251 0
87.8993 12.045 0
88.2225 14.4972 0
39.7057 11.109 0
37.441 10.0673 0
57.9425 7.0939 0
56.0212 5.49274 0
16.2813 26.6452 0
13.7916 26.9391 0
52.5479 5.10986 0
55.0215 5.48221 0
89.845 6.93476 0
92.2301 7.70594 0
93.5126 4.62724 0
91.8604 2.75524 0
95.0981 0.408225 0
96.8674 2.17681 0
16.0768 29.1444 0
18.4433 28.3488 0
62.4816 9.33528 0
61.7716 11.7286 0
18.5823 7.10894 0
17.9395 4.74029 0
70.1834 44.831 0
67.8021 44.0616 0
79.6776 8.27621 0
80.5716 5.98257 0
91.9063 15.5902 0
89.7466 14.3183 0
59.5344 8.51324 0
59.3382 6.02052 0
21.4213 28.2925 0
23.7241 29.2476 0
24.8702 41.7441 0
26.3757 39.7531 0
22.3872 13.1264 0
24.589 14.2845 0
9.8495 12.0196 0
11.0301 9.83149 0
33.5192 45.1067 0
34.4814 42.804 0
67.6058 35.5809 0
69.8696 36.6403 0
25.3509 10.5396 0
26.8629 8.53996 0
84.005 24.3251 0
82.6667 22.2325 0
87.5796 2.02982 0
89.3644 3.77452 0
51.1085 40.6644 0
53.4427 41.5501 0
82.1998 9.339 0
80.1091 7.9508 0
65.1004 14.309 0
66.1029 16.5995 0
42.9472 6.47673 0
42.7608 3.98457 0
53.5127 5.19237 0
55.4283 3.58569 0
44.3492 38.5807 0
42.8819 40.6029 0
90.5951 10.7825 0
92.572 9.26865 0
23.2761 16.7062 0
24.8127 18.6509 0
23.7809 9.93286 0
23.8192 7.45794 0
60.7042 35.4072 0
60.944 37.892 0
44.6427 0.90268 0
42.286 1.7524 0
78.2732 24.0473 0
79.0103 21.6848 0
68.8508 37.5819 0
68.7438 35.0939 0
27.5579 6.28422 0
29.459 4.64638 0
58.9229 12.951 0
59.0137 15.4482 0
57.7157 9.22376 0
59.6433 10.8161 0
51.7573 19.2078 0
54.1658 19.8516 0
50.6765 37.8578 0
48.1821 37.8565 0
47.4685 22.518 0
46.4197 24.7856 0
22.6468 20.8972 0
22.856 23.3643 0
81.0276 2.09277 0
78.5668 1.57549 0
95.2827 4.84961 0
95.4341 7.32782 0
48.3803 40.8122 0
46.7855 42.7354 0
26.3881 16.4458 0
25.2495 18.6632 0
89.3181 21.3481 0
88.3483 23.6178 0
43.8417 3.27957 0
46.1139 4.32531 0
53.2788 27.5306 0
55.5114 28.6421 0
78.2764 8.22857 0
79.9463 6.4055 0
13.6816 13.9086 0
16.1839 14.11 0
54.0792 47.1732 0
53.9827 44.6758 0
52.41 5.68773 0
49.986 5.06966 0
54.1052 40.2276 0
51.8103 41.2082 0
8.32908 21.8026 0
6.37783 23.3749 0
11.1419 27.4559 0
8.64787 27.2883 0
49.7345 46.8574 0
47.2358 46.8855 0
43.5698 18.0563 0
45.9125 18.9056 0
28.4319 43.1155 0
27.7498 40.7242 0
87.1014 31.2043 0
86.3913 28.85 0
85.7847 22.2697 0
86.6537 19.9596 0
85.9785 0.785159 0
88.4151 1.36153 0
83.4924 35.3554 0
84.5146 33.107 0
24.1781 32.3555 0
25.7444 30.4144 0
45.6037 41.9336 0
47.119 43.9184 0
21.4236 34.6272 0
23.7028 33.5991 0
6.25749 12.0318 0
4.34187 10.4401 0
34.557 14.4131 0
36.1676 12.4982 0
31.2801 45.5825 0
33.01 43.7793 0
18.3039 22.7566 0
20.7248 23.3882 0
10.2939 22.3796 0
11.9946 20.5486 0
50.2245 7.28323 0
47.8894 6.39019 0
47.5013 30.4574 0
45.1734 29.5688 0
38.8819 20.682 0
41.2885 20.0233 0
43.6001 9.63137 0
41.3969 10.8107 0
77.4701 36.6072 0
79.238 34.8624 0
39.9145 8.61182 0
39.0885 10.9722 0
74.8549 40.0271 0
73.597 37.8737 0
60.7769 11.5302 0
58.9065 13.1783 0
96.2726 12.4683 0
94.0469 11.3185 0
43.7783 25.0203 0
41.2865 25.0371 0
54.2758 42.5275 0
56.7477 42.1793 0
84.559 23.3221 0
82.0546 23.4575 0
2.49076 9.56447 0
4.55826 8.15528 0
82.1265 4.88908 0
84.6181 5.17108 0
36.5789 16.1339 0
38.6978 17.4422 0
44.0146 9.06708 0
42.0301 10.587 0
21.2314 26.2174 0
22.2352 28.4848 0
43.0695 26.89 0
45.3799 25.9513 0
15.0598 19.4507 0
14.8904 21.9146 0
20.1642 8.47568 0
21.0283 6.14734 0
12.253 24.6236 0
10.984 22.5049 0
49.8773 41.1772 0
48.6873 38.9814 0
9.60793 24.266 0
9.42176 26.738 0
35.1019 43.6923 0
32.8884 44.8559 0
13.411 18.158 0
11.2165 16.9719 0
12.2797 23.6067 0
12.7106 21.1711 0
84.2097 17.2627 0
84.0533 14.7979 0
97.1263 15.3825 0
94.921 14.1955 0
76.1593 36.4041 0
77.5525 38.4727 0
4.71117 2.92828 0
2.25271 3.41169 0
13.9299 26.5697 0
11.4358 26.3145 0
9.89381 5.15072 0
8.62273 7.29059 0
87.0181 9.90126 0
86.7104 7.44876 0
50.8078 18.628 0
49.8852 16.3055 0
22.8318 2.88034 0
23.4947 0.467332 0
24.0712 40.0867 0
21.5899 39.7668 0
4.28538 10.4696 0
1.87378 11.1488 0
73.9701 27.8275 0
72.4024 29.7556 0
51.6063 16.2764 0
49.4408 17.5146 0
94.7032 5.49006 0
96.5831 7.13904 0
92.4095 0.895113 0
90.0121 1.58409 0
54.6734 27.73 0
56.996 28.638 0
3.92234 2.1003 0
2.79294 4.32206 0
25.6276 41.7314 0
28.1138 41.4416 0
24.3347 32.9118 0
25.7995 34.9171 0
64.8464 37.5472 0
63.0325 35.8297 0
45.7888 38.6764 0
46.3351 36.2386 0
59.1319 39.1125 0
58.3309 41.4768 0
42.8522 19.1507 0
41.6528 16.9634 0
48.5278 16.6238 0
47.4702 14.3602 0
92.8866 4.83627 0
91.3654 6.79707 0
17.6584 6.54533 0
16.0802 4.64018 0
31.5868 30.4357 0
33.1014 28.4517 0
49.5586 44.865 0
50.5156 47.1736 0
51.6911 13.5471 0
49.2489 14.0539 0
35.2065 5.31999 0
34.5605 7.73634 0
90.7072 7.70958 0
90.2734 10.1442 0
55.2528 45.4889 0
54.0024 43.3244 0
16.7342 18.0503 0
18.9244 16.8292 0
14.6089 7.01155 0
14.2694 4.56792 0
24.3268 34.0937 0
21.835 34.2878 0
62.5997 33.3341 0
60.6359 34.8677 0
11.5591 19.5503 0
13.671 20.8709 0
76.838 0.330477 0
74.3624 0.185253 0
59.8971 25.807 0
57.6484 24.7253 0
70.4284 26.8135 0
67.9447 27.0501 0
46.2374 22.5654 0
46.9816 20.1794 0
76.5721 3.76865 0
74.1773 4.40082 0
47.8533 14.877 0
50.1328 15.8894 0
88.1844 13.491 0
89.9638 11.7572 0
71.046 -0.05259 0
73.3457 0.929577 0
56.2754 45.4221 0
57.2034 43.1032 0
68.1811 3.10863 0
65.962 1.95152 0
22.8763 17.5062 0
24.7956 15.8982 0
81.1673 38.4333 0
83.1422 36.9186 0
49.4118 2.73481 0
51.1132 4.5676 0
66.0288 3.16161 0
63.6995 2.25141 0
53.2949 11.9252 0
53.0628 9.43539 0
12.6005 15.3235 0
10.7806 17.0378 0
43.1729 4.44414 0
43.6218 6.90249 0
56.1472 20.3525 0
58.5914 20.8464 0
60.815 22.1602 0
58.341 21.8488 0
28.861 26.9796 0
27.0451 25.281 0
40.7083 6.72473 0
38.2341 7.06854 0
17.397 2.33161 0
19.8812 2.00041 0
42.8576 25.6165 0
40.387 25.949 0
7.01254 17.6225 0
8.34716 19.7114 0
20.3125 11.8817 0
22.1583 10.1886 0
67.3761 39.7935 0
65.4706 41.4012 0
45.1326 41.2817 0
45.9864 43.629 0
70.7714 17.0657 0
73.1545 16.3317 0
88.2966 4.84737 0
90.0401 6.63248 0
49.8863 19.949 0
48.1673 21.759 0
56.3439 37.4727 0
56.3464 39.9707 0
82.3269 25.8432 0
80.8014 27.8015 0
39.5732 4.22808 0
41.5646 5.73575 0
55.1594 43.3397 0
56.9986 41.652 0
55.3729 43.2246 0
57.0513 41.3769 0
25.0814 15.2378 0
23.2589 13.5587 0
14.401 27.6299 0
13.5755 29.9517 0
52.9945 16.8218 0
51.1939 18.5495 0
32.545 42.5922 0
34.8949 43.4385 0
19.7231 10.7706 0
21.4858 12.5113 0
61.5037 40.904 0
63.7364 39.7907 0
32.9982 27.2491 0
31.0529 28.8158 0
31.0473 21.0129 0
32.0193 23.3003 0
72.0178 27.2486 0
71.1877 29.59 0
38.1048 12.8996 0
40.575 13.2399 0
47.304 47.7368 0
45.485 46.024 0
70.5874 11.3726 0
70.448 13.8563 0
98.6893 10.164 0
96.6246 8.75079 0
96.4875 15.8701 0
93.9838 15.9235 0
58.9389 10.0195 0
59.6706 12.4104 0
54.9836 18.1662 0
56.4613 20.1811 0
53.9029 41.4217 0
56.3638 41.0065 0
5.02821 4.41426 0
7.51132 4.08975 0
84.4913 18.6921 0
86.8202 19.6312 0
19.3342 30.0428 0
19.5592 32.5098 0
64.3844 35.6012 0
63.1365 33.4386 0
66.444 23.3129 0
68.9385 23.2378 0
60.3615 25.2586 0
62.6525 24.2822 0
55.9014 20.9543 0
57.5906 19.1207 0
21.6104 36.1441 0
19.1155 36.3391 0
55.9349 32.1142 0
58.3623 31.5504 0
67.9614 1.5334 0
70.143 2.76311 0
16.2145 6.22354 0
17.6124 4.17324 0
91.8022 24.1305 0
91.1193 26.508 0
89.1999 19.0542 0
86.7245 18.6237 0
88.0974 12.526 0
86.5318 14.4478 0
76.3785 18.7286 0
77.5761 16.5633 0
70.9693 20.8267 0
70.0572 23.1363 0
26.668 25.3265 0
25.451 27.5001 0
55.7876 26.1394 0
55.5412 28.6239 0
59.1566 42.8735 0
57.5171 44.7564 0
66.188 18.5877 0
68.231 17.1692 0
81.2207 33.3768 0
79.6824 31.4175 0
50.4278 8.80562 0
49.7705 11.2179 0
26.1101 27.326 0
24.0788 28.7781 0
49.6504 27.0991 0
49.89 24.612 0
89.2821 25.3613 0
91.7843 25.3061 0
78.9304 31.9164 0
76.6017 32.8026 0
76.1683 37.2183 0
76.6028 34.7752 0
22.6806 1.42465 0
23.5218 3.73729 0
17.2446 11.8757 0
15.76 9.89778 0
76.4988 35.575 0
78.3584 33.9269 0
25.546 42.5711 0
23.7654 40.8311 0
24.9572 3.46753 0
23.1354 1.8239 0
86.8747 24.3223 0
85.0195 22.6497 0
84.0274 33.2937 0
83.1375 30.9787 0
67.9869 8.99894 0
65.8905 7.6283 0
6.41256 3.77544 0
4.63673 5.53418 0
88.4952 7.23177 0
89.378 4.92155 0
68.0624 40.6286 0
69.8954 38.9416 0
33.6187 18.6877 0
33.521 21.1781 0
18.4159 18.2472 0
20.0228 20.1354 0
51.0039 20.461 0
51.9907 18.1658 0
81.1606 27.068 0
78.9638 25.8807 0
33.6818 33.4868 0
31.5024 34.7083 0
42.0933 36.4589 0
44.2795 35.2545 0
9.47339 8.06151 0
8.10029 5.99657 0
46.3974 8.85475 0
43.9234 9.19642 0
38.9266 45.5984 0
36.7455 44.3807 0
56.667 44.5782 0
57.0776 42.114 0
50.8192 7.59029 0
52.1399 9.71246 0
69.29 9.44202 0
68.1751 11.6628 0
52.7839 10.4731 0
53.9916 8.2852 0
87.9586 0.588052 0
87.4455 3.00647 0
87.5319 29.5198 0
88.4688 27.2516 0
27.8174 27.6463 0
29.3711 25.6937 0
41.1372 3.01821 0
43.5603 2.38718 0
47.3896 29.0799 0
44.8992 29.0028 0
44.9129 22.9746 0
42.4437 22.6437 0
57.5396 35.998 0
55.6797 34.3322 0
79.9233 4.72877 0
81.3133 6.79288 0
32.9725 1.34387 0
31.3206 3.22325 0
37.9906 49.5093 0
37.9128 51.0764 0
37.9128 51.0764 0
37.698 52.631 0
37.698 52.631 0
37.3481 54.161 0
37.3481 54.161 0
36.8659 55.6546 0
36.8659 55.6546 0
36.255 57.1006 0
36.255 57.1006 0
35.5202 58.4879 0
35.5202 58.4879 0
34.6672 59.806 0
34.6672 59.806 0
33.7025 61.0448 0
33.7025 61.0448 0
32.6336 62.1949 0
32.6336 62.1949 0
31.4685 63.2477 0
31.4685 63.2477 0
30.2162 64.1951 0
30.2162 64.1951 0
28.8862 65.03 0
28.8862 65.03 0
27.4885 65.7462 0
27.4885 65.7462 0
26.0339 66.3382 0
26.0339 66.3382 0
24.5332 66.8015 0
24.5332 66.8015 0
22.998 67.1327 0
22.998 67.1327 0
21.4398 67.3293 0
21.4398 67.3293 0
19.8704 67.3897 0
19.8704 67.3897 0
18.3017 67.3136 0
18.3017 67.3136 0
16.7455 67.1015 0
16.7455 67.1015 0
15.2136 66.755 0
15.2136 66.755 0
13.7177 66.2768 0
13.7177 66.2768 0
12.2691 65.6703 0
12.2691 65.6703 0
10.8786 64.9403 0
10.8786 64.9403 0
9.55703 64.0921 0
9.55703 64.0921 0
8.31424 63.1322 0
8.31424 63.1322 0
7.15972 62.0679 0
7.15972 62.0679 0
6.10229 60.9072 0
6.10229 60.9072 0
5.15004 59.6589 0
5.15004 59.6589 0
4.31019 58.3325 0
4.31019 58.3325 0
3.58922 56.938 0
3.58922 56.938 0
2.99272 55.4861 0
2.99272 55.4861 0
2.52527 53.9877 0
2.52527 53.9877 0
2.19047 52.4544 0
2.19047 52.4544 0
1.99107 50.898 0
1.99107 50.898 0
1.92862 49.3301 0
1.92862 49.3301 0
2.00369 47.763 0
2.00369 47.763 0
2.21583 46.2089 0
2.21583 46.2089 0
2.56352 44.6796 0
2.56352 44.6796 0
3.04415 43.1869 0
3.04415 43.1869 0
3.65419 41.7429 0
3.65419 41.7429 0
4.38898 40.3588 0
4.38898 40.3588 0
5.24292 39.0455 0
5.24292 39.0455 0
6.20972 37.8139 0
6.20972 37.8139 0
7.28157 36.6745 0
7.28157 36.6745 0
8.45057 35.6371 0
8.45057 35.6371 0
9.70769 34.7132 0
9.70769 34.7132 0
11.0438 33.9113 0
11.0438 33.9113 0
12.4531 33.232 0
12.4531 33.232 0
13.9137 32.6533 0
13.9137 32.6533 0
15.4119 32.189 0
15.4119 32.189 0
16.943 31.8521 0
16.943 31.8521 0
18.4978 31.6472 0
18.4978 31.6472 0
20.0644 31.5768 0
20.0644 31.5768 0
21.6313 31.6421 0
21.6313 31.6421 0
23.1861 31.8426 0
23.1861 31.8426 0
24.7165 32.1771 0
24.7165 32.1771 0
26.2114 32.6431 0
26.2114 32.6431 0
27.6591 33.2378 0
27.6591 33.2378 0
29.0485 33.9569 0
29.0485 33.9569 0
30.3689 34.795 0
30.3689 34.795 0
31.6106 35.7458 0
31.6106 35.7458 0
32.764 36.8022 0
32.764 36.8022 0
33.8205 37.956 0
33.8205 37.956 0
34.7719 39.1984 0
34.7719 39.1984 0
35.6112 40.5199 0
35.6112 40.5199 0
36.3318 41.9104 0
36.3318 41.9104 0
36.9282 43.3592 0
36.9282 43.3592 0
37.3958 44.8553 0
37.3958 44.8553 0
37.7308 46.3869 0
37.7308 46.3869 0
37.9299 47.9423 0
37.9299 47.9423 0
37.9906 49.5093 0
98.0715 49.3295 0
98.0091 50.8974 0
98.0091 50.8974 0
97.8097 52.4539 0
97.8097 52.4539 0
97.4749 53.9871 0
97.4749 53.9871 0
97.0074 55.4855 0
97.0074 55.4855 0
96.4109 56.9374 0
96.4109 56.9374 0
95.6899 58.3319 0
95.6899 58.3319 0
94.85 59.6583 0
94.85 59.6583 0
93.8978 60.9066 0
93.8978 60.9066 0
92.8403 62.0673 0
92.8403 62.0673 0
91.6858 63.1315 0
91.6858 63.1315 0
90.443 64.0914 0
90.443 64.0914 0
89.1214 64.9396 0
89.1214 64.9396 0
87.7309 65.6696 0
87.7309 65.6696 0
86.2823 66.276 0
86.2823 66.276 0
84.7863 66.7543 0
84.7863 66.7543 0
83.2545 67.1008 0
83.2545 67.1008 0
81.6983 67.3128 0
81.6983 67.3128 0
80.1296 67.3889 0
80.1296 67.3889 0
78.5602 67.3284 0
78.5602 67.3284 0
77.002 67.1318 0
77.002 67.1318 0
75.4667 66.8006 0
75.4667 66.8006 0
73.9661 66.3373 0
73.9661 66.3373 0
72.5115 65.7452 0
72.5115 65.7452 0
71.1139 65.0291 0
71.1139 65.0291 0
69.7839 64.1941 0
69.7839 64.1941 0
68.5316 63.2466 0
68.5316 63.2466 0
67.3665 62.1938 0
67.3665 62.1938 0
66.2976 61.0437 0
66.2976 61.0437 0
65.333 59.8049 0
65.333 59.8049 0
64.48 58.4868 0
64.48 58.4868 0
63.7452 57.0995 0
63.7452 57.0995 0
63.1344 55.6535 0
63.1344 55.6535 0
62.6522 54.1598 0
62.6522 54.1598 0
62.3023 52.6298 0
62.3023 52.6298 0
62.0876 51.0753 0
62.0876 51.0753 0
62.0099 49.5082 0
62.0099 49.5082 0
62.0706 47.9411 0
62.0706 47.9411 0
62.2698 46.3857 0
62.2698 46.3857 0
62.6047 44.8541 0
62.6047 44.8541 0
63.0723 43.3581 0
63.0723 43.3581 0
63.6686 41.9092 0
63.6686 41.9092 0
64.3892 40.5187 0
64.3892 40.5187 0
65.2283 39.1972 0
65.2283 39.1972 0
66.1798 37.9549 0
66.1798 37.9549 0
67.2362 36.8011 0
67.2362 36.8011 0
68.3896 35.7449 0
68.3896 35.7449 0
69.6313 34.7942 0
69.6313 34.7942 0
70.9519 33.9563 0
70.9519 33.9563 0
72.3412 33.2372 0
72.3412 33.2372 0
73.7888 32.6421 0
73.7888 32.6421 0
75.2837 32.1755 0
75.2837 32.1755 0
76.8145 31.8408 0
76.8145 31.8408 0
78.3692 31.6404 0
78.3692 31.6404 0
79.9358 31.5755 0
79.9358 31.5755 0
81.5027 31.646 0
81.5027 31.646 0
83.0576 31.8511 0
83.0576 31.8511 0
84.5892 32.188 0
84.5892 32.188 0
86.0875 32.6525 0
86.0875 32.6525 0
87.5465 33.2319 0
87.5465 33.2319 0
88.9569 33.911 0
88.9569 33.911 0
90.2934 34.7138 0
90.2934 34.7138 0
91.5498 35.6372 0
91.5498 35.6372 0
92.7187 36.6738 0
92.7187 36.6738 0
93.7907 37.8134 0
93.7907 37.8134 0
94.7573 39.0448 0
94.7573 39.0448 0
95.6113 40.3583 0
95.6113 40.3583 0
96.3462 41.7425 0
96.3462 41.7425 0
96.9561 43.1864 0
96.9561 43.1864 0
97.4367 44.679 0
97.4367 44.679 0
97.7844 46.2084 0
97.7844 46.2084 0
97.9965 47.7625 0
97.9965 47.7625 0
98.0715 49.3295 0
      </DataArray>
    </Points>
    <Cells>
      <DataArray type="Int32" Name="connectivity" format="ascii">
247 120 114 753 754 755 
213 114 214 748 749 750 
487 220 257 647 745 730 
257 115 260 741 742 743 
246 300 116 738 739 740 
212 116 247 731 732 733 
246 257 117 724 725 726 
299 117 312 719 720 721 
303 310 118 716 717 718 
248 118 256 711 712 713 
513 495 483 150 224 119 
507 513 483 151 119 184 
248 120 302 704 705 706 
221 258 121 1196 1197 1198 
259 121 313 1191 1192 1193 
464 430 432 332 409 122 
436 464 432 326 122 408 
346 1189 123 1186 1187 1188 
298 123 351 1181 1182 1183 
71 311 124 699 700 701 
65 124 372 692 693 694 
79 369 125 687 688 689 
684 125 309 680 681 682 
211 243 126 1178 1179 1180 
244 126 297 1173 1174 1175 
462 474 436 240 281 127 
438 462 436 294 127 327 
512 515 514 131 129 134 
513 509 511 130 132 135 
514 515 510 129 139 128 
508 514 510 148 128 147 
496 500 514 146 133 149 
513 499 495 136 145 150 
507 509 513 143 130 151 
505 491 497 141 142 154 
504 515 512 137 131 155 
174 503 511 1151 156 144 
512 514 500 134 133 159 
499 513 511 136 135 162 
494 515 504 138 137 165 
171 510 515 1164 139 166 
140 167 168 678 674 675 
167 492 168 672 661 674 
491 505 506 141 153 169 
177 498 497 656 164 170 
173 490 174 1156 1149 1171 
217 489 503 1126 176 175 
495 499 498 145 163 178 
501 500 496 158 146 179 
172 486 181 1162 1145 1169 
496 514 508 149 148 183 
480 481 140 227 152 187 
479 506 505 188 153 190 
477 505 497 191 154 193 
504 512 475 155 160 194 
472 511 503 161 156 197 
501 502 471 157 199 200 
500 501 470 158 201 202 
475 512 500 160 159 203 
499 511 472 162 161 204 
498 499 469 163 205 206 
497 498 468 164 207 208 
494 504 474 165 195 210 
211 493 171 1165 1161 1166 
167 180 212 667 668 669 
168 492 213 661 662 663 
214 488 177 657 653 658 
172 171 215 1158 1159 1160 
173 185 216 1153 1154 1155 
174 490 217 1149 1127 1150 
473 503 489 196 176 218 
177 488 219 653 643 654 
220 487 180 647 648 649 
182 181 221 1142 1143 1144 
496 508 115 183 222 747 
225 484 185 886 1138 1139 
482 502 481 198 186 226 
506 480 140 189 187 677 
480 506 479 189 188 228 
479 505 478 190 192 229 
478 505 477 192 191 230 
477 497 476 193 209 231 
474 504 475 195 194 232 
472 503 473 197 196 233 
471 502 482 199 198 234 
470 501 471 201 200 235 
475 500 470 203 202 236 
469 499 472 205 204 237 
468 498 469 207 206 238 
476 497 468 209 208 239 
494 474 461 210 241 242 
215 245 249 1133 1134 1135 
216 250 251 1128 1129 1130 
217 252 253 1123 1124 1125 
307 451 473 1047 255 254 
223 219 256 640 641 642 
583 263 223 1074 637 628 
582 261 264 1120 1121 1122 
445 482 481 265 226 268 
444 481 480 267 227 270 
443 480 479 269 228 272 
442 479 478 271 229 274 
441 478 477 273 230 276 
440 477 476 275 231 278 
474 475 436 232 280 281 
472 473 435 233 283 284 
471 482 446 234 266 286 
470 471 434 235 287 288 
464 475 470 279 236 289 
469 472 463 237 285 290 
468 469 433 238 291 292 
439 476 468 277 239 293 
461 474 462 241 240 295 
296 460 243 1071 1116 1117 
245 244 298 1107 1108 1109 
258 249 304 1100 1101 1102 
250 262 305 1095 1096 1097 
252 251 306 1088 1089 1090 
253 452 307 1084 1044 1085 
437 473 451 282 255 308 
633 314 591 871 832 1082 
262 261 316 1075 1076 1077 
318 629 578 854 810 809 
446 482 445 266 265 319 
445 481 444 268 267 320 
444 480 443 270 269 321 
443 479 442 272 271 322 
442 478 441 274 273 323 
441 477 440 276 275 324 
440 476 439 278 277 325 
436 475 464 280 279 326 
435 473 437 283 282 328 
463 472 435 285 284 329 
434 471 446 287 286 330 
464 470 434 289 288 331 
433 469 463 291 290 334 
439 468 433 293 292 335 
462 438 43 294 338 339 
461 462 45 295 340 341 
296 342 343 1068 1069 1070 
297 344 345 1063 1064 1065 
299 311 347 621 622 623 
301 300 348 616 617 618 
302 301 349 609 610 611 
309 303 350 602 603 604 
304 352 353 1058 1059 1060 
305 358 359 1053 1054 1055 
306 361 362 1048 1049 1050 
307 452 364 1044 934 1045 
437 451 109 308 367 368 
599 317 597 848 850 1042 
592 315 593 841 840 1040 
313 355 375 1035 1036 1037 
585 586 587 1032 1033 1034 
356 316 378 1027 1028 1029 
578 579 580 1024 1025 1026 
3 446 445 381 319 383 
7 445 444 384 320 386 
11 444 443 387 321 389 
15 443 442 390 322 392 
19 442 441 393 323 395 
23 441 440 396 324 398 
27 440 439 399 325 401 
432 438 436 336 327 408 
435 437 431 328 337 410 
429 463 435 333 329 411 
434 446 0 330 382 413 
430 464 434 332 331 414 
433 463 429 334 333 415 
1 439 433 402 335 416 
39 438 432 404 336 417 
431 437 940 337 407 418 
43 438 41 338 405 42 
45 462 43 340 339 44 
47 49 342 48 1019 1020 
344 343 51 1009 1010 1011 
346 345 1013 1000 1001 1002 
348 347 702 569 570 571 
350 349 75 560 561 562 
352 351 55 991 992 993 
354 353 979 984 985 986 
355 354 995 975 976 977 
357 356 89 968 969 970 
358 357 956 959 960 961 
360 359 972 952 953 954 
361 360 95 943 944 945 
363 362 99 936 937 938 
364 363 103 927 928 929 
107 451 105 366 365 106 
109 451 107 367 366 108 
931 437 109 406 368 110 
370 369 548 553 554 555 
371 370 690 544 545 546 
372 374 532 537 538 539 
374 373 696 528 529 530 
376 375 61 920 921 922 
924 523 524 915 916 917 
378 380 85 908 909 910 
516 911 518 903 904 905 
0 446 3 382 381 2 
3 445 5 383 385 4 
5 445 7 385 384 6 
7 444 9 386 388 8 
9 444 11 388 387 10 
11 443 13 389 391 12 
13 443 15 391 390 14 
15 442 17 392 394 16 
17 442 19 394 393 18 
19 441 21 395 397 20 
21 441 23 397 396 22 
23 440 25 398 400 24 
25 440 27 400 399 26 
27 439 29 401 403 28 
29 439 1 403 402 30 
41 438 39 405 404 40 
940 437 931 407 406 932 
432 430 31 409 423 419 
429 435 431 411 410 412 
93 429 431 426 412 422 
430 434 0 414 413 424 
1 433 429 416 415 428 
39 432 37 417 420 38 
947 431 940 421 418 941 
37 432 31 420 419 36 
93 431 947 422 421 948 
31 430 33 423 425 32 
33 430 0 425 424 34 
112 429 93 427 426 111 
1 429 112 428 427 113 
220 115 257 746 741 745 
518 899 519 896 897 898 
521 519 380 889 890 891 
630 264 225 882 883 884 
491 177 497 659 170 142 
481 502 140 186 676 152 
744 182 635 879 874 875 
120 247 467 753 735 707 
247 114 492 755 752 736 
114 120 488 754 710 751 
114 213 492 748 662 752 
213 214 491 750 660 665 
214 114 488 749 751 657 
115 220 496 746 652 747 
257 260 466 743 632 727 
182 485 635 878 870 874 
300 246 458 738 728 619 
246 116 487 740 737 729 
116 300 467 739 620 734 
116 212 487 731 670 737 
212 247 492 733 736 671 
247 116 467 732 734 735 
257 246 487 724 729 730 
246 117 458 726 723 728 
117 257 466 725 727 722 
117 299 458 719 625 723 
299 312 449 721 595 626 
312 117 466 720 722 596 
310 303 450 716 608 600 
303 118 457 718 715 605 
118 310 465 717 601 714 
118 248 457 711 708 715 
248 256 488 713 644 709 
256 118 465 712 714 645 
120 248 488 704 709 710 
248 302 457 706 613 708 
302 120 467 705 707 614 
311 71 573 699 72 624 
71 124 63 701 698 70 
124 311 449 700 627 695 
124 65 63 692 64 698 
65 372 67 694 542 66 
372 124 449 693 695 543 
369 79 81 687 80 556 
79 125 73 689 686 78 
125 369 450 688 559 683 
125 684 73 680 685 686 
684 309 564 682 606 565 
309 125 450 681 683 607 
167 140 502 678 676 679 
501 167 502 673 679 157 
140 168 506 675 666 677 
180 167 501 667 673 651 
167 212 492 669 671 672 
212 180 487 668 648 670 
506 168 213 666 663 664 
491 506 213 169 664 665 
491 214 177 660 658 659 
498 177 219 656 654 655 
495 498 219 178 655 646 
496 220 180 652 649 650 
501 496 180 179 650 651 
219 223 495 640 639 646 
223 256 465 642 645 636 
256 219 488 641 643 644 
495 223 263 639 637 638 
483 495 263 224 638 631 
633 635 634 867 868 869 
588 634 259 860 861 862 
629 318 630 854 855 856 
311 299 449 621 626 627 
299 347 458 623 577 625 
347 311 573 622 624 572 
300 301 467 616 615 620 
301 348 69 618 575 612 
348 300 458 617 619 576 
301 302 467 609 614 615 
302 349 457 611 568 613 
349 301 69 610 612 563 
303 309 450 602 607 608 
309 350 564 604 566 606 
350 303 457 603 605 567 
597 317 584 850 807 851 
599 550 581 845 846 847 
371 310 450 598 600 551 
590 315 592 835 841 842 
312 373 449 594 536 595 
593 589 531 836 837 838 
585 590 591 827 828 829 
587 523 589 818 819 820 
586 588 527 811 812 813 
578 583 584 802 803 804 
580 521 582 793 794 795 
579 581 516 784 785 786 
347 348 458 569 576 577 
348 702 69 571 703 575 
702 347 573 570 572 574 
349 350 457 560 567 568 
350 75 564 562 76 566 
75 349 69 561 563 74 
369 370 450 553 552 559 
370 548 557 555 549 547 
548 369 81 554 556 82 
370 371 450 544 551 552 
778 77 550 783 779 780 
690 370 557 545 547 558 
374 372 449 537 543 535 
372 532 67 539 68 542 
532 374 540 538 534 533 
373 374 449 528 535 536 
374 696 540 530 541 534 
531 59 773 772 777 774 
524 527 526 765 766 767 
762 526 376 756 757 758 
744 635 633 875 867 873 
260 744 633 877 873 872 
211 171 515 1166 166 1167 
494 211 515 1168 1167 138 
509 174 511 1152 144 132 
174 217 503 1150 175 1151 
629 583 578 1073 802 810 
465 583 223 805 628 636 
489 307 473 1086 254 218 
258 221 486 1196 1146 1105 
221 121 485 1198 1195 1147 
121 258 455 1197 1104 1194 
121 259 485 1191 864 1195 
259 313 448 1193 1038 865 
313 121 455 1192 1194 1039 
1189 346 1018 1186 1006 1023 
346 123 459 1188 1185 1007 
123 1189 35 1187 1190 1184 
123 298 459 1181 1111 1185 
298 351 456 1183 999 1112 
351 123 35 1182 1184 994 
243 211 494 1178 1168 1119 
211 126 493 1180 1177 1165 
126 243 460 1179 1116 1176 
126 244 493 1173 1115 1177 
244 297 459 1175 1066 1110 
297 126 460 1174 1176 1067 
173 174 509 1171 1152 1172 
507 173 509 1157 1172 143 
510 172 181 1163 1169 1170 
508 510 181 147 1170 1148 
171 172 510 1158 1163 1164 
172 215 486 1160 1136 1162 
215 171 493 1159 1161 1137 
185 173 507 1153 1157 1141 
173 216 490 1155 1131 1156 
216 185 484 1154 1138 1132 
181 182 508 1142 881 1148 
182 221 485 1144 1147 878 
221 181 486 1143 1145 1146 
225 185 507 1139 1141 1140 
483 225 507 887 1140 184 
245 215 493 1133 1137 1114 
215 249 486 1135 1106 1136 
249 245 456 1134 1113 1103 
250 216 484 1128 1132 1099 
216 251 490 1130 1094 1131 
251 250 453 1129 1098 1091 
252 217 490 1123 1127 1093 
217 253 489 1125 1087 1126 
253 252 452 1124 1092 1084 
261 582 447 1120 797 1078 
582 264 318 1122 888 798 
264 261 484 1121 1081 885 
461 296 243 1072 1117 1118 
494 461 243 242 1118 1119 
244 245 493 1107 1114 1115 
245 298 456 1109 1112 1113 
298 244 459 1108 1110 1111 
249 258 486 1100 1105 1106 
258 304 455 1102 1061 1104 
304 249 456 1101 1103 1062 
262 250 484 1095 1099 1080 
250 305 453 1097 1056 1098 
305 262 454 1096 1079 1057 
251 252 490 1088 1093 1094 
252 306 452 1090 1051 1092 
306 251 453 1089 1091 1052 
489 253 307 1087 1085 1086 
260 633 591 872 1082 1083 
466 260 591 632 1083 831 
261 262 484 1075 1080 1081 
262 316 454 1077 1031 1079 
316 261 447 1076 1078 1030 
583 629 263 1073 859 1074 
342 296 461 1068 1072 1022 
296 343 460 1070 1017 1071 
343 342 49 1069 1019 1012 
344 297 460 1063 1067 1016 
297 345 459 1065 1008 1066 
345 344 1004 1064 1015 1003 
352 304 456 1058 1062 998 
304 353 455 1060 990 1061 
353 352 57 1059 997 987 
358 305 454 1053 1057 966 
305 359 453 1055 958 1056 
359 358 963 1054 965 955 
361 306 453 1048 1052 950 
306 362 452 1050 942 1051 
362 361 97 1049 949 939 
451 307 364 1047 1045 1046 
105 451 364 365 1046 933 
371 599 597 849 1042 1043 
310 371 597 598 1043 852 
592 593 373 1040 839 1041 
312 592 373 844 1041 594 
355 313 455 1035 1039 982 
313 375 448 1037 926 1038 
375 355 53 1036 981 923 
586 585 314 1032 833 816 
585 587 315 1034 824 834 
587 586 377 1033 815 825 
316 356 454 1027 974 1031 
356 378 83 1029 913 971 
378 316 447 1028 1030 914 
579 578 317 1024 808 791 
578 580 318 1026 799 809 
580 579 379 1025 790 800 
45 47 342 46 1020 1021 
461 45 342 341 1021 1022 
343 344 460 1009 1016 1017 
344 51 1004 1011 52 1015 
51 343 49 1010 1012 50 
345 346 459 1000 1007 1008 
346 1013 1018 1002 1014 1006 
1013 345 1004 1001 1003 1005 
351 352 456 991 998 999 
352 55 57 993 56 997 
55 351 35 992 994 54 
353 354 455 984 983 990 
354 979 988 986 980 978 
979 353 57 985 987 58 
354 355 455 975 982 983 
355 995 53 977 996 981 
995 354 988 976 978 989 
356 357 454 968 967 974 
357 89 91 970 90 962 
89 356 83 969 971 88 
357 358 454 959 966 967 
358 956 963 961 957 965 
956 357 91 960 962 92 
359 360 453 952 951 958 
360 972 87 954 973 946 
972 359 963 953 955 964 
360 361 453 943 950 951 
361 95 97 945 96 949 
95 360 87 944 946 94 
362 363 452 936 935 942 
363 99 101 938 100 930 
99 362 97 937 939 98 
363 364 452 927 934 935 
364 103 105 929 104 933 
103 363 101 928 930 102 
375 376 448 920 760 926 
376 61 522 922 62 761 
61 375 53 921 923 60 
523 924 59 915 925 821 
924 524 918 917 769 919 
524 523 377 916 826 770 
380 378 447 908 914 894 
378 85 83 910 84 913 
85 380 517 909 893 86 
911 516 77 903 788 912 
516 518 379 905 900 789 
518 911 906 904 907 901 
899 518 906 896 901 902 
518 519 379 898 895 900 
519 899 517 897 520 892 
519 521 379 889 801 895 
521 380 447 891 894 796 
380 519 517 890 892 893 
264 630 318 882 855 888 
630 225 483 884 887 858 
225 264 484 883 885 886 
508 182 744 881 879 880 
115 508 744 222 880 876 
115 744 260 876 877 742 
633 634 314 869 866 871 
634 635 485 868 870 863 
634 588 314 860 817 866 
588 259 448 862 865 814 
259 634 485 861 863 864 
263 629 630 859 856 857 
483 263 630 631 857 858 
597 584 465 851 806 853 
310 597 465 852 853 601 
550 599 371 845 849 782 
599 581 317 847 792 848 
581 550 77 846 779 787 
466 590 592 830 842 843 
312 466 592 596 843 844 
589 593 315 836 840 823 
593 531 373 838 775 839 
531 589 59 837 822 772 
590 585 315 827 834 835 
585 591 314 829 832 833 
591 590 466 828 830 831 
523 587 377 818 825 826 
587 589 315 820 823 824 
589 523 59 819 821 822 
588 586 314 811 816 817 
586 527 377 813 771 815 
527 588 448 812 814 768 
578 584 317 804 807 808 
584 583 465 803 805 806 
521 580 379 793 800 801 
580 582 318 795 798 799 
582 521 447 794 796 797 
581 579 317 784 791 792 
579 516 379 786 789 790 
516 581 77 785 787 788 
690 778 550 691 780 781 
371 690 550 546 781 782 
531 773 696 774 697 776 
373 531 696 775 776 529 
527 524 377 765 770 771 
524 526 918 767 764 769 
526 527 448 766 768 759 
526 762 918 756 763 764 
762 376 522 758 761 525 
376 526 448 757 759 760 
1199 1200
1201 1202
1203 1204
1205 1206
1207 1208
1209 1210
1211 1212
1213 1214
1215 1216
1217 1218
1219 1220
1221 1222
1223 1224
1225 1226
1227 1228
1229 1230
1231 1232
1233 1234
1235 1236
1237 1238
1239 1240
1241 1242
1243 1244
1245 1246
1247 1248
1249 1250
1251 1252
1253 1254
1255 1256
1257 1258
1259 1260
1261 1262
1263 1264
1265 1266
1267 1268
1269 1270
1271 1272
1273 1274
1275 1276
1277 1278
1279 1280
1281 1282
1283 1284
1285 1286
1287 1288
1289 1290
1291 1292
1293 1294
1295 1296
1297 1298
1299 1300
1301 1302
1303 1304
1305 1306
1307 1308
1309 1310
1311 1312
1313 1314
1315 1316
1317 1318
1319 1320
1321 1322
1323 1324
1325 1326
1327 1328
1329 1330
1331 1332
1333 1334
1335 1336
1337 1338
1339 1340
1341 1342
1343 1344
1345 1346
1347 1348
1349 1350
1351 1352
1353 1354
1355 1356
1357 1358
1359 1360
1361 1362
1363 1364
1365 1366
1367 1368
1369 1370
1371 1372
1373 1374
1375 1376
1377 1378
1379 1380
1381 1382
1383 1384
1385 1386
1387 1388
1389 1390
1391 1392
1393 1394
1395 1396
1397 1398
1399 1400
1401 1402
1403 1404
1405 1406
1407 1408
1409 1410
1411 1412
1413 1414
1415 1416
1417 1418
1419 1420
1421 1422
1423 1424
1425 1426
1427 1428
1429 1430
1431 1432
1433 1434
1435 1436
1437 1438
1439 1440
1441 1442
1443 1444
1445 1446
1447 1448
1449 1450
1451 1452
1453 1454
1455 1456
1457 1458
1459 1460
1461 1462
1463 1464
1465 1466
1467 1468
1469 1470
1471 1472
1473 1474
1475 1476
1477 1478
1479 1480
1481 1482
1483 1484
1485 1486
1487 1488
1489 1490
1491 1492
1493 1494
1495 1496
1497 1498
1499 1500
1501 1502
1503 1504
1505 1506
1507 1508
1509 1510
1511 1512
1513 1514
1515 1516
1517 1518
1519 1520
1521 1522
1523 1524
1525 1526
1527 1528
1529 1530
1531 1532
1533 1534
1535 1536
1537 1538
1539 1540
1541 1542
1543 1544
1545 1546
1547 1548
1549 1550
1551 1552
1553 1554
1555 1556
1557 1558
1559 1560
1561 1562
1563 1564
1565 1566
1567 1568
1569 1570
1571 1572
1573 1574
1575 1576
1577 1578
1579 1580
1581 1582
1583 1584
1585 1586
1587 1588
1589 1590
1591 1592
1593 1594
1595 1596
1597 1598
1599 1600
1601 1602
1603 1604
1605 1606
1607 1608
1609 1610
1611 1612
1613 1614
1615 1616
1617 1618
1619 1620
1621 1622
1623 1624
1625 1626
1627 1628
1629 1630
1631 1632
1633 1634
1635 1636
1637 1638
1639 1640
1641 1642
1643 1644
1645 1646
1647 1648
1649 1650
1651 1652
1653 1654
1655 1656
1657 1658
1659 1660
1661 1662
1663 1664
1665 1666
1667 1668
1669 1670
1671 1672
1673 1674
1675 1676
1677 1678
1679 1680
1681 1682
1683 1684
1685 1686
1687 1688
1689 1690
1691 1692
1693 1694
1695 1696
1697 1698
1699 1700
1701 1702
1703 1704
1705 1706
1707 1708
1709 1710
1711 1712
1713 1714
1715 1716
1717 1718
1719 1720
1721 1722
1723 1724
1725 1726
1727 1728
1729 1730
1731 1732
1733 1734
1735 1736
1737 1738
1739 1740
1741 1742
1743 1744
1745 1746
1747 1748
1749 1750
1751 1752
1753 1754
1755 1756
1757 1758
1759 1760
1761 1762
1763 1764
1765 1766
1767 1768
1769 1770
1771 1772
1773 1774
1775 1776
1777 1778
1779 1780
1781 1782
1783 1784
1785 1786
1787 1788
1789 1790
1791 1792
1793 1794
1795 1796
1797 1798
1799 1800
1801 1802
1803 1804
1805 1806
1807 1808
1809 1810
1811 1812
1813 1814
1815 1816
1817 1818
1819 1820
1821 1822
1823 1824
1825 1826
1827 1828
1829 1830
1831 1832
1833 1834
1835 1836
1837 1838
1839 1840
1841 1842
1843 1844
1845 1846
1847 1848
1849 1850
1851 1852
1853 1854
1855 1856
1857 1858
1859 1860
1861 1862
1863 1864
1865 1866
1867 1868
1869 1870
1871 1872
1873 1874
1875 1876
1877 1878
1879 1880
1881 1882
1883 1884
1885 1886
1887 1888
1889 1890
1891 1892
1893 1894
1895 1896
1897 1898
1899 1900
1901 1902
1903 1904
1905 1906
1907 1908
1909 1910
1911 1912
1913 1914
1915 1916
1917 1918
1919 1920
1921 1922
1923 1924
1925 1926
1927 1928
1929 1930
1931 1932
1933 1934
1935 1936
1937 1938
1939 1940
1941 1942
1943 1944
1945 1946
1947 1948
1949 1950
1951 1952
1953 1954
1955 1956
1957 1958
1959 1960
1961 1962
1963 1964
1965 1966
1967 1968
1969 1970
1971 1972
1973 1974
1975 1976
1977 1978
1979 1980
1981 1982
1983 1984
1985 1986
1987 1988
1989 1990
1991 1992
1993 1994
1995 1996
1997 1998
1999 2000
2001 2002
2003 2004
2005 2006
2007 2008
2009 2010
2011 2012
2013 2014
2015 2016
2017 2018
2019 2020
2021 2022
2023 2024
2025 2026
2027 2028
2029 2030
2031 2032
2033 2034
2035 2036
2037 2038
2039 2040
2041 2042
2043 2044
2045 2046
2047 2048
2049 2050
2051 2052
2053 2054
2055 2056
2057 2058
2059 2060
2061 2062
2063 2064
2065 2066
2067 2068
2069 2070
2071 2072
2073 2074
2075 2076
2077 2078
2079 2080
2081 2082
2083 2084
2085 2086
2087 2088
2089 2090
2091 2092
2093 2094
2095 2096
2097 2098
2099 2100
2101 2102
2103 2104
2105 2106
2107 2108
2109 2110
2111 2112
2113 2114
2115 2116
2117 2118
2119 2120
2121 2122
2123 2124
2125 2126
2127 2128
2129 2130
2131 2132
2133 2134
2135 2136
2137 2138
2139 2140
2141 2142
2143 2144
2145 2146
2147 2148
2149 2150
2151 2152
2153 2154
2155 2156
2157 2158
2159 2160
2161 2162
2163 2164
2165 2166
2167 2168
2169 2170
2171 2172
2173 2174
2175 2176
2177 2178
2179 2180
2181 2182
2183 2184
2185 2186
2187 2188
2189 2190
2191 2192
2193 2194
2195 2196
2197 2198
2199 2200
2201 2202
2203 2204
2205 2206
2207 2208
2209 2210
2211 2212
2213 2214
2215 2216
2217 2218
2219 2220
2221 2222
2223 2224
2225 2226
2227 2228
2229 2230
2231 2232
2233 2234
2235 2236
2237 2238
2239 2240
2241 2242
2243 2244
2245 2246
2247 2248
2249 2250
2251 2252
2253 2254
2255 2256
2257 2258
2259 2260
2261 2262
2263 2264
2265 2266
2267 2268
2269 2270
2271 2272
2273 2274
2275 2276
2277 2278
2279 2280
2281 2282
2283 2284
2285 2286
2287 2288
2289 2290
2291 2292
2293 2294
2295 2296
2297 2298
2299 2300
2301 2302
2303 2304
2305 2306
2307 2308
2309 2310
2311 2312
2313 2314
2315 2316
2317 2318
2319 2320
2321 2322
2323 2324
2325 2326
2327 2328
2329 2330
2331 2332
2333 2334
2335 2336
2337 2338
2339 2340
2341 2342
2343 2344
2345 2346
2347 2348
2349 2350
2351 2352
2353 2354
2355 2356
2357 2358
2359 2360
2361 2362
2363 2364
2365 2366
2367 2368
2369 2370
2371 2372
2373 2374
2375 2376
2377 2378
2379 2380
2381 2382
2383 2384
2385 2386
2387 2388
2389 2390
2391 2392
2393 2394
2395 2396
2397 2398
2399 2400
2401 2402
2403 2404
2405 2406
2407 2408
2409 2410
2411 2412
2413 2414
2415 2416
2417 2418
2419 2420
2421 2422
2423 2424
2425 2426
2427 2428
2429 2430
2431 2432
2433 2434
2435 2436
2437 2438
2439 2440
2441 2442
2443 2444
2445 2446
2447 2448
2449 2450
2451 2452
2453 2454
2455 2456
2457 2458
2459 2460
2461 2462
2463 2464
2465 2466
2467 2468
2469 2470
2471 2472
2473 2474
2475 2476
2477 2478
2479 2480
2481 2482
2483 2484
2485 2486
2487 2488
2489 2490
2491 2492
2493 2494
2495 2496
2497 2498
2499 2500
2501 2502
2503 2504
2505 2506
2507 2508
2509 2510
2511 2512
2513 2514
2515 2516
2517 2518
2519 2520
2521 2522
2523 2524
2525 2526
2527 2528
2529 2530
2531 2532
2533 2534
2535 2536
2537 2538
2539 2540
2541 2542
2543 2544
2545 2546
2547 2548
2549 2550
2551 2552
2553 2554
2555 2556
2557 2558
2559 2560
2561 2562
2563 2564
2565 2566
2567 2568
2569 2570
2571 2572
2573 2574
2575 2576
2577 2578
2579 2580
2581 2582
2583 2584
2585 2586
2587 2588
2589 2590
2591 2592
2593 2594
2595 2596
2597 2598
2599 2600
2601 2602
2603 2604
2605 2606
2607 2608
2609 2610
2611 2612
2613 2614
2615 2616
2617 2618
2619 2620
2621 2622
2623 2624
2625 2626
2627 2628
2629 2630
2631 2632
2633 2634
2635 2636
2637 2638
2639 2640
2641 2642
2643 2644
2645 2646
2647 2648
2649 2650
2651 2652
2653 2654
2655 2656
2657 2658
2659 2660
2661 2662
2663 2664
2665 2666
2667 2668
2669 2670
2671 2672
2673 2674
2675 2676
2677 2678
2679 2680
2681 2682
2683 2684
2685 2686
2687 2688
2689 2690
2691 2692
2693 2694
2695 2696
2697 2698
2699 2700
2701 2702
2703 2704
2705 2706
2707 2708
2709 2710
2711 2712
2713 2714
2715 2716
2717 2718
2719 2720
2721 2722
2723 2724
2725 2726
2727 2728
2729 2730
2731 2732
2733 2734
2735 2736
2737 2738
2739 2740
2741 2742
2743 2744
2745 2746
2747 2748
2749 2750
2751 2752
2753 2754
2755 2756
2757 2758
2759 2760
2761 2762
2763 2764
2765 2766
2767 2768
2769 2770
2771 2772
2773 2774
2775 2776
2777 2778
2779 2780
2781 2782
2783 2784
2785 2786
2787 2788
2789 2790
2791 2792
2793 2794
2795 2796
2797 2798
2799 2800
2801 2802
2803 2804
2805 2806
2807 2808
2809 2810
2811 2812
2813 2814
2815 2816
2817 2818
2819 2820
2821 2822
2823 2824
2825 2826
2827 2828
2829 2830
2831 2832
2833 2834
2835 2836
2837 2838
2839 2840
2841 2842
2843 2844
2845 2846
2847 2848
2849 2850
2851 2852
2853 2854
2855 2856
2857 2858
2859 2860
2861 2862
2863 2864
2865 2866
2867 2868
2869 2870
2871 2872
2873 2874
2875 2876
2877 2878
2879 2880
2881 2882
2883 2884
2885 2886
2887 2888
2889 2890
2891 2892
2893 2894
2895 2896
2897 2898
2899 2900
2901 2902
2903 2904
2905 2906
2907 2908
2909 2910
2911 2912
2913 2914
2915 2916
2917 2918
2919 2920
2921 2922
2923 2924
2925 2926
2927 2928
2929 2930
2931 2932
2933 2934
2935 2936
2937 2938
2939 2940
2941 2942
2943 2944
2945 2946
2947 2948
2949 2950
2951 2952
2953 2954
2955 2956
2957 2958
2959 2960
2961 2962
2963 2964
2965 2966
2967 2968
2969 2970
2971 2972
2973 2974
2975 2976
2977 2978
2979 2980
2981 2982
2983 2984
2985 2986
2987 2988
2989 2990
2991 2992
2993 2994
2995 2996
2997 2998
2999 3000
3001 3002
3003 3004
3005 3006
3007 3008
3009 3010
3011 3012
3013 3014
3015 3016
3017 3018
3019 3020
3021 3022
3023 3024
3025 3026
3027 3028
3029 3030
3031 3032
3033 3034
3035 3036
3037 3038
3039 3040
3041 3042
3043 3044
3045 3046
3047 3048
3049 3050
3051 3052
3053 3054
3055 3056
3057 3058
3059 3060
3061 3062
3063 3064
3065 3066
3067 3068
3069 3070
3071 3072
3073 3074
3075 3076
3077 3078
3079 3080
3081 3082
3083 3084
3085 3086
3087 3088
3089 3090
3091 3092
3093 3094
3095 3096
3097 3098
3099 3100
3101 3102
3103 3104
3105 3106
3107 3108
3109 3110
3111 3112
3113 3114
3115 3116
3117 3118
3119 3120
3121 3122
3123 3124
3125 3126
3127 3128
3129 3130
3131 3132
3133 3134
3135 3136
3137 3138
3139 3140
3141 3142
3143 3144
3145 3146
3147 3148
3149 3150
3151 3152
3153 3154
3155 3156
3157 3158
3159 3160
3161 3162
3163 3164
3165 3166
3167 3168
3169 3170
3171 3172
3173 3174
3175 3176
3177 3178
3179 3180
3181 3182
3183 3184
3185 3186
3187 3188
3189 3190
3191 3192
3193 3194
3195 3196
3197 3198
3199 3200
3201 3202
3203 3204
3205 3206
3207 3208
3209 3210
3211 3212
3213 3214
3215 3216
3217 3218
3219 3220
3221 3222
3223 3224
3225 3226
3227 3228
3229 3230
3231 3232
3233 3234
3235 3236
3237 3238
3239 3240
3241 3242
3243 3244
3245 3246
3247 3248
3249 3250
3251 3252
3253 3254
3255 3256
3257 3258
3259 3260
3261 3262
3263 3264
3265 3266
3267 3268
3269 3270
3271 3272
3273 3274
3275 3276
3277 3278
3279 3280
3281 3282
3283 3284
3285 3286
3287 3288
3289 3290
3291 3292
3293 3294
3295 3296
3297 3298
3299 3300
3301 3302
3303 3304
3305 3306
3307 3308
3309 3310
3311 3312
3313 3314
3315 3316
3317 3318
3319 3320
3321 3322
3323 3324
3325 3326
3327 3328
3329 3330
3331 3332
3333 3334
3335 3336
3337 3338
3339 3340
3341 3342
3343 3344
3345 3346
3347 3348
3349 3350
3351 3352
3353 3354
3355 3356
3357 3358
3359 3360
3361 3362
3363 3364
3365 3366
3367 3368
3369 3370
3371 3372
3373 3374
3375 3376
3377 3378
3379 3380
3381 3382
3383 3384
3385 3386
3387 3388
3389 3390
3391 3392
3393 3394
3395 3396
3397 3398
3399 3400
3401 3402
3403 3404
3405 3406
3407 3408
3409 3410
3411 3412
3413 3414
3415 3416
3417 3418
3419 3420
3421 3422
3423 3424
3425 3426
3427 3428
3429 3430
3431 3432
3433 3434
3435 3436
3437 3438
3439 3440
3441 3442
3443 3444
3445 3446
3447 3448
3449 3450
3451 3452
3453 3454
3455 3456
3457 3458
3459 3460
3461 3462
3463 3464
3465 3466
3467 3468
3469 3470
3471 3472
3473 3474
3475 3476
3477 3478
3479 3480
3481 3482
3483 3484
3485 3486
      </DataArray>
      <DataArray type="Int32" Name="offsets" format="ascii">
6
12
18
24
30
36
42
48
54
60
66
72
78
84
90
96
102
108
114
120
126
132
138
144
150
156
162
168
174
180
186
192
198
204
210
216
222
228
234
240
246
252
258
264
270
276
282
288
294
300
306
312
318
324
330
336
342
348
354
360
366
372
378
384
390
396
402
408
414
420
426
432
438
444
450
456
462
468
474
480
486
492
498
504
510
516
522
528
534
540
546
552
558
564
570
576
582
588
594
600
606
612
618
624
630
636
642
648
654
660
666
672
678
684
690
696
702
708
714
720
726
732
738
744
750
756
762
768
774
780
786
792
798
804
810
816
822
828
834
840
846
852
858
864
870
876
882
888
894
900
906
912
918
924
930
936
942
948
954
960
966
972
978
984
990
996
1002
1008
1014
1020
1026
1032
1038
1044
1050
1056
1062
1068
1074
1080
1086
1092
1098
1104
1110
1116
1122
1128
1134
1140
1146
1152
1158
1164
1170
1176
1182
1188
1194
1200
1206
1212
1218
1224
1230
1236
1242
1248
1254
1260
1266
1272
1278
1284
1290
1296
1302
1308
1314
1320
1326
1332
1338
1344
1350
1356
1362
1368
1374
1380
1386
1392
1398
1404
1410
1416
1422
1428
1434
1440
1446
1452
1458
1464
1470
1476
1482
1488
1494
1500
1506
1512
1518
1524
1530
1536
1542
1548
1554
1560
1566
1572
1578
1584
1590
1596
1602
1608
1614
1620
1626
1632
1638
1644
1650
1656
1662
1668
1674
1680
1686
1692
1698
1704
1710
1716
1722
1728
1734
1740
1746
1752
1758
1764
1770
1776
1782
1788
1794
1800
1806
1812
1818
1824
1830
1836
1842
1848
1854
1860
1866
1872
1878
1884
1890
1896
1902
1908
1914
1920
1926
1932
1938
1944
1950
1956
1962
1968
1974
1980
1986
1992
1998
2004
2010
2016
2022
2028
2034
2040
2046
2052
2058
2064
2070
2076
2082
2088
2094
2100
2106
2112
2118
2124
2130
2136
2142
2148
2154
2160
2166
2172
2178
2184
2190
2196
2202
2208
2214
2220
2226
2232
2238
2244
2250
2256
2262
2268
2274
2280
2286
2292
2298
2304
2310
2316
2322
2328
2334
2340
2346
2352
2358
2364
2370
2376
2382
2388
2394
2400
2406
2412
2418
2424
2430
2436
2442
2448
2454
2460
2466
2472
2478
2484
2490
2496
2502
2508
2514
2520
2526
2532
2538
2544
2550
2556
2562
2568
2574
2580
2586
2592
2598
2604
2610
2616
2622
2628
2634
2640
2646
2652
2658
2664
2670
2676
2682
2688
2694
2700
2706
2712
2718
2724
2730
2736
2742
2748
2754
2760
2766
2772
2778
2784
2790
2796
2802
2808
2814
2820
2826
2832
2838
2844
2850
2856
2862
2868
2874
2880
2886
2892
2898
2904
2910
2916
2922
2928
2934
2940
2946
2952
2958
2964
2970
2976
2982
2988
2994
3000
3006
3012
3018
3024
3030
3036
3042
3048
3054
3060
3066
3072
3078
3084
3090
3096
3102
3108
3114
3120
3126
3132
3138
3144
3150
3156
3162
3168
3174
3180
3186
3192
3198
3204
3210
3216
3222
3228
3234
3240
3246
3252
3258
3264
3270
3276
3282
3288
3294
3300
3306
3312
3318
3324
3326
3328
3330
3332
3334
3336
3338
3340
3342
3344
3346
3348
3350
3352
3354
3356
3358
3360
3362
3364
3366
3368
3370
3372
3374
3376
3378
3380
3382
3384
3386
3388
3390
3392
3394
3396
3398
3400
3402
3404
3406
3408
3410
3412
3414
3416
3418
3420
3422
3424
3426
3428
3430
3432
3434
3436
3438
3440
3442
3444
3446
3448
3450
3452
3454
3456
3458
3460
3462
3464
3466
3468
3470
3472
3474
3476
3478
3480
3482
3484
3486
3488
3490
3492
3494
3496
3498
3500
3502
3504
3506
3508
3510
3512
3514
3516
3518
3520
3522
3524
3526
3528
3530
3532
3534
3536
3538
3540
3542
3544
3546
3548
3550
3552
3554
3556
3558
3560
3562
3564
3566
3568
3570
3572
3574
3576
3578
3580
3582
3584
3586
3588
3590
3592
3594
3596
3598
3600
3602
3604
3606
3608
3610
3612
3614
3616
3618
3620
3622
3624
3626
3628
3630
3632
3634
3636
3638
3640
3642
3644
3646
3648
3650
3652
3654
3656
3658
3660
3662
3664
3666
3668
3670
3672
3674
3676
3678
3680
3682
3684
3686
3688
3690
3692
3694
3696
3698
3700
3702
3704
3706
3708
3710
3712
3714
3716
3718
3720
3722
3724
3726
3728
3730
3732
3734
3736
3738
3740
3742
3744
3746
3748
3750
3752
3754
3756
3758
3760
3762
3764
3766
3768
3770
3772
3774
3776
3778
3780
3782
3784
3786
3788
3790
3792
3794
3796
3798
3800
3802
3804
3806
3808
3810
3812
3814
3816
3818
3820
3822
3824
3826
3828
3830
3832
3834
3836
3838
3840
3842
3844
3846
3848
3850
3852
3854
3856
3858
3860
3862
3864
3866
3868
3870
3872
3874
3876
3878
3880
3882
3884
3886
3888
3890
3892
3894
3896
3898
3900
3902
3904
3906
3908
3910
3912
3914
3916
3918
3920
3922
3924
3926
3928
3930
3932
3934
3936
3938
3940
3942
3944
3946
3948
3950
3952
3954
3956
3958
3960
3962
3964
3966
3968
3970
3972
3974
3976
3978
3980
3982
3984
3986
3988
3990
3992
3994
3996
3998
4000
4002
4004
4006
4008
4010
4012
4014
4016
4018
4020
4022
4024
4026
4028
4030
4032
4034
4036
4038
4040
4042
4044
4046
4048
4050
4052
4054
4056
4058
4060
4062
4064
4066
4068
4070
4072
4074
4076
4078
4080
4082
4084
4086
4088
4090
4092
4094
4096
4098
4100
4102
4104
4106
4108
4110
4112
4114
4116
4118
4120
4122
4124
4126
4128
4130
4132
4134
4136
4138
4140
4142
4144
4146
4148
4150
4152
4154
4156
4158
4160
4162
4164
4166
4168
4170
4172
4174
4176
4178
4180
4182
4184
4186
4188
4190
4192
4194
4196
4198
4200
4202
4204
4206
4208
4210
4212
4214
4216
4218
4220
4222
4224
4226
4228
4230
4232
4234
4236
4238
4240
4242
4244
4246
4248
4250
4252
4254
4256
4258
4260
4262
4264
4266
4268
4270
4272
4274
4276
4278
4280
4282
4284
4286
4288
4290
4292
4294
4296
4298
4300
4302
4304
4306
4308
4310
4312
4314
4316
4318
4320
4322
4324
4326
4328
4330
4332
4334
4336
4338
4340
4342
4344
4346
4348
4350
4352
4354
4356
4358
4360
4362
4364
4366
4368
4370
4372
4374
4376
4378
4380
4382
4384
4386
4388
4390
4392
4394
4396
4398
4400
4402
4404
4406
4408
4410
4412
4414
4416
4418
4420
4422
4424
4426
4428
4430
4432
4434
4436
4438
4440
4442
4444
4446
4448
4450
4452
4454
4456
4458
4460
4462
4464
4466
4468
4470
4472
4474
4476
4478
4480
4482
4484
4486
4488
4490
4492
4494
4496
4498
4500
4502
4504
4506
4508
4510
4512
4514
4516
4518
4520
4522
4524
4526
4528
4530
4532
4534
4536
4538
4540
4542
4544
4546
4548
4550
4552
4554
4556
4558
4560
4562
4564
4566
4568
4570
4572
4574
4576
4578
4580
4582
4584
4586
4588
4590
4592
4594
4596
4598
4600
4602
4604
4606
4608
4610
4612
4614
4616
4618
4620
4622
4624
4626
4628
4630
4632
4634
4636
4638
4640
4642
4644
4646
4648
4650
4652
4654
4656
4658
4660
4662
4664
4666
4668
4670
4672
4674
4676
4678
4680
4682
4684
4686
4688
4690
4692
4694
4696
4698
4700
4702
4704
4706
4708
4710
4712
4714
4716
4718
4720
4722
4724
4726
4728
4730
4732
4734
4736
4738
4740
4742
4744
4746
4748
4750
4752
4754
4756
4758
4760
4762
4764
4766
4768
4770
4772
4774
4776
4778
4780
4782
4784
4786
4788
4790
4792
4794
4796
4798
4800
4802
4804
4806
4808
4810
4812
4814
4816
4818
4820
4822
4824
4826
4828
4830
4832
4834
4836
4838
4840
4842
4844
4846
4848
4850
4852
4854
4856
4858
4860
4862
4864
4866
4868
4870
4872
4874
4876
4878
4880
4882
4884
4886
4888
4890
4892
4894
4896
4898
4900
4902
4904
4906
4908
4910
4912
4914
4916
4918
4920
4922
4924
4926
4928
4930
4932
4934
4936
4938
4940
4942
4944
4946
4948
4950
4952
4954
4956
4958
4960
4962
4964
4966
4968
4970
4972
4974
4976
4978
4980
4982
4984
4986
4988
4990
4992
4994
4996
4998
5000
5002
5004
5006
5008
5010
5012
5014
5016
5018
5020
5022
5024
5026
5028
5030
5032
5034
5036
5038
5040
5042
5044
5046
5048
5050
5052
5054
5056
5058
5060
5062
5064
5066
5068
5070
5072
5074
5076
5078
5080
5082
5084
5086
5088
5090
5092
5094
5096
5098
5100
5102
5104
5106
5108
5110
5112
5114
5116
5118
5120
5122
5124
5126
5128
5130
5132
5134
5136
5138
5140
5142
5144
5146
5148
5150
5152
5154
5156
5158
5160
5162
5164
5166
5168
5170
5172
5174
5176
5178
5180
5182
5184
5186
5188
5190
5192
5194
5196
5198
5200
5202
5204
5206
5208
5210
5212
5214
5216
5218
5220
5222
5224
5226
5228
5230
5232
5234
5236
5238
5240
5242
5244
5246
5248
5250
5252
5254
5256
5258
5260
5262
5264
5266
5268
5270
5272
5274
5276
5278
5280
5282
5284
5286
5288
5290
5292
5294
5296
5298
5300
5302
5304
5306
5308
5310
5312
5314
5316
5318
5320
5322
5324
5326
5328
5330
5332
5334
5336
5338
5340
5342
5344
5346
5348
5350
5352
5354
5356
5358
5360
5362
5364
5366
5368
5370
5372
5374
5376
5378
5380
5382
5384
5386
5388
5390
5392
5394
5396
5398
5400
5402
5404
5406
5408
5410
5412
5414
5416
5418
5420
5422
5424
5426
5428
5430
5432
5434
5436
5438
5440
5442
5444
5446
5448
5450
5452
5454
5456
5458
5460
5462
5464
5466
5468
5470
5472
5474
5476
5478
5480
5482
5484
5486
5488
5490
5492
5494
5496
5498
5500
5502
5504
5506
5508
5510
5512
5514
5516
5518
5520
5522
5524
5526
5528
5530
5532
5534
5536
5538
5540
5542
5544
5546
5548
5550
5552
5554
5556
5558
5560
5562
5564
5566
5568
5570
5572
5574
5576
5578
5580
5582
5584
5586
5588
5590
5592
5594
5596
5598
5600
5602
5604
5606
5608
5610
5612
      </DataArray>
      <DataArray type="UInt8" Name="types" format="ascii">
69
69
69
69
69
69
69
69
69
69
69
69
69
69
69
69
69
69
69
69
69
69
69
69
69
69
69
69
69
69
69
69
69
69
69
69
69
69
69
69
69
69
69
69
69
69
69
69
69
69
69
69
69
69
69
69
69
69
69
69
69
69
69
69
69
69
69
69
69
69
69
69
69
69
69
69
69
69
69
69
69
69
69
69
69
69
69
69
69
69
69
69
69
69
69
69
69
69
69
69
69
69
69
69
69
69
69
69
69
69
69
69
69
69
69
69
69
69
69
69
69
69
69
69
69
69
69
69
69
69
69
69
69
69
69
69
69
69
69
69
69
69
69
69
69
69
69
69
69
69
69
69
69
69
69
69
69
69
69
69
69
69
69
69
69
69
69
69
69
69
69
69
69
69
69
69
69
69
69
69
69
69
69
69
69
69
69
69
69
69
69
69
69
69
69
69
69
69
69
69
69
69
69
69
69
69
69
69
69
69
69
69
69
69
69
69
69
69
69
69
69
69
69
69
69
69
69
69
69
69
69
69
69
69
69
69
69
69
69
69
69
69
69
69
69
69
69
69
69
69
69
69
69
69
69
69
69
69
69
69
69
69
69
69
69
69
69
69
69
69
69
69
69
69
69
69
69
69
69
69
69
69
69
69
69
69
69
69
69
69
69
69
69
69
69
69
69
69
69
69
69
69
69
69
69
69
69
69
69
69
69
69
69
69
69
69
69
69
69
69
69
69
69
69
69
69
69
69
69
69
69
69
69
69
69
69
69
69
69
69
69
69
69
69
69
69
69
69
69
69
69
69
69
69
69
69
69
69
69
69
69
69
69
69
69
69
69
69
69
69
69
69
69
69
69
69
69
69
69
69
69
69
69
69
69
69
69
69
69
69
69
69
69
69
69
69
69
69
69
69
69
69
69
69
69
69
69
69
69
69
69
69
69
69
69
69
69
69
69
69
69
69
69
69
69
69
69
69
69
69
69
69
69
69
69
69
69
69
69
69
69
69
69
69
69
69
69
69
69
69
69
69
69
69
69
69
69
69
69
69
69
69
69
69
69
69
69
69
69
69
69
69
69
69
69
69
69
69
69
69
69
69
69
69
69
69
69
69
69
69
69
69
69
69
69
69
69
69
69
69
69
69
69
69
69
69
69
69
69
69
69
69
69
69
69
69
69
69
69
69
69
69
69
69
69
69
69
69
69
69
69
69
69
69
69
69
69
69
69
69
69
69
69
69
69
69
69
69
69
69
69
69
69
69
3
3
3
3
3
3
3
3
3
3
3
3
3
3
3
3
3
3
3
3
3
3
3
3
3
3
3
3
3
3
3
3
3
3
3
3
3
3
3
3
3
3
3
3
3
3
3
3
3
3
3
3
3
3
3
3
3
3
3
3
3
3
3
3
3
3
3
3
3
3
3
3
3
3
3
3
3
3
3
3
3
3
3
3
3
3
3
3
3
3
3
3
3
3
3
3
3
3
3
3
3
3
3
3
3
3
3
3
3
3
3
3
3
3
3
3
3
3
3
3
3
3
3
3
3
3
3
3
3
3
3
3
3
3
3
3
3
3
3
3
3
3
3
3
3
3
3
3
3
3
3
3
3
3
3
3
3
3
3
3
3
3
3
3
3
3
3
3
3
3
3
3
3
3
3
3
3
3
3
3
3
3
3
3
3
3
3
3
3
3
3
3
3
3
3
3
3
3
3
3
3
3
3
3
3
3
3
3
3
3
3
3
3
3
3
3
3
3
3
3
3
3
3
3
3
3
3
3
3
3
3
3
3
3
3
3
3
3
3
3
3
3
3
3
3
3
3
3
3
3
3
3
3
3
3
3
3
3
3
3
3
3
3
3
3
3
3
3
3
3
3
3
3
3
3
3
3
3
3
3
3
3
3
3
3
3
3
3
3
3
3
3
3
3
3
3
3
3
3
3
3
3
3
3
3
3
3
3
3
3
3
3
3
3
3
3
3
3
3
3
3
3
3
3
3
3
3
3
3
3
3
3
3
3
3
3
3
3
3
3
3
3
3
3
3
3
3
3
3
3
3
3
3
3
3
3
3
3
3
3
3
3
3
3
3
3
3
3
3
3
3
3
3
3
3
3
3
3
3
3
3
3
3
3
3
3
3
3
3
3
3
3
3
3
3
3
3
3
3
3
3
3
3
3
3
3
3
3
3
3
3
3
3
3
3
3
3
3
3
3
3
3
3
3
3
3
3
3
3
3
3
3
3
3
3
3
3
3
3
3
3
3
3
3
3
3
3
3
3
3
3
3
3
3
3
3
3
3
3
3
3
3
3
3
3
3
3
3
3
3
3
3
3
3
3
3
3
3
3
3
3
3
3
3
3
3
3
3
3
3
3
3
3
3
3
3
3
3
3
3
3
3
3
3
3
3
3
3
3
3
3
3
3
3
3
3
3
3
3
3
3
3
3
3
3
3
3
3
3
3
3
3
3
3
3
3
3
3
3
3
3
3
3
3
3
3
3
3
3
3
3
3
3
3
3
3
3
3
3
3
3
3
3
3
3
3
3
3
3
3
3
3
3
3
3
3
3
3
3
3
3
3
3
3
3
3
3
3
3
3
3
3
3
3
3
3
3
3
3
3
3
3
3
3
3
3
3
3
3
3
3
3
3
3
3
3
3
3
3
3
3
3
3
3
3
3
3
3
3
3
3
3
3
3
3
3
3
3
3
3
3
3
3
3
3
3
3
3
3
3
3
3
3
3
3
3
3
3
3
3
3
3
3
3
3
3
3
3
3
3
3
3
3
3
3
3
3
3
3
3
3
3
3
3
3
3
3
3
3
3
3
3
3
3
3
3
3
3
3
3
3
3
3
3
3
3
3
3
3
3
3
3
3
3
3
3
3
3
3
3
3
3
3
3
3
3
3
3
3
3
3
3
3
3
3
3
3
3
3
3
3
3
3
3
3
3
3
3
3
3
3
3
3
3
3
3
3
3
3
3
3
3
3
3
3
3
3
3
3
3
3
3
3
3
3
3
3
3
3
3
3
3
3
3
3
3
3
3
3
3
3
3
3
3
3
3
3
3
3
3
3
3
3
3
3
3
3
3
3
3
3
3
3
3
3
3
3
3
3
3
3
3
3
3
3
3
3
3
3
3
3
3
3
3
3
3
3
3
3
3
3
3
3
3
3
3
3
3
3
3
3
3
3
3
3
3
3
3
3
3
3
3
3
3
3
3
3
3
3
3
3
3
3
3
3
3
3
3
3
3
3
3
3
3
3
3
3
3
3
3
3
3
3
3
3
3
3
3
3
3
3
3
3
3
3
3
3
3
3
3
3
3
3
3
3
3
3
3
3
3
3
3
3
3
3
3
3
3
3
3
3
3
3
3
3
3
3
3
3
3
3
3
3
3
3
3
3
3
3
3
3
3
3
3
3
3
3
3
3
3
3
3
3
3
3
3
3
3
3
3
3
3
3
3
3
3
3
3
3
3
3
3
3
3
3
3
3
3
3
3
3
3
3
3
3
3
3
3
3
3
3
3
3
3
3
3
3
3
3
3
3
3
3
3
3
3
3
3
3
3
3
3
3
3
3
3
3
3
3
3
3
3
3
3
3
3
3
3
3
3
3
3
3
3
3
3
3
3
3
3
3
3
3
3
3
3
3
3
3
3
3
3
3
3
3
3
3
3
3
3
3
3
3
3
3
3
3
3
3
3
3
3
3
3
3
3
3
3
3
3
3
3
3
3
3
3
3
3
3
3
3
3
3
3
3
3
3
3
3
3
3
3
3
3
3
3
3
3
3
3
3
3
3
3
3
3
3
3
3
3
3
3
3
3
3
3
3
3
3
3
3
3
3
3
      </DataArray>
    </Cells>
    <PointData>
      <DataArray type="Float64" NumberOfComponents="2" Name="Displacement" format="ascii">
-0.00173136 -0.481842
0.00247919 -0.483032
-0.00052468 -0.481355
0.000315374 -0.480778
0.000758346 -0.480381
0.00106583 -0.480043
0.00125617 -0.479794
0.00137957 -0.479624
0.00143128 -0.479476
0.00143819 -0.479374
0.00140133 -0.479315
0.00133317 -0.47929
0.00123325 -0.479269
0.00111213 -0.479269
0.00097194 -0.47929
0.000820722 -0.479329
0.000659741 -0.479363
0.000496746 -0.479411
0.000335777 -0.479473
0.000182424 -0.479551
4.26667e-05 -0.479627
-7.99633e-05 -0.479726
-0.000179004 -0.479848
-0.000249383 -0.48
-0.000278014 -0.480163
-0.000265832 -0.480374
-0.000199296 -0.480639
-7.16703e-05 -0.480969
0.000195132 -0.481319
0.000575816 -0.481794
0.00128901 -0.482448
-0.008807 -0.480795
-0.00717152 -0.480874
-0.00554508 -0.481014
-0.00385539 -0.481319
-0.13959 -0.610659
-0.0103866 -0.48079
-0.0119689 -0.48082
-0.0142755 -0.480909
-0.0166023 -0.481057
-0.0199749 -0.481367
-0.0233881 -0.481787
-0.0283935 -0.48259
-0.0334601 -0.48362
-0.0408643 -0.485519
-0.0483145 -0.487891
-0.0536853 -0.489893
-0.05903 -0.49214
-0.0643198 -0.494643
-0.069533 -0.497376
-0.0768926 -0.501726
-0.0840069 -0.506516
-0.0908037 -0.511725
-0.071714 -0.678881
-0.138404 -0.623084
-0.135811 -0.634199
-0.132144 -0.643887
-0.127614 -0.652161
-0.122525 -0.659123
0.0926617 -0.423539
-0.0594569 -0.677241
-0.0449861 -0.672852
-0.0281488 -0.665274
0 0
-0.0336467 -0.0304466
-0.0474385 -0.0503697
-0.0491056 -0.0664069
-0.0404859 -0.0861342
-0.0288143 -0.105375
-0.0003991 -0.460096
0 0
0 0
0 0
0 0
0.026845 -0.445812
0.0540776 -0.393629
0.0712982 -0.283854
-0.0916561 -0.424586
0.0337832 -0.0304027
0.0476513 -0.0505505
0.049355 -0.0666873
0.0407633 -0.0865012
0.0290927 -0.105753
0.0719301 -0.679408
0.0596715 -0.677757
0.0452814 -0.673352
0.0283962 -0.665869
0.139525 -0.611494
0.0817164 -0.679596
0.0902142 -0.678468
0.0978148 -0.676559
0.104643 -0.673689
0.11102 -0.670107
0.00931214 -0.482017
0.13908 -0.598473
0.136806 -0.584628
0.132504 -0.570252
0.126093 -0.555738
0.120378 -0.545848
0.113658 -0.536221
0.105944 -0.527033
0.0973405 -0.518391
0.0908975 -0.51283
0.0841202 -0.507642
0.0770264 -0.502866
0.0696877 -0.498528
0.0592297 -0.493331
0.0485516 -0.489057
0.0411303 -0.486711
0.0337745 -0.484836
0.0287278 -0.483808
0.00772561 -0.482117
0.00614472 -0.482273
0.00446546 -0.482579
-0.0093666 -0.46797
0.0415939 -0.466058
0.0324434 -0.449778
0.0551135 -0.365115
-0.0555322 -0.386714
-0.00848607 -0.504487
-0.0167612 -0.461126
-0.038943 -0.572158
-0.00702484 -0.488727
-0.115033 -0.589467
-0.0356755 -0.0648686
0.035068 -0.0661222
-0.0606847 -0.545583
-0.0222593 -0.496601
-0.00680888 -0.516809
-0.00945178 -0.515794
0.00388737 -0.514443
-0.012474 -0.514945
0.0101709 -0.517608
0.00511811 -0.50107
-0.00255695 -0.508326
0.00193132 -0.510408
-0.00715647 -0.501226
-0.0179918 -0.517468
-0.0253932 -0.522763
-0.0171544 -0.524835
0.00815751 -0.476315
-0.00640111 -0.476838
-0.0107843 -0.476762
0.010409 -0.522603
0.0162071 -0.520968
-0.0184065 -0.490467
0.0175729 -0.48962
-0.00189609 -0.515027
0.00560381 -0.506242
0.01459 -0.494928
-0.0168615 -0.494216
0.00176593 -0.514227
0.00696208 -0.477322
-0.00180872 -0.477216
-0.00721719 -0.477921
-0.0108464 -0.510054
0.0153522 -0.516323
0.0155473 -0.478855
0.0151312 -0.486385
0.00209091 -0.500813
-0.00553471 -0.503924
0.00637742 -0.50707
-0.00121988 -0.504061
-0.0159491 -0.487568
-0.0157372 -0.479543
-0.0237065 -0.516989
-0.0274429 -0.532033
0.0196859 -0.472525
0.00780861 -0.474042
-0.00367708 -0.476148
-0.0174948 -0.476062
-0.0353591 -0.541889
-0.031174 -0.544533
0.0262431 -0.53796
0.0247137 -0.529348
0.0307283 -0.526546
0.0299469 -0.521744
-0.0241327 -0.472227
-0.024363 -0.482568
0.0231389 -0.482038
0.0340697 -0.467678
-0.0160447 -0.532442
0.00282741 -0.512954
0.0203093 -0.491032
-0.00224393 -0.512072
0.0236134 -0.540313
0.00829978 -0.477934
0.00527369 -0.477264
0.00043719 -0.477565
0.00250852 -0.477328
-0.00149927 -0.478167
-0.00390818 -0.478435
-0.00247257 -0.478434
-0.00683182 -0.47869
-0.0107835 -0.505824
-0.0191576 -0.509965
0.0245621 -0.514269
0.0134993 -0.509521
0.00919594 -0.478581
0.0108731 -0.479253
0.0138893 -0.481366
0.0131116 -0.484332
0.00760465 -0.491672
0.00189367 -0.497636
-0.00238184 -0.498991
-0.00803979 -0.493051
-0.0137139 -0.485528
-0.0139455 -0.482552
-0.0101381 -0.479926
-0.00805421 -0.479235
-0.0266819 -0.514437
-0.0416673 -0.537249
0.0287431 -0.462018
-0.00201925 -0.473518
-0.0159334 -0.471411
-0.0499671 -0.561189
0.0427888 -0.557826
0.0387461 -0.534473
0.031816 -0.516424
-0.0378823 -0.465984
0.0450564 -0.458844
-0.0262766 -0.548562
0.0273753 -0.48396
-0.049566 -0.452904
-0.0215884 -0.490536
0.00729225 -0.524657
0.00595711 -0.478558
0.00424733 -0.478067
0.00155861 -0.478247
-0.000685893 -0.47869
-0.00238939 -0.478955
-0.00434058 -0.47938
-0.0135269 -0.503659
0.0151407 -0.505194
0.00773161 -0.480036
0.0081793 -0.484244
0.0010632 -0.493643
-0.00150043 -0.494752
-0.00788792 -0.485352
-0.00657236 -0.480826
-0.025819 -0.502671
-0.0313892 -0.50943
-0.0358114 -0.517183
-0.0486014 -0.528649
-0.0766456 -0.565949
-0.0721349 -0.577279
0.0515062 -0.412842
0.0102015 -0.463866
-0.0419376 -0.436858
-0.065604 -0.584293
0.0623788 -0.583209
0.0618993 -0.567625
0.0578576 -0.550215
0.0501082 -0.53467
0.037447 -0.51531
0.0352539 -0.506518
-0.0518751 -0.437899
0.059027 -0.426919
-0.0554694 -0.584447
-0.013259 -0.541434
0.0547985 -0.443928
0.036904 -0.570881
0.061624 -0.59738
-0.0366183 -0.473075
0.00898595 -0.52957
0.00420479 -0.479312
0.0049298 -0.479909
0.00340111 -0.478688
0.00408235 -0.478833
0.00190627 -0.478681
0.0027439 -0.47861
0.000117412 -0.478976
0.000923837 -0.478847
-0.00105897 -0.479306
-0.000417376 -0.479184
-0.0024889 -0.479583
-0.00181839 -0.479373
-0.0035184 -0.480624
-0.00283125 -0.480008
-0.00456153 -0.495145
-0.00996187 -0.498349
-0.0185214 -0.501444
0.024017 -0.500728
0.0182728 -0.501356
0.00747557 -0.498069
0.00309822 -0.496105
0.0060016 -0.481092
0.00588705 -0.482782
0.00411151 -0.486608
0.00172999 -0.489435
-0.002765 -0.490544
-0.00414258 -0.487717
-0.00532394 -0.483731
-0.00472211 -0.481859
-0.0260903 -0.49256
-0.0353363 -0.50407
-0.0552346 -0.51924
-0.0784957 -0.548985
-0.0943959 -0.587866
0.0324097 -0.26811
0.0272823 -0.439432
0.00175668 -0.464497
-0.0200667 -0.452902
-0.0379473 -0.289387
-0.0835485 -0.613346
0.085876 -0.616203
0.0796199 -0.565614
0.0485678 -0.521922
0.0330103 -0.497326
0.00401375 -0.118004
-0.0485715 -0.335861
-0.00682723 -0.112839
0.0420918 -0.317499
-0.0481317 -0.601767
0.0423517 -0.463373
0.0731785 -0.401005
0.0615107 -0.616273
-0.0707349 -0.413351
-0.0205875 -0.492087
0.00276179 -0.479855
0.00238137 -0.4792
0.0017027 -0.479078
0.000706691 -0.479228
-0.000270755 -0.479461
-0.00105319 -0.479811
-0.00152138 -0.480558
-0.00904518 -0.492999
-0.0184883 -0.492402
0.0158921 -0.493609
0.00564262 -0.492929
0.00268766 -0.482038
-0.000512047 -0.487107
-0.0038333 -0.487544
0.00325319 -0.48939
-0.000353016 -0.488173
-0.00175597 -0.482721
-0.0167178 -0.487228
0.0167959 -0.489622
-0.0278476 -0.486025
-0.0315639 -0.490707
-0.0388753 -0.493024
-0.0442357 -0.50054
-0.0563022 -0.504886
-0.0671833 -0.516405
-0.0803058 -0.527405
-0.0953437 -0.545519
-0.11008 -0.564034
0.0238862 -0.284442
0.00886859 -0.426968
-0.00834735 -0.437145
-0.0227521 -0.306192
-0.114694 -0.611455
-0.109917 -0.62945
-0.102405 -0.643931
-0.0952388 -0.658665
-0.0743729 -0.649961
0.0789132 -0.654108
0.0958112 -0.657923
0.104454 -0.645709
0.110638 -0.628379
0.114807 -0.60608
0.10645 -0.579005
0.0961872 -0.552756
0.0852163 -0.530233
0.0666343 -0.517959
0.0569026 -0.501117
0.0464482 -0.496255
0.0390223 -0.4939
0.0276899 -0.488828
0.0329584 -0.117471
-0.00204835 -0.213362
-0.0389426 -0.314368
-0.0334013 -0.115058
0.0323431 -0.295469
0.000788089 -0.207154
-0.0506296 -0.638541
-0.0216923 -0.627956
0.0420128 -0.478775
0.0581941 -0.64294
-0.015615 -0.518097
0.0329 -0.622163
0.00119432 -0.480628
0.00102212 -0.481202
0.00148921 -0.480054
0.00169463 -0.4796
0.00162052 -0.479801
0.00173372 -0.479358
0.0015711 -0.479256
0.00166803 -0.479298
0.00130125 -0.479246
0.000949153 -0.479293
0.00113229 -0.479269
0.000564546 -0.479382
0.000174705 -0.479491
0.00036883 -0.479436
-0.000161286 -0.479632
-0.000456787 -0.479831
-0.000318614 -0.479726
-0.000621657 -0.480103
-0.000660774 -0.480527
-0.000662441 -0.4803
-0.000449006 -0.48112
-2.2494e-05 -0.482047
-0.00027266 -0.481542
-0.0194524 -0.484613
-0.0228652 -0.485046
0.0227514 -0.487807
0.0193632 -0.487333
-0.0129686 -0.491168
-0.00760847 -0.485487
0.0109807 -0.491063
0.0078052 -0.490626
0.00846534 -0.487156
9.92748e-05 -0.483282
-0.000630625 -0.484551
0.00120541 -0.486101
0.000318583 -0.484342
-0.0138327 -0.483896
0.0144002 -0.484915
-0.00993113 -0.483726
-0.0115344 -0.483757
0.0121252 -0.484775
0.0105422 -0.484741
-0.00630336 -0.482979
-0.00297683 -0.483176
-0.00470551 -0.483054
0.00707098 -0.484884
0.00551246 -0.484895
0.00392775 -0.48493
0.00523806 -0.486959
-0.00410286 -0.484597
0.0118375 -0.48726
-0.0111455 -0.486393
-0.00178666 -0.485361
0.00199041 -0.484417
0.0103807 -0.49442
-0.014949 -0.495824
0.021858 -0.492175
-0.0223829 -0.488116
-0.00166859 -0.481323
-0.0013146 -0.480112
-0.00069137 -0.479614
0.000202924 -0.479345
0.00122727 -0.479135
0.00210586 -0.47909
0.00252657 -0.479475
0.00312074 -0.480639
0.0383034 -0.590959
-0.0158709 -0.564692
-0.00233923 -0.194413
-0.0022175 -0.205712
0.0445636 -0.502814
0.0688711 -0.539581
0.088795 -0.594741
0.0827699 -0.633524
-0.0726362 -0.62042
-0.0903165 -0.602559
-0.0415931 -0.395706
0.0443142 -0.37018
-0.095439 -0.57061
-0.064697 -0.531771
-0.0409494 -0.511193
-0.0299008 -0.49704
0.00146059 -0.491373
-0.00361304 -0.49025
-0.0626663 -0.410201
0.0651959 -0.396265
0.00656246 -0.462335
-0.00830145 -0.482298
-0.00664141 -0.489461
0.00635405 -0.488261
0.00913605 -0.481303
0.00491251 -0.500871
0.0266038 -0.508823
-0.0222531 -0.507182
-0.00558206 -0.499865
-0.00503383 -0.479958
-0.00353979 -0.479018
-0.00135802 -0.478926
0.000178001 -0.478447
0.00305309 -0.478055
0.00531662 -0.478196
0.00642615 -0.479216
-0.0128596 -0.500993
0.0344509 -0.557641
-0.0075114 -0.527798
-0.0405582 -0.559563
0.0463404 -0.447064
-0.0314464 -0.461203
0.0372208 -0.524203
0.0420912 -0.54716
-0.00935921 -0.475547
0.0107614 -0.46924
-0.0561072 -0.555825
-0.0313418 -0.521827
-0.0277422 -0.482477
0.0265431 -0.482494
-0.0110044 -0.478251
-0.0200227 -0.481298
-0.00928649 -0.495975
0.00876729 -0.494516
0.0189527 -0.480324
0.0119334 -0.47769
0.0229278 -0.518916
-0.0163508 -0.512131
-0.00382411 -0.477858
0.00100454 -0.476524
0.00849813 -0.522543
0.0108949 -0.502374
0.0124283 -0.522242
-0.0147432 -0.526164
0.00818797 -0.513013
-0.00560195 -0.507638
-0.00420121 -0.50674
0.00039292 -0.508263
-0.0198595 -0.522705
-0.0435409 -0.48286
0.00900023 -0.653037
-0.0225726 -0.56793
0.00564268 -0.595214
-0.00171933 -0.644459
0.0137013 -0.55788
-0.00876242 -0.65257
0.0628284 -0.456704
0.0317397 -0.534203
0.00208204 -0.643889
0.00426049 -0.58192
0.0153046 -0.520304
0.0158289 -0.249594
0.0368749 -0.290061
0.0207398 -0.239247
0.0591464 -0.345488
-0.0144391 -0.129091
0.00251207 -0.158057
0.00761918 -0.204648
-0.00218903 -0.203189
0.0123564 -0.243582
-0.018104 -0.156969
-0.00852581 -0.166909
-0.0264057 -0.12516
0.0210532 -0.193354
0.0353385 -0.225741
-0.0377974 -0.100217
-0.0199519 -0.151944
-0.0197089 -0.262502
-0.0211242 -0.243652
-0.0399587 -0.30279
-0.0079257 -0.208562
0.0146632 -0.129482
-0.00240128 -0.158568
-0.0637716 -0.360764
-0.0176938 -0.258541
-0.000775725 -0.211922
0.0173118 -0.161104
0.0264398 -0.126857
0.00828831 -0.1702
0.0378189 -0.101541
-0.0209841 -0.194027
-0.0352025 -0.226607
0.0177794 -0.158437
-0.01392 -0.390514
0.0119191 -0.419467
0.013795 -0.358474
0.00584477 -0.457822
0 0
0 0
-0.0119085 -0.184233
-0.0345953 -0.356523
-0.0256108 -0.417164
0.0151026 -0.37519
-0.0133715 -0.349626
-0.0132213 -0.412556
0.012765 -0.167452
0 0
-0.0703809 -0.28287
-0.0073402 -0.45521
0.0284919 -0.399269
0.035738 -0.331091
-0.050655 -0.452276
-0.051798 -0.454564
-0.0184699 -0.497944
-0.0792348 -0.415175
0.0110268 -0.53796
-0.0545331 -0.445839
-0.0653232 -0.419229
0.066469 -0.429587
0.042664 -0.46705
0.0704632 -0.431517
0.0125598 -0.507606
0.0802719 -0.405996
0.0693499 -0.401989
0.0624334 -0.431737
0.0603397 -0.367392
0.0616743 -0.364971
0.037188 -0.309097
0.0196435 -0.256999
0.0566253 -0.360488
-0.0616644 -0.376576
-0.0440025 -0.327074
-0.0659501 -0.37852
-0.0264595 -0.273885
-0.0595775 -0.377535
-0.0188311 -0.20861
-0.0361523 -0.286325
-0.020264 -0.194584
-0.0455185 -0.346008
0.0065842 -0.0658835
0.0025128 -0.164025
-0.0222792 -0.245756
-0.0072546 -0.462089
-0.00579576 -0.459868
-0.017638 -0.446094
-0.000512336 -0.464338
-0.0320199 -0.431548
-0.00761408 -0.462314
0.00413266 -0.463073
0.0129978 -0.456054
0.0210595 -0.433257
0.00778832 -0.454028
0.0373237 -0.411647
0.0181421 -0.455106
0.013215 -0.192704
0.0169692 -0.17801
0.0334261 -0.264124
-0.00783055 -0.0638554
0.0436959 -0.320243
0.0161035 -0.229832
-0.00627861 -0.155908
-0.0522163 -0.449331
-0.0371767 -0.471305
-0.0162733 -0.497669
-0.024892 -0.487577
0.0637053 -0.421618
0.0404189 -0.465524
0.0149888 -0.499175
0.0165559 -0.496464
-0.0580936 -0.433752
-0.044566 -0.461977
-0.0322235 -0.478614
-0.0392697 -0.469142
-0.0442816 -0.46028
-0.0459095 -0.45377
-0.052469 -0.443757
-0.0361613 -0.462599
-0.0427232 -0.451586
-0.0584038 -0.423844
-0.0348229 -0.472636
0.0469651 -0.452011
0.040906 -0.458449
0.0398012 -0.463916
0.032433 -0.473407
0.0268186 -0.474764
0.0367237 -0.470854
-0.028324 -0.467156
-0.0312588 -0.469754
-0.0291627 -0.474931
-0.0233783 -0.475914
-0.0236861 -0.467446
-0.0205008 -0.471678
-0.0164939 -0.474383
-0.012613 -0.473765
0.00936963 -0.471895
0.0040314 -0.471844
0.00321337 -0.473838
-0.000229134 -0.475165
-0.00613649 -0.474611
0.00401182 -0.475419
0.0270018 -0.470636
0.0326596 -0.464115
0.024502 -0.467906
0.0380192 -0.455813
0.0197202 -0.46635
0.0161588 -0.470732
0.020719 -0.475429
0.013748 -0.473302
0.00830796 -0.475222
0.0103105 -0.476775
0.00467595 -0.476388
0.013532 -0.474819
0.0161424 -0.475409
0.0223687 -0.033693
0.0217821 -0.08668
0.0171259 -0.0451264
0.0227314 -0.127268
0 0
0 0
0.027337 -0.0271605
0.045957 -0.0746304
0.0368823 -0.0936271
0.0418608 -0.0543676
-0.0496267 -0.265868
-0.0596772 -0.289157
-0.0420331 -0.0538598
-0.0375101 -0.0917391
-0.0459481 -0.0737864
-0.0249897 -0.121694
0.0498411 -0.264706
0.0597309 -0.287593
-0.0275022 -0.0270362
-0.0177674 -0.0443348
-0.0233584 -0.0842248
-0.0225306 -0.0333567
-0.054596 -0.393018
-0.02753 -0.445361
-0.0301315 -0.452178
-0.0193582 -0.45723
-0.0315843 -0.44435
-0.00478553 -0.463339
-0.0433272 -0.418619
-0.0377619 -0.450248
-0.0250496 -0.460222
-0.0511221 -0.414302
-0.0560171 -0.415233
-0.0481942 -0.435071
-0.0596598 -0.395946
-0.0500747 -0.386545
-0.041835 -0.31077
-0.0547294 -0.361745
-0.0496525 -0.344509
0.0455404 -0.32141
0.0507437 -0.342267
0.0356321 -0.291254
0.0598078 -0.37809
0.0509411 -0.361448
0.0568031 -0.416048
0.0602481 -0.398684
0.0554728 -0.389976
0.0631033 -0.411971
0.0488748 -0.392567
0.0503513 -0.431093
0.0536856 -0.437309
0.0313825 -0.455599
0.0217552 -0.458817
0.0203811 -0.462568
0.019718 -0.457082
0.00862822 -0.462489
0.0107514 -0.466059
0.040724 -0.446723
0.0408185 -0.424527
0.0311932 -0.444149
0.0432912 -0.434692
0.0530813 -0.44677
0.048173 -0.455971
0.0587196 -0.4336
0.0296695 -0.480563
0.0528979 -0.444974
0.0443505 -0.461615
0.0338586 -0.475679
-0.00537822 -0.471083
-0.0130519 -0.469751
-0.00877247 -0.472846
-0.020752 -0.465727
0.00118452 -0.469239
-0.00337921 -0.464683
-0.0132671 -0.464444
0.000110446 -0.46651
0.00840666 -0.609023
-0.00944977 -0.60735
-0.0061996 -0.629428
-0.00764691 -0.570442
-0.0205037 -0.596408
-0.0157195 -0.640404
0.0134054 -0.633097
0.0257911 -0.619645
0.019051 -0.590925
0.0220525 -0.524648
0.00845194 -0.551161
0.0169493 -0.56059
-0.00157689 -0.544596
0.0345497 -0.571604
0.0355083 -0.505199
0.0276938 -0.501194
0.0740352 -0.375039
0.0700345 -0.31526
0.0618932 -0.335551
0.0436567 -0.319803
0.0528121 -0.305969
0.07891 -0.354038
-0.0698912 -0.31706
-0.0771905 -0.385553
-0.0637308 -0.345229
-0.0545898 -0.315008
-0.0491071 -0.336837
-0.0776164 -0.355725
-0.0666496 -0.435573
-0.0676491 -0.441548
-0.0486263 -0.463425
-0.0857236 -0.416721
-0.0645969 -0.457178
-0.0286892 -0.501848
-0.0336439 -0.483563
-0.0664479 -0.430822
-0.074524 -0.413535
-0.00143302 -0.527265
0.0125594 -0.545973
-0.00269626 -0.519335
0.0266673 -0.57563
0.0255929 -0.564504
-0.0048711 -0.51356
-0.0198465 -0.493696
-0.0169985 -0.504917
8.4059e-05 -0.539598
-0.0534297 -0.447914
-0.0605571 -0.433366
-0.0610523 -0.434852
-0.061075 -0.427906
-0.0642377 -0.413733
-0.067779 -0.416025
-0.0627479 -0.433675
-0.0356339 -0.472558
-0.0435081 -0.462371
0.0264235 -0.488654
0.0136614 -0.511879
0.0285187 -0.492105
-0.00273737 -0.536227
0.0425323 -0.471147
0.0427424 -0.464184
0.0278624 -0.48377
0.0682992 -0.439628
0.0805045 -0.423909
0.0779332 -0.419031
0.0772416 -0.440958
0.0872658 -0.41079
0.0764451 -0.402961
0.0756565 -0.41466
0.0580849 -0.451552
0.0519587 -0.468587
0.0704524 -0.415006
0.0677704 -0.417471
0.0643196 -0.430399
0.0670935 -0.398519
0.0665892 -0.41356
0.0547474 -0.445761
0.0549737 -0.446644
0.0725184 -0.415723
0.0711054 -0.401241
0.0716263 -0.384917
0.0732186 -0.381995
0.0606603 -0.358903
0.0462033 -0.329898
0.0696733 -0.385102
0.0673943 -0.383921
0.066591 -0.385729
0.0642563 -0.38319
0.0501729 -0.341567
-0.065574 -0.373578
-0.0776484 -0.394118
-0.0741341 -0.395876
-0.0711996 -0.397768
-0.0524995 -0.34757
-0.06789 -0.394596
-0.066567 -0.399344
-0.0545343 -0.35569
-0.0638365 -0.394665
-0.0297425 -0.480519
-0.0184818 -0.49485
-0.0266895 -0.484875
-0.0275031 -0.484263
-0.0146563 -0.499525
-0.0371019 -0.472021
0.0139564 -0.502085
0.00052679 -0.51992
-0.00125572 -0.525738
0.00313581 -0.514384
-0.0102363 -0.533526
-0.0149191 -0.550962
0.0279667 -0.482075
0.0282991 -0.481439
0.0159321 -0.497355
0.0284563 -0.481076
0.00447883 -0.511887
0.0414631 -0.46412
0.0492211 -0.453404
0.0347849 -0.473543
0.00946091 -0.505234
0.0236714 -0.487693
0.0367857 -0.472136
0.0434383 -0.462433
-0.00199055 -0.519518
0.016512 -0.496676
0.0199727 -0.492675
0.00734095 -0.507117
-0.00405672 -0.512619
0.00791357 -0.526765
-0.0042482 -0.511818
0.0221275 -0.544752
0.0209348 -0.540907
-0.00329899 -0.512069
-0.00507836 -0.511915
0.0113262 -0.573676
0.0202156 -0.609572
0.0246955 -0.591518
0.00765485 -0.627478
0.0225752 -0.63693
0.036686 -0.604847
-0.00327984 -0.558454
-0.0178552 -0.605355
-0.00271334 -0.614555
-0.00734592 -0.58236
-0.0132577 -0.63347
-0.0169089 -0.539498
-0.0299394 -0.586156
-0.0253513 -0.62035
-0.0499195 -0.511635
-0.0411002 -0.560077
-0.031187 -0.528381
-0.0383917 -0.603349
-0.0529923 -0.582267
0.0463617 -0.633243
0.0397314 -0.651728
0.0527511 -0.658316
-0.0692093 -0.554013
-0.0805607 -0.508744
0.0658632 -0.664404
0.0493592 -0.61884
0.0611477 -0.505986
0.0447474 -0.501083
0.0459702 -0.541321
0.0384877 -0.602862
0.0530009 -0.58187
-0.037614 -0.632996
-0.0485121 -0.656748
-0.0341185 -0.654252
-0.0622778 -0.662946
0.0679737 -0.554004
0.0822326 -0.50943
-0.0352633 -0.606833
0.0759422 -0.524102
0.0845148 -0.519267
0.0751868 -0.513251
0.0911261 -0.524639
0.023752 -0.483006
0.0203636 -0.482593
0.0679894 -0.508634
0.0675459 -0.529081
0.0767969 -0.535436
0.0906937 -0.541622
0.104584 -0.545134
0.0994471 -0.533543
0.111121 -0.55481
0.0170273 -0.482293
0.0147281 -0.482141
0.0826006 -0.546427
0.110727 -0.592873
0.125038 -0.596397
0.121705 -0.582578
0.127291 -0.609531
0.0124476 -0.482047
0.0108797 -0.482015
0.115631 -0.568382
0.0969113 -0.58781
0.101925 -0.601205
0.112463 -0.617588
0.123361 -0.63275
0.126299 -0.621799
0.120102 -0.642118
0.116948 -0.665463
0.122528 -0.659789
0.100488 -0.612302
0.100031 -0.651813
0.106708 -0.662931
0.111471 -0.657034
0.100723 -0.667048
0.127603 -0.652865
0.132118 -0.644612
0.11624 -0.650528
0.093747 -0.640579
0.089833 -0.646717
0.0875203 -0.656231
0.0852728 -0.668427
0.0934522 -0.668832
0.0761172 -0.667337
0.135771 -0.63497
0.138349 -0.623867
0.0811151 -0.643454
-0.0851466 -0.654877
-0.093054 -0.668878
-0.08317 -0.666786
-0.100356 -0.667038
-0.116925 -0.664819
-0.110974 -0.669495
-0.0737981 -0.66556
-0.0740821 -0.634887
-0.0851461 -0.641876
-0.0987826 -0.651273
-0.110534 -0.656035
-0.10636 -0.662898
-0.115266 -0.649503
-0.104565 -0.673107
-0.0977111 -0.675979
-0.0880126 -0.63414
-0.11209 -0.620712
-0.126065 -0.623934
-0.122925 -0.632937
-0.127008 -0.611834
-0.0900685 -0.677898
-0.0815668 -0.679045
-0.119699 -0.642274
-0.100723 -0.616673
-0.102532 -0.607808
-0.102819 -0.55487
-0.104282 -0.540794
-0.111552 -0.550191
-0.0960256 -0.531969
-0.0972624 -0.517307
-0.105887 -0.525955
-0.117916 -0.559749
-0.102584 -0.567664
-0.0951431 -0.558458
-0.0737555 -0.521898
-0.0754258 -0.511869
-0.0819686 -0.517365
-0.0682059 -0.507244
-0.113631 -0.535174
-0.12037 -0.544812
-0.0886122 -0.522754
-0.0723725 -0.529906
-0.0657888 -0.524365
-0.126113 -0.554738
-0.0628169 -0.501378
-0.0575918 -0.498712
-0.0522279 -0.496477
-0.0484448 -0.508458
-0.13253 -0.569293
-0.0516367 -0.451951
-0.0338007 -0.47749
-0.0366131 -0.471523
0.0710616 -0.636759
0.0605144 -0.628684
0.0690424 -0.648879
0.0503901 -0.604591
0.0723823 -0.625725
0.0572525 -0.445478
0.0563656 -0.449563
0.0684558 -0.43003
-0.0624896 -0.628687
-0.0632687 -0.644481
-0.0502726 -0.619666
-0.0330981 -0.584889
-0.0607389 -0.611857
0.0611029 -0.366533
0.0477825 -0.334897
-0.0635843 -0.377315
-0.0531881 -0.350011
0.0587178 -0.530687
0.0574133 -0.520376
0.0555333 -0.510294
0.0463824 -0.512626
0.0931718 -0.572787
0.101344 -0.566111
0.0874693 -0.55993
0.0741362 -0.552706
0.0840865 -0.580324
0.0959345 -0.631977
0.107333 -0.637235
0.0983196 -0.623343
0.0869398 -0.605608
0.0842155 -0.624639
-0.0969689 -0.622616
-0.105933 -0.636828
-0.0937662 -0.629627
-0.0778432 -0.616796
-0.0866619 -0.608081
-0.07915 -0.538606
-0.0878754 -0.5365
-0.0867884 -0.547594
-0.087091 -0.559862
-0.0716183 -0.540371
-0.0556488 -0.5123
-0.0617259 -0.51063
-0.0611368 -0.517995
-0.0599504 -0.525493
-0.0480605 -0.515201
-0.0470845 -0.45786
-0.0457372 -0.460227
0.0496142 -0.585279
0.0500637 -0.594143
0.0616434 -0.605989
0.0378297 -0.579394
0.0729442 -0.616238
0.0485338 -0.577457
0.0354553 -0.563419
0.0523427 -0.448874
0.0584404 -0.438112
0.0594019 -0.537382
0.0492286 -0.528432
0.0427631 -0.523343
0.0436376 -0.529402
0.059689 -0.558979
0.0704247 -0.567309
0.0688069 -0.558078
0.0757222 -0.58154
0.0630343 -0.54546
0.0498041 -0.549159
0.0520578 -0.557374
0.0617615 -0.59
0.0738845 -0.607865
0.0747012 -0.600126
0.0754305 -0.590093
0.0486483 -0.571571
-0.0603075 -0.584634
-0.0749532 -0.598964
-0.0699843 -0.600136
-0.0781357 -0.594208
-0.06454 -0.602271
-0.0480305 -0.571611
-0.0532862 -0.572491
-0.0741626 -0.571846
-0.0857198 -0.577015
-0.0832877 -0.583108
-0.085999 -0.568619
-0.0947518 -0.579435
-0.0921174 -0.595409
-0.0815117 -0.590068
-0.0641981 -0.566497
-0.0663555 -0.561249
-0.0565772 -0.530407
-0.0517655 -0.52425
-0.0446535 -0.519973
-0.0398572 -0.525414
0.0246108 -0.555653
0.0232732 -0.549777
0.00981682 -0.532681
0.0482872 -0.54234
0.053908 -0.542429
0.0443157 -0.53483
0.0378856 -0.529427
0.0402738 -0.540867
0.0527377 -0.570443
0.0618551 -0.575444
0.0522425 -0.563332
0.0422342 -0.552567
0.0383917 -0.558058
-0.0611074 -0.569687
-0.0686218 -0.581006
-0.0578596 -0.572605
-0.0451048 -0.560697
-0.0528366 -0.55877
0.0288436 -0.54853
0.0155475 -0.532933
0.0077772 -0.523681
0.0159142 -0.531152
-0.00676887 -0.523444
-0.0209101 -0.539948
-0.0117859 -0.530664
-0.0283542 -0.546085
-0.0333805 -0.554584
-0.0171466 -0.538931
-0.00213176 -0.516857
0.033323 -0.538119
0.0316072 -0.532226
0.0236826 -0.52425
0.018493 -0.526042
0.0248351 -0.539254
0.0332285 -0.549395
0.0344653 -0.547702
0.0340893 -0.542942
0.017333 -0.530526
-0.0331584 -0.543384
-0.0426218 -0.551357
-0.0405922 -0.553079
-0.0456929 -0.549168
-0.0357633 -0.551818
-0.0228548 -0.535139
-0.0249648 -0.534388
-0.0488575 -0.54642
-0.0383374 -0.539885
-0.0305872 -0.530166
-0.0364119 -0.529445
-0.023605 -0.538927
-0.0152234 -0.529294
0.0253373 -0.533723
0.0191953 -0.529903
-0.0687213 -0.555738
-0.0695139 -0.547578
-0.0773445 -0.557745
-0.0624781 -0.539003
-0.0581789 -0.550987
-0.0449074 -0.533349
-0.0546094 -0.537061
-0.0510947 -0.54169
-0.104611 -0.589168
-0.11474 -0.600765
-0.104986 -0.600102
-0.127919 -0.600818
-0.105496 -0.58028
-0.123876 -0.57435
-0.125735 -0.587137
-0.112519 -0.577059
-0.136847 -0.583713
-0.139118 -0.597588
-0.0266804 -0.558018
-0.0438352 -0.585847
-0.0320711 -0.573285
-0.0569213 -0.598259
-0.0238286 -0.550397
-0.041303 -0.56716
-0.0471847 -0.578809
-0.0325261 -0.559482
-0.00564688 -0.445151
-0.0139639 -0.436977
-0.0411225 -0.311486
-0.0480644 -0.334226
-0.0410642 -0.363559
-0.0433075 -0.387733
0.0283488 -0.420744
0.0302138 -0.401444
-0.00587648 -0.506568
-0.0157188 -0.495313
0.0417901 -0.43301
0.0412 -0.44092
0.00177353 -0.460952
0.00711836 -0.458415
-0.0486227 -0.0654806
-0.0441168 -0.0648436
-0.0122087 -0.0559109
-0.0109727 -0.0275322
0.0272654 -0.424949
0.0201524 -0.422275
0.0488695 -0.282501
0.0468255 -0.337026
-0.0477227 -0.433152
-0.0480044 -0.422889
-0.000760582 -0.00241116
-0.00468732 -0.0272959
-0.0645102 -0.346826
-0.0359673 -0.312965
0.065967 -0.398811
0.0630555 -0.378083
-0.0227517 -0.271992
-0.0151643 -0.24288
-0.0162753 -0.203417
-0.0192541 -0.192843
-0.00875787 -0.461216
-0.00859707 -0.461701
-0.0413709 -0.313216
-0.0478308 -0.333194
0.0185036 -0.017651
0.0331672 -0.0328586
0.0208543 -0.473872
0.0224439 -0.476161
0.0480953 -0.437954
0.0451361 -0.447905
-0.0752208 -0.374953
-0.0529898 -0.338269
0.0232952 -0.465394
0.0185095 -0.464745
0.0385412 -0.297656
0.0329379 -0.294124
0.0219861 -0.472655
0.0183426 -0.471803
-0.029807 -0.476393
-0.0246996 -0.483416
0.0429825 -0.462818
0.0424412 -0.464483
-0.00114159 -0.211471
0.0126139 -0.172731
0.0258739 -0.358565
0.0320546 -0.325265
-0.0080143 -0.435072
-0.0174553 -0.427439
-0.0144204 -0.421878
-0.00520014 -0.4308
0.00250574 -0.125046
0.00557857 -0.152592
-0.0125994 -0.485908
-0.00503248 -0.488235
-0.0503903 -0.342626
-0.0645705 -0.378721
0.00309455 -0.477945
0.0014713 -0.477344
-0.00419843 -0.343753
-0.000237205 -0.376263
-0.0259859 -0.413423
-0.0481527 -0.408404
-0.0331919 -0.428996
-0.0239003 -0.41875
-0.0415252 -0.462522
-0.035298 -0.468102
0.0535457 -0.358369
0.0559285 -0.364248
-0.0696165 -0.337476
-0.0654222 -0.369353
-0.0313022 -0.27032
-0.0256021 -0.22181
-0.0185999 -0.216421
-0.0173254 -0.227381
-0.0254895 -0.258738
-0.0357238 -0.294368
-0.0234107 -0.212566
-0.0212012 -0.223462
-0.0519288 -0.433313
-0.0466604 -0.441305
-0.0403506 -0.443761
-0.0333772 -0.450498
-0.0383747 -0.445848
-0.0401533 -0.448669
-0.0491218 -0.451521
-0.0454156 -0.455471
-0.00776387 -0.1887
0.00312919 -0.171227
-0.00466203 -0.463109
-0.0116116 -0.461168
-0.0425267 -0.393996
-0.0350243 -0.405888
0.0473375 -0.331246
0.0406007 -0.307917
-0.0107375 -0.463056
-0.01019 -0.462352
-0.0328521 -0.466344
-0.0344598 -0.468264
-0.0520166 -0.43555
-0.0558807 -0.420902
0.0515852 -0.360159
0.0472325 -0.330982
-0.0082532 -0.451849
-0.0153516 -0.452337
0.0295204 -0.0999849
0.0246528 -0.0904485
-0.0374161 -0.469739
-0.0445825 -0.459641
-0.0309481 -0.0764617
-0.0234931 -0.0828958
-9.61823e-05 -0.464899
-0.000296069 -0.463889
-0.0667562 -0.398147
-0.0620036 -0.373846
0.0221994 -0.453859
0.0148672 -0.45926
-0.0589931 -0.400239
-0.0587302 -0.381005
-0.0283751 -0.445737
-0.0226455 -0.453787
0.0351951 -0.109793
0.0305238 -0.123743
-0.00811061 -0.182254
-0.00119689 -0.206099
0.0408921 -0.316516
0.0262171 -0.277995
0.0384541 -0.468297
0.0557504 -0.443946
-0.0141969 -0.479481
-0.00909222 -0.478946
-0.0225783 -0.268874
-0.0333847 -0.300099
-0.00151585 -0.202397
-0.000752708 -0.187266
0.0704655 -0.400412
0.0731611 -0.418999
-0.00554785 -0.460775
-0.00158263 -0.46366
-0.0139595 -0.477115
-0.00851527 -0.477615
-0.0360754 -0.47101
-0.0333593 -0.476075
-0.0144574 -0.359004
-0.00574134 -0.330818
0.0252462 -0.240119
0.028627 -0.291867
0.00923279 -0.213389
0.0121842 -0.23408
0.0341009 -0.0338044
0.0314757 -0.0382178
0.0530821 -0.446966
0.0579968 -0.43386
0.0129025 -0.222476
0.0243148 -0.260523
0.00503417 -0.18729
0.0178037 -0.150572
0.0429259 -0.464195
0.0339677 -0.475716
0.0122595 -0.473185
0.0164457 -0.473665
0.0528874 -0.447292
0.0511608 -0.44987
-0.0462172 -0.359625
-0.0486147 -0.349864
0.000614938 -0.479216
-0.000293148 -0.478691
-0.0230222 -0.26072
-0.0244108 -0.253964
-0.0220188 -0.0603113
-0.0254662 -0.0458723
-0.00723464 -0.0427944
0.000119101 -0.0447955
0.0354954 -0.0325882
0.0429117 -0.0458999
-0.0353232 -0.473226
-0.0507421 -0.452071
-0.00248425 -0.463107
-0.00444644 -0.461262
-0.00317408 -0.4605
-0.00103422 -0.45464
-0.0239657 -0.474772
-0.0176649 -0.476411
-0.0113017 -0.185123
-0.00405685 -0.144272
-0.065305 -0.41508
-0.0613139 -0.427611
-0.00114966 -0.463884
0.0003552 -0.464713
0.060265 -0.423967
0.0627959 -0.40807
0.0251733 -0.129637
0.0328457 -0.102158
0.0521288 -0.445862
0.0466526 -0.454464
0.0096474 -0.388572
-0.0073494 -0.390261
0.00706171 -0.460258
0.00205431 -0.463333
-0.0126088 -0.115767
-0.0142114 -0.0869934
-0.0150041 -0.158807
-0.0246993 -0.126309
-0.0195159 -0.478345
-0.013242 -0.480106
-0.0221701 -0.250595
-0.00799814 -0.247307
0.0627876 -0.419395
0.0622776 -0.401735
-0.012293 -0.16085
-0.0139878 -0.185343
-0.0217796 -0.211834
-0.0147433 -0.205906
-0.0169532 -0.0206626
-0.0189883 -0.0191598
-0.0393203 -0.295391
-0.0412063 -0.304314
0.00179293 -0.464044
0.000355283 -0.464972
0.00275001 -0.0448318
0.00567211 -0.0247096
0.0558668 -0.433796
0.0594571 -0.418563
-0.0469944 -0.357678
-0.0423973 -0.336688
-0.0400263 -0.0959729
-0.0377765 -0.0963812
-0.031877 -0.43521
-0.0200062 -0.430792
-0.021062 -0.435924
-0.0249646 -0.440607
-0.0118195 -0.441576
-0.00614389 -0.429916
0.0482191 -0.444288
0.0423268 -0.451045
0.0485588 -0.411558
0.0459158 -0.401432
-0.0277524 -0.257839
-0.0320638 -0.280229
-0.048135 -0.455925
-0.0493093 -0.45234
-0.00441316 -0.452565
-0.00128093 -0.460265
0.00448342 -0.456792
0.011275 -0.451836
-0.0182812 -0.239615
-0.00704762 -0.201147
-0.00227237 -0.00295901
-0.0159751 -0.0242776
-0.0347139 -0.280681
-0.0313581 -0.276806
0.015088 -0.438404
0.00515637 -0.431332
0.0467856 -0.282297
0.0122616 -0.287637
0.0245883 -0.375997
0.059749 -0.364845
-0.0171668 -0.0424596
-0.00944449 -0.0267248
-0.0584231 -0.411225
-0.0608902 -0.40402
0.0182908 -0.244905
0.019305 -0.257736
-0.0346825 -0.475568
-0.044055 -0.462509
0.0215264 -0.45517
0.0290429 -0.449736
-0.0229888 -0.45299
-0.0251524 -0.454118
-0.0447352 -0.447526
-0.0502746 -0.439304
0.0589047 -0.43303
0.0571327 -0.43489
-0.000475253 -0.466929
0.00297763 -0.468691
-0.0228742 -0.473522
-0.0228604 -0.47101
0.0641834 -0.40669
0.0617332 -0.409976
0.0261183 -0.469986
0.0304261 -0.469885
-0.0404886 -0.0776043
-0.0446232 -0.0792291
-0.0161034 -0.459561
-0.0231619 -0.456227
-0.0498302 -0.394991
-0.046998 -0.382018
0.0109919 -0.477777
0.00617246 -0.478725
0.0531673 -0.349253
0.0537961 -0.351199
0.011639 -0.345331
0.0190109 -0.375293
0.0143434 -0.205394
0.0134487 -0.180439
0.00486164 -0.00342898
0.0224812 -0.019372
-0.00263757 -0.0457828
0.00601207 -0.106478
-0.0196608 -0.0693023
-0.0136463 -0.104323
0.0354354 -0.0439446
0.0240216 -0.0243768
-0.0156874 -0.444516
-0.0225774 -0.4418
0.0277044 -0.483508
0.0163535 -0.49666
-0.0366946 -0.431985
-0.0399122 -0.416588
-0.0309374 -0.0717595
-0.0239088 -0.075297
0.0174603 -0.456103
0.0250894 -0.449296
0.0247633 -0.112784
0.033723 -0.0938467
-0.0205425 -0.484579
-0.0203775 -0.480756
-0.00334981 -0.472341
-0.0105302 -0.471553
-0.0202645 -0.0974684
-0.0103946 -0.13003
-0.047423 -0.332619
-0.0498174 -0.354386
-0.0548475 -0.422782
-0.0546232 -0.432501
0.0162869 -0.200391
0.0282829 -0.239369
0.0232284 -0.477583
0.027632 -0.477224
0.056715 -0.425133
0.0527879 -0.439784
0.00594429 -0.225941
0.0031159 -0.212497
0.0101922 -0.478064
0.0112234 -0.48066
-0.00406821 -0.388672
0.0117024 -0.384659
0.0275826 -0.123061
0.033176 -0.116764
-0.0132225 -0.463878
-0.0147649 -0.465674
-0.039172 -0.467684
-0.0312705 -0.476651
-0.0394651 -0.469014
-0.0327994 -0.476522
0.044764 -0.367492
0.0439303 -0.392729
-0.00951939 -0.419165
-0.0137553 -0.396873
-0.00717283 -0.462354
-0.00390236 -0.463255
0.0173152 -0.351332
-0.00574062 -0.35097
0.0216105 -0.216764
0.0284627 -0.271203
0.0409761 -0.378077
0.0419297 -0.398838
-0.0119055 -0.286064
-0.0149214 -0.220738
0.00720749 -0.461823
0.0126128 -0.459204
0.0188894 -0.481396
0.0200419 -0.477213
0.0263141 -0.224973
0.0247358 -0.233299
0.0370109 -0.471477
0.0412472 -0.466404
-0.041849 -0.314025
-0.0381022 -0.308333
-0.0258471 -0.255447
-0.0318309 -0.267055
-0.044315 -0.459548
-0.0382114 -0.469111
0.0514132 -0.431628
0.0461979 -0.443288
-0.00162732 -0.463306
-0.00203209 -0.462947
0.0242194 -0.48094
0.0175182 -0.488932
0.00478182 -0.462884
0.00457664 -0.462958
-0.00103537 -0.463478
-0.0047291 -0.463042
0.0467378 -0.448961
0.0472534 -0.442303
-0.0429957 -0.0836488
-0.0380409 -0.101504
0.0182627 -0.476312
0.0126677 -0.478432
-0.0160129 -0.163672
-0.00942602 -0.182125
0.0422503 -0.392973
0.0474711 -0.392328
-0.0195192 -0.449333
-0.0145053 -0.456555
0.0298578 -0.470774
0.0271398 -0.469487
-0.00901763 -0.170292
-0.00221682 -0.128874
-0.0165275 -0.339179
-0.00135516 -0.300876
-0.00182717 -0.461718
-0.00447652 -0.461967
-0.0328123 -0.462091
-0.0352794 -0.463648
0.0399426 -0.468252
0.0482524 -0.45584
-0.0197982 -0.383853
-0.0180129 -0.407919
0.0105601 -0.465512
0.0133333 -0.467111
0.0440861 -0.460707
0.0342222 -0.474349
-0.0206125 -0.463423
-0.0284464 -0.460012
0.0377876 -0.0784865
0.0431994 -0.0735311
0.0644566 -0.405013
0.0621403 -0.415517
0.00508378 -0.462697
-0.00240789 -0.463421
0.0544166 -0.38551
0.0516691 -0.363632
0.00471916 -0.196938
0.0102347 -0.179993
-0.00239275 -0.200346
-0.0147121 -0.226279
-0.00693253 -0.481659
-0.00168711 -0.485179
0.0155189 -0.0229351
0.0251341 -0.0466711
0.0435949 -0.070512
0.038501 -0.0673285
-0.0204629 -0.482999
-0.0136658 -0.485119
-0.0208115 -0.461053
-0.0283635 -0.455955
0.0408922 -0.312885
0.00849096 -0.314565
-0.0029553 -0.464251
-0.000582412 -0.465257
-0.0277709 -0.459755
-0.0262147 -0.457723
-0.0315028 -0.072019
-0.0313712 -0.0492076
-0.00410277 -0.463528
0.00158216 -0.464066
0.000901884 -0.464225
-0.000710464 -0.465544
-0.059231 -0.419481
-0.0561089 -0.424573
-0.0418862 -0.464274
-0.0379282 -0.470228
-0.0306162 -0.277703
-0.0360366 -0.30039
-0.00156307 -0.415915
0.00450322 -0.431314
0.000449923 -0.464644
0.0051981 -0.462422
0.0187262 -0.46281
0.0264233 -0.460327
0.0257084 -0.0808771
0.0220021 -0.111912
-0.0143055 -0.290323
-0.0242878 -0.320573
0.0138741 -0.158356
0.0110816 -0.176647
0.0215407 -0.479528
0.0152832 -0.480903
0.0160253 -0.417353
0.0356994 -0.405492
0.0257526 -0.438572
0.0204286 -0.437853
0.00349068 -0.125382
0.00837831 -0.14027
0.00664557 -0.489833
0.00435782 -0.484748
0.0442289 -0.452934
0.047055 -0.452662
-0.0280721 -0.447935
-0.0343349 -0.443559
-0.0339888 -0.278566
-0.0399205 -0.2985
0.0677883 -0.384299
0.0589271 -0.364871
0.00417045 -0.029302
-0.0046244 -0.0950244
0.0183802 -0.480017
0.0195277 -0.483511
-0.0288452 -0.286248
-0.0383199 -0.313038
0.0192338 -0.0861693
0.0182817 -0.057156
-0.00236511 -0.457276
0.000765091 -0.462004
-0.0218513 -0.264777
-0.0326661 -0.297215
-0.0488745 -0.355281
-0.0461558 -0.328689
-0.0589344 -0.375686
-0.0541935 -0.357838
0.0378106 -0.0940319
0.0350546 -0.110516
0.0381841 -0.442699
0.0316299 -0.447553
-0.021727 -0.438681
-0.0111849 -0.433886
-0.0334123 -0.447141
-0.0260585 -0.453135
-0.0192957 -0.127466
-0.00512372 -0.191316
-0.0539734 -0.443197
-0.0495495 -0.450407
0.0132525 -0.473993
0.0152968 -0.475303
-0.0100829 -0.387208
0.00295325 -0.403221
0.0258325 -0.251871
0.0371559 -0.289976
-0.047791 -0.055015
-0.0463629 -0.0683562
-0.0407051 -0.318739
-0.0246257 -0.27604
-0.0131815 -0.217954
-0.0221512 -0.235387
0.0160216 -0.430192
0.00269374 -0.435256
0.0472408 -0.333942
0.0323145 -0.29571
-0.0035113 -0.475577
-0.00115958 -0.474031
-0.00309648 -0.482518
-0.00618175 -0.486954
-0.0299785 -0.280296
-0.0377929 -0.307861
-0.0258798 -0.439725
-0.0190836 -0.449751
0.0567643 -0.36282
0.0622715 -0.385369
-0.00107393 -0.474002
-0.00402838 -0.472287
-0.0539206 -0.413508
-0.0498387 -0.418323
-0.0734517 -0.420972
-0.0648547 -0.430657
-0.0254824 -0.126709
-0.029497 -0.125096
0.0191816 -0.0279389
0.0118164 -0.0171211
0.0141704 -0.107051
0.0230457 -0.0784512
0.025529 -0.481329
0.0167319 -0.489139
-0.00383873 -0.012091
-0.00488535 -0.0275766
-0.0629282 -0.384283
-0.055612 -0.357925
0.0230207 -0.211991
0.012669 -0.167149
0.0244828 -0.137545
0.0212365 -0.150949
0.0473454 -0.456214
0.061015 -0.434086
0.0491747 -0.453787
0.0553958 -0.443713
-0.0320229 -0.251984
-0.0396247 -0.29279
0.00527012 -0.1219
-0.00702671 -0.0650946
0.0523977 -0.448292
0.0579021 -0.436212
-0.000342344 -0.457474
0.00283496 -0.449433
0.0156799 -0.344125
-0.00722066 -0.327959
0.038787 -0.293684
0.0310763 -0.259285
0.0271156 -0.0591189
0.0209967 -0.0691854
0.00978656 -0.434731
0.00873582 -0.448004
0.0146034 -0.135212
0.00508483 -0.145791
-0.0448925 -0.327031
-0.0323578 -0.290797
-0.0503138 -0.449062
-0.0525091 -0.440243
0.00112375 -0.480078
0.00257075 -0.481093
0.0539851 -0.435095
0.0496552 -0.448079
0.0357349 -0.471911
0.0511172 -0.450601
0.00194111 -0.405455
-0.00657354 -0.420864
0.0132094 -0.0166899
0.0247881 -0.0385957
0.0126931 -0.126996
0.0155729 -0.140658
-0.00579356 -0.0177197
-0.0129391 -0.0324858
-0.0413629 -0.466526
-0.0447823 -0.461703
0.00568602 -0.21076
0.0183884 -0.241433
-0.0768524 -0.405142
-0.0710878 -0.439522
0.00315772 -0.196761
0.00948843 -0.23144
0.000529755 -0.473117
-0.00632439 -0.473154
-0.00202249 -0.196755
-0.00383601 -0.19868
-0.0366669 -0.461049
-0.0296704 -0.466208
0.00348308 -0.419097
-0.00759297 -0.42883
-0.0300039 -0.088012
-0.0234793 -0.0856623
-0.0337832 -0.452864
-0.0261215 -0.458476
0.0441219 -0.395818
0.0456994 -0.410373
0.0362167 -0.0973913
0.0328862 -0.116759
-7.50447e-05 -0.463965
0.00119843 -0.463751
0.0259416 -0.226039
0.0351469 -0.268487
-0.0118488 -0.0703316
-0.00577961 -0.0702751
0.0308721 -0.465405
0.026738 -0.46499
-0.0374593 -0.0365009
-0.0208074 -0.0177282
0.0195448 -0.245358
0.0227028 -0.264088
-0.0331052 -0.475913
-0.048582 -0.455158
-0.0388253 -0.309995
-0.0330519 -0.269114
-0.0216414 -0.484832
-0.0180771 -0.483932
-0.0435744 -0.443011
-0.0485285 -0.43112
-0.00016817 -0.464684
0.000400334 -0.464427
-0.0174003 -0.478191
-0.0176228 -0.481534
0.0289403 -0.238769
0.036693 -0.277908
-0.0309568 -0.46299
-0.0309714 -0.466442
-0.0294223 -0.289823
-0.0186156 -0.26091
-0.0505521 -0.348223
-0.0514138 -0.364159
-0.0123028 -0.455094
-0.018127 -0.445777
0.0112083 -0.424384
0.0240083 -0.429981
-0.00141079 -0.484913
-0.00150512 -0.481057
-0.0019225 -0.463495
-0.00334234 -0.463314
0.054283 -0.444143
0.0575542 -0.432932
0.0213036 -0.456709
0.0273742 -0.450342
-0.0500969 -0.376219
-0.0507644 -0.357353
0.0422791 -0.275601
0.00748014 -0.274779
0.0429158 -0.399944
0.0425458 -0.416826
0.00759643 -0.456717
0.0086891 -0.44793
-0.0408433 -0.447518
-0.0338506 -0.454429
-0.0248778 -0.471016
-0.0282358 -0.466759
0.025848 -0.463587
0.0318701 -0.462353
-0.0409413 -0.461644
-0.0389305 -0.460325
0.0222689 -0.470889
0.0220018 -0.47364
-0.0593287 -0.425418
-0.0552684 -0.441058
-0.00109999 -0.476218
-0.002286 -0.477456
-0.0131405 -0.437983
-0.00468532 -0.445588
-0.0291762 -0.282033
-0.0159387 -0.248491
0.0498914 -0.383261
0.0637024 -0.355772
-0.0543029 -0.443647
-0.0594865 -0.429641
-0.0430415 -0.459368
-0.0364055 -0.467666
-0.00244819 -0.502806
-0.0124659 -0.496032
-0.0434421 -0.434095
-0.0444564 -0.422641
-0.0151181 -0.195397
-0.0118931 -0.203119
0.0511698 -0.393977
0.0489515 -0.375466
0.0523656 -0.35317
0.0559795 -0.378873
-0.0135694 -0.465856
-0.0216865 -0.463152
-0.0614823 -0.367236
-0.0473498 -0.334974
-0.0287493 -0.418578
-0.0209689 -0.435858
0.0259001 -0.46123
0.0236264 -0.45962
0.0495201 -0.453032
0.0479998 -0.455505
0.00414537 -0.155721
0.0156504 -0.134423
-0.0507306 -0.341725
-0.050687 -0.375106
-0.0157912 -0.481998
-0.0159654 -0.478565
0.0223494 -0.437931
0.0299779 -0.428046
-0.058066 -0.425961
-0.0559802 -0.423707
-0.03254 -0.460589
-0.0316514 -0.457453
-0.0387264 -0.0857404
-0.0382739 -0.0994498
0.00718747 -0.383032
-0.00458525 -0.361719
-0.0250515 -0.457599
-0.0325311 -0.451003
-0.0377992 -0.452766
-0.0304653 -0.458769
-0.0115079 -0.0221132
-0.0129142 -0.0427597
-0.00148285 -0.284493
0.00642733 -0.335094
0.0070408 -0.34126
0.0159004 -0.301793
0.00455981 -0.0702699
-0.00576833 -0.122476
-0.0112868 -0.473394
-0.00538581 -0.474634
0.04141 -0.36348
0.0395364 -0.390274
-0.0111818 -0.164838
0.00295122 -0.124167
0.0901916 -0.416203
0.0671083 -0.371356
-0.00301123 -0.461105
-0.000879277 -0.464254
-0.0377676 -0.0385405
-0.0324995 -0.0391282
-0.0283785 -0.0940482
-0.0223099 -0.125322
-0.0248797 -0.120371
-0.0252585 -0.135487
0.0226192 -0.325784
0.0261068 -0.282179
-0.0142754 -0.451844
-0.00741265 -0.459184
-0.00724094 -0.12386
-0.0130739 -0.194691
-0.0180198 -0.462741
-0.0250348 -0.461053
0.0492159 -0.337979
0.0493052 -0.347993
0.0813954 -0.399247
0.0648468 -0.371016
0.00543567 -0.219602
0.0198183 -0.258566
0.0404123 -0.465398
0.0341903 -0.471193
-0.0145837 -0.245253
-0.00472744 -0.211173
-0.00678556 -0.477742
-0.0113261 -0.47661
-0.00850827 -0.478536
-0.00552577 -0.477874
-0.0235381 -0.486578
-0.0142726 -0.494328
0.00564276 -0.0879264
-0.00515487 -0.13577
-0.0504425 -0.439496
-0.0549978 -0.426126
0.0628224 -0.402847
0.0647216 -0.395877
-0.0569836 -0.440227
-0.0587876 -0.432723
-0.022689 -0.435704
-0.0297255 -0.442309
0.00541647 -0.109382
-0.00542387 -0.040313
0.0511109 -0.435506
0.0461364 -0.447356
-0.0213779 -0.432094
-0.0129203 -0.420783
-0.00594157 -0.355595
-0.0120645 -0.382405
-0.0146944 -0.0168384
-0.00104947 -0.00119662
-0.0261129 -0.468093
-0.0219189 -0.467542
0.0489435 -0.454094
0.0396484 -0.468329
-0.0590041 -0.37703
-0.0543114 -0.359232
-0.0186256 -0.157153
-0.00671382 -0.189373
0.0467891 -0.337863
0.0435776 -0.339598
0.0373462 -0.469196
0.0421742 -0.461242
0.0512826 -0.450164
0.0576624 -0.439866
-0.0402754 -0.468293
-0.0469781 -0.457628
-0.00965683 -0.0268289
-0.00233198 -0.00756906
-0.0046756 -0.463408
-0.00233623 -0.464184
0.0168255 -0.386692
0.0064755 -0.371625
0.017234 -0.495733
0.023153 -0.488507
-0.0155446 -0.449571
-0.0170874 -0.438696
-0.0480064 -0.457372
-0.0614116 -0.436213
0.00312889 -0.48125
0.00870147 -0.482942
0.00989488 -0.18973
0.0222017 -0.220988
0.0369668 -0.0674818
0.0365084 -0.0486494
-0.0622451 -0.43288
-0.0668059 -0.412461
0.0279747 -0.432527
0.0322018 -0.434098
0.0357255 -0.325085
0.0405036 -0.353232
-0.00351903 -0.475953
-0.00840025 -0.476171
-0.0574154 -0.355806
-0.0435396 -0.325844
0.00684671 -0.099699
0.0128161 -0.169638
-0.00135561 -0.463062
-0.00670475 -0.460618
0.0338721 -0.290103
0.0431961 -0.315483
-0.0476246 -0.0591948
-0.0420909 -0.0557467
0.000693552 -0.088055
-0.00131831 -0.105016
-0.0109075 -0.486672
-0.00686929 -0.494135
0.0462121 -0.419708
0.040283 -0.427377
0.00811724 -0.00759938
0.0231886 -0.0264479
0.000752619 -0.477276
0.00161099 -0.475953
-0.0135484 -0.44423
-0.00825007 -0.453944
0.0214046 -0.413352
0.0283178 -0.395675
-0.00717794 -0.478966
-0.00322147 -0.479908
-0.0456656 -0.0784832
-0.0487289 -0.0642809
0.00867474 -0.077527
0.00910118 -0.038878
0.00199253 -0.488496
0.0050025 -0.493099
-0.0274907 -0.478849
-0.0258872 -0.483162
0.0530647 -0.44706
0.0500452 -0.45285
-0.029502 -0.479504
-0.0330429 -0.477145
0.0773073 -0.399552
0.0584223 -0.347807
-0.00816996 -0.480474
-0.00863756 -0.484297
0.0165014 -0.203504
0.0229801 -0.223687
-0.0378035 -0.305181
-0.0478255 -0.333055
0.0293349 -0.480343
0.0190184 -0.491477
0.0423036 -0.3068
0.0326739 -0.271585
-0.0454339 -0.0557532
-0.0396204 -0.052465
0.00648826 -0.467905
2.68379e-05 -0.467263
-0.0246301 -0.277054
-0.0381381 -0.312608
0.0248332 -0.397616
0.0312591 -0.375783
0.00839564 -0.463943
0.0134514 -0.461461
-0.0517689 -0.421124
-0.0472868 -0.42533
-0.0262795 -0.463624
-0.0209023 -0.468313
0.0422639 -0.461768
0.0363591 -0.467078
-0.018562 -0.473026
-0.0170287 -0.471236
-0.0134967 -0.25778
-0.0382981 -0.307964
0.038485 -0.295667
0.0317302 -0.293888
-0.0374344 -0.462582
-0.0309429 -0.468701
0.0352835 -0.322935
0.0361963 -0.289989
0.00412588 -0.478562
0.00536409 -0.479367
0.0416133 -0.367182
0.0447077 -0.386545
-0.01034 -0.0202338
-0.00272747 -0.00670067
-0.0387074 -0.288676
-0.0444392 -0.324943
-0.0218151 -0.072246
-0.0177941 -0.105228
-0.00651853 -0.401138
0.00689248 -0.410324
-0.0121321 -0.460108
-0.0048883 -0.463059
0.0195264 -0.354971
0.0184999 -0.31764
0.0187583 -0.213279
0.013693 -0.168417
-0.0023953 -0.463123
0.00125229 -0.463804
0.0379228 -0.379383
0.0297057 -0.371799
-0.0291929 -0.0257645
-0.0268021 -0.0266826
-0.0112003 -0.486228
-0.0120757 -0.481502
0.0251083 -0.455909
0.0330442 -0.449418
0.00546318 -0.468006
-0.00148437 -0.469992
-0.023395 -0.471172
-0.016832 -0.472468
0.000483222 -0.478955
-0.00128957 -0.478652
0.00971593 -0.271618
0.0249438 -0.267602
0.0169041 -0.471638
0.0225426 -0.468284
-0.00998936 -0.465887
-0.00329535 -0.467692
-0.0200466 -0.477566
-0.0164171 -0.481778
0.0105589 -0.462231
0.0145807 -0.459747
-0.004868 -0.0553577
-0.00215209 -0.00937146
0.00308557 -0.476906
0.0019808 -0.475757
0.00476497 -0.475499
0.0100657 -0.474842
-0.0361005 -0.299251
-0.0282535 -0.293987
-0.00779126 -0.462209
-0.00220936 -0.463528
0.0170087 -0.495978
0.0208813 -0.490927
-0.00693619 -0.463786
-0.00214842 -0.465175
0.060078 -0.425655
0.0559785 -0.436202
-0.0404165 -0.0597109
-0.0443191 -0.0528342
0.0499332 -0.452338
0.0407789 -0.464979
0.0485492 -0.39553
0.0458524 -0.415007
0.0505483 -0.381706
0.0501053 -0.357156
-0.0356757 -0.28825
-0.0401546 -0.307908
0.0246674 -0.465232
0.0246539 -0.462032
0.0107956 -0.457087
0.00605667 -0.458785
0.0189326 -0.456503
0.0122367 -0.459974
-0.0267288 -0.404508
-0.00667307 -0.403842
0.0306761 -0.0368938
0.040534 -0.0530758
0.02684 -0.451755
0.0322959 -0.449312
-0.0265023 -0.458407
-0.0199793 -0.460287
-0.0407363 -0.447705
-0.0463842 -0.44232
-0.0232726 -0.143988
-0.0146789 -0.166513
-0.0545799 -0.439043
-0.0510255 -0.44336
0.0112059 -0.472029
0.0117751 -0.469412
0.0147081 -0.029566
0.022516 -0.0449456
0.0325857 -0.476977
0.0186983 -0.49412
-0.0155662 -0.489888
-0.019577 -0.483282
-0.029507 -0.240783
-0.0314618 -0.262306
7.32887e-05 -0.479132
0.000840162 -0.479319
-0.0023629 -0.174711
-0.00564581 -0.147124
-0.0473652 -0.332101
-0.052773 -0.355535
-0.00575638 -0.48125
-0.00267729 -0.485725
0.00493728 -0.133942
0.0161281 -0.108643
-0.012868 -0.0142293
-0.0146523 -0.013458
-0.0328033 -0.285939
-0.0204226 -0.248525
-0.00126384 -0.00227323
-0.000802511 -0.000947619
0.0730715 -0.421319
0.0697033 -0.414858
-0.00718733 -0.161201
0.00499596 -0.200607
0.0482352 -0.378971
0.0369146 -0.400885
-0.0576502 -0.397028
-0.0576733 -0.415017
-0.00631578 -0.469523
-0.000184067 -0.467785
0.0562461 -0.429725
0.0587908 -0.413212
-0.0599415 -0.384056
-0.0551085 -0.361748
0.00530205 -0.193646
0.0100452 -0.182075
-0.00632829 -0.453006
-0.00573355 -0.460082
0.0188672 -0.490564
0.0110506 -0.495528
0.00133972 -0.474955
-6.00715e-05 -0.473328
0.0472863 -0.448286
0.0409661 -0.456494
-0.00453183 -0.463212
-0.000656242 -0.463625
0.00643855 -0.462415
0.00981485 -0.461075
-0.0154827 -0.473718
-0.00933518 -0.475115
0.058744 -0.418408
0.0563237 -0.434158
0.0427713 -0.460543
0.036036 -0.469478
0.0272634 -0.133218
0.0272446 -0.131673
-0.033816 -0.0493094
-0.0390711 -0.0678612
0.0421815 -0.463653
0.0471871 -0.454471
-0.0378509 -0.465559
-0.0313099 -0.472476
0.0365944 -0.315821
0.0627372 -0.276262
-0.0580126 -0.400949
-0.0559784 -0.382838
-0.00863188 -0.172233
0.00553028 -0.209397
-0.0029254 -0.46286
0.000968648 -0.463781
-0.00847526 -0.0892821
0.000803528 -0.130732
-0.0179652 -0.148208
-0.0230845 -0.119292
0.0451673 -0.457411
0.0388453 -0.467116
-0.0273102 -0.466971
-0.0237244 -0.471137
-0.052988 -0.350862
-0.0607397 -0.375289
0.0230028 -0.119734
0.0344411 -0.102907
-0.0136661 -0.207022
-0.000695473 -0.175816
0.0446761 -0.458922
0.0509695 -0.447463
0.0420459 -0.063577
0.0405774 -0.0846296
0.0192098 -0.152615
0.028769 -0.121628
0.0371141 -0.471865
0.0479691 -0.45635
0.0423147 -0.301576
0.0631588 -0.363172
0.045467 -0.32271
0.0409406 -0.302136
0.0499665 -0.415038
0.0447831 -0.428473
-0.0563866 -0.370875
-0.056578 -0.386603
-0.000403492 -0.466007
0.00110774 -0.467848
0.0383428 -0.297904
0.0441697 -0.320416
0.036385 -0.0585807
0.0364042 -0.0822039
0.000871391 -0.479237
0.00198285 -0.478642
-0.0207463 -0.476058
-0.0272848 -0.473445
-0.0359709 -0.368077
-0.0271623 -0.388231
-0.0346952 -0.274529
-0.0393395 -0.315449
-0.0142035 -0.479243
-0.0117086 -0.482871
-0.00447108 -0.17762
0.00440122 -0.13691
-0.0207702 -0.108725
-0.0259532 -0.0768631
0.0052178 -0.477324
0.00957933 -0.476503
-0.00699342 -0.133207
-0.0131551 -0.194409
-0.0530103 -0.448562
-0.0630106 -0.428029
-0.00132008 -0.46525
0.00735053 -0.464111
0.00653177 -0.20381
0.0166669 -0.223228
-0.0207029 -0.189139
-0.0332857 -0.267347
0.0110614 -0.156598
0.0132013 -0.173403
0.0378808 -0.449114
0.0441947 -0.44373
0.0232205 -0.473202
0.0279807 -0.472834
0.0512801 -0.343236
0.0401488 -0.309921
-0.00451503 -0.45585
-0.00412211 -0.461869
0.0326417 -0.475954
0.032274 -0.473908
-0.0102279 -0.477809
-0.0146574 -0.478521
-0.0182262 -0.442964
-0.0217268 -0.42904
0.00891642 -0.0256093
0.00805213 -0.0432482
-0.0122237 -0.473144
-0.00667057 -0.474698
0.0308414 -0.479557
0.0311404 -0.477963
-0.020776 -0.468751
-0.0214562 -0.465455
-0.0490439 -0.337564
-0.0556665 -0.365584
0.0312642 -0.469938
0.0269889 -0.475535
-0.0517933 -0.446625
-0.0472651 -0.453621
0.00342962 -0.470006
-0.000868498 -0.468233
-0.0420657 -0.422023
-0.0464371 -0.422071
0.0396338 -0.455109
0.0330466 -0.459397
0.00357374 -0.462411
0.0046809 -0.459745
0.0572376 -0.359374
0.0435993 -0.324005
0.0374733 -0.471116
0.0364311 -0.472834
-0.0400454 -0.464067
-0.0404436 -0.460299
0.0102739 -0.16372
-0.00166565 -0.202232
-0.036038 -0.472396
-0.03246 -0.477816
-0.0494968 -0.0600429
-0.0466824 -0.0742239
0.0156754 -0.179245
0.00641414 -0.13629
0.0576351 -0.395998
0.0577727 -0.379492
-0.00109907 -0.464105
-0.00400251 -0.460919
0.00818377 -0.43203
0.0066604 -0.416461
-0.00269802 -0.193764
-0.0154452 -0.156073
0.0308168 -0.472876
0.0280532 -0.478266
-0.0230432 -0.217199
-0.0130966 -0.167252
0.0119337 -0.481585
0.018366 -0.479318
0.00373348 -0.461227
0.000466802 -0.464352
0.031407 -0.460843
0.0372015 -0.458771
0.0396975 -0.452259
0.0391489 -0.457575
0.0425084 -0.444902
0.0483231 -0.43812
-0.00688568 -0.342566
-0.0019515 -0.375005
-0.0544257 -0.441823
-0.0591061 -0.429563
0.0346091 -0.26672
0.0358807 -0.29564
0.013993 -0.49126
0.017241 -0.484703
0.0556912 -0.372957
0.0574266 -0.372009
-0.0183916 -0.019238
-0.00192173 -0.00188201
0.0349197 -0.0452809
0.0416669 -0.0470344
-0.0109765 -0.461224
-0.00506096 -0.462968
-0.00248642 -0.478928
-0.000481212 -0.47937
0.0327324 -0.0394987
0.0212121 -0.024995
0.0528014 -0.392236
0.0534142 -0.371833
0.0158179 -0.447631
0.00686202 -0.446187
0.0412832 -0.0863468
0.0381113 -0.078979
0.000705403 -0.453983
-0.000671759 -0.461114
0.00125542 -0.477247
0.00320215 -0.477801
0.0257387 -0.458698
0.0178928 -0.461614
0.0549842 -0.362186
0.0506607 -0.342044
-0.0469831 -0.456611
-0.05233 -0.444346
0.0142604 -0.21035
0.0262678 -0.247269
0.053429 -0.278717
0.0481824 -0.321001
-0.0392302 -0.444342
-0.0351527 -0.444753
-0.0534139 -0.352158
-0.0570118 -0.365199
0.0638891 -0.409209
0.0653958 -0.414319
0.0713477 -0.386274
0.0746928 -0.42116
-0.0141376 -0.14984
-0.00320735 -0.187006
-0.0509226 -0.415465
-0.0495977 -0.402615
-0.0471123 -0.330874
-0.0421329 -0.320376
0.0274314 -0.282889
0.0340743 -0.301135
0.0271016 -0.240882
0.0148545 -0.205604
0.00465565 -0.478242
0.00677201 -0.478815
-0.0260289 -0.474768
-0.0269222 -0.471361
-0.00199103 -0.482432
-0.00459122 -0.487355
0.0227065 -0.473026
0.0174997 -0.473249
-0.0185788 -0.466601
-0.0114069 -0.46708
-0.024313 -0.484005
-0.0221946 -0.482612
-0.0045714 -0.315346
-0.0150046 -0.256322
0.00581252 -0.0576147
0.00251851 -0.0140033
-0.003069 -0.43835
-0.00753769 -0.447215
0.0482798 -0.400623
0.0521021 -0.404675
0.0185582 -0.467376
0.0164379 -0.470623
0.0425225 -0.08435
0.0478527 -0.0723421
-0.0490495 -0.342393
-0.0478365 -0.349706
-0.0610946 -0.428619
-0.0539627 -0.446659
-0.000603285 -0.480282
-0.00318716 -0.479713
-0.026503 -0.433915
-0.0279434 -0.417643
-0.0527276 -0.370877
-0.0505324 -0.348259
0.00755179 -0.479042
0.00509146 -0.4783
0.0147587 -0.0295999
0.0192453 -0.0596056
0.0439945 -0.32152
0.0336208 -0.288966
0.0409059 -0.464927
0.0570042 -0.44377
0.0363339 -0.472948
0.0273147 -0.483958
-0.00116111 -0.425842
0.00659461 -0.437791
0.0325316 -0.458882
0.0294184 -0.464226
0.00257771 -0.41369
0.00115478 -0.431327
-0.00225595 -0.432843
0.0100315 -0.426287
-0.039626 -0.467857
-0.0379315 -0.470968
0.0109265 -0.462034
0.00737072 -0.462334
-0.0103781 -0.193327
-0.0220424 -0.224628
0.00997174 -0.196825
0.0192371 -0.234369
0.00356926 -0.47625
0.00548779 -0.477021
-0.0448046 -0.416887
-0.0393815 -0.419701
0.0136419 -0.475551
0.0120917 -0.477594
-0.0131626 -0.459147
-0.0111891 -0.46125
0.0638315 -0.410578
0.0613462 -0.4132
0.0367621 -0.280606
0.0265058 -0.246274
0.0358993 -0.0655518
0.0318006 -0.091497
0.0479741 -0.450994
0.047775 -0.446439
-0.0532346 -0.434369
-0.0512458 -0.444704
0.0197992 -0.0159332
0.0312255 -0.0318614
-0.0411666 -0.387543
-0.0432384 -0.359969
-0.0537753 -0.353327
-0.0454994 -0.325022
0.0330658 -0.426767
0.0367669 -0.409398
-0.0242108 -0.354436
-0.012137 -0.343161
0.0482145 -0.407394
0.0430903 -0.409892
0.0464849 -0.451595
0.0451177 -0.448687
-0.0372339 -0.305138
-0.0434834 -0.285745
-0.0386809 -0.313836
-0.0325112 -0.297215
0.0198756 -0.427654
0.026192 -0.410691
-0.0244397 -0.4814
-0.0255519 -0.477207
-0.0300364 -0.416988
-0.0229001 -0.399763
-0.0257388 -0.486562
-0.0117133 -0.502785
0.0310606 -0.370458
0.00661487 -0.373868
-0.0447081 -0.339518
-0.040833 -0.351214
-0.038655 -0.459886
-0.0439263 -0.455987
-0.015546 -0.431736
-0.00308557 -0.427947
0.0118851 -0.460274
0.00628791 -0.462338
0.0251727 -0.474901
0.0214541 -0.480028
0.0301103 -0.0686927
0.026588 -0.0434764
0.00900325 -0.171281
0.00531539 -0.194408
-0.018822 -0.456663
-0.0177011 -0.455234
0.0442236 -0.316535
0.0462045 -0.326363
0.0425725 -0.391252
0.0421701 -0.41053
-0.0345102 -0.475908
-0.0445317 -0.462014
-0.0193508 -0.479288
-0.0155625 -0.484314
0.0534821 -0.445371
0.0522538 -0.445154
0.0471794 -0.34429
0.0423336 -0.311261
-0.0204634 -0.43058
-0.0137564 -0.416832
0.0658888 -0.389308
0.0567502 -0.359638
0.0202223 -0.25115
0.0352465 -0.190989
-0.013875 -0.500326
-0.0162495 -0.496893
-0.00751604 -0.479253
-0.00563693 -0.478242
0.028364 -0.291844
0.0335445 -0.326951
0.0221819 -0.22105
0.025937 -0.224054
-0.0154925 -0.498613
-0.0112232 -0.502817
0.033257 -0.475525
0.025966 -0.481967
0.00772856 -0.464917
0.00498233 -0.467256
-0.0137717 -0.167822
-0.00252697 -0.124542
-0.0297529 -0.243689
-0.0345921 -0.265026
-0.0464849 -0.457107
-0.0502798 -0.447496
-0.0379138 -0.29376
-0.0354535 -0.291471
-0.0685236 -0.427049
-0.0488952 -0.458839
-0.0380647 -0.464706
-0.0405085 -0.458744
0.0251675 -0.37296
0.0288068 -0.339596
0.0085377 -0.501391
0.00590536 -0.50012
0.066144 -0.399315
0.0637945 -0.40316
0.0165177 -0.463369
0.00904209 -0.464453
0.0577532 -0.439993
0.0639511 -0.423295
-0.0195886 -0.388649
-0.00743733 -0.386392
0.028085 -0.422312
0.0415679 -0.40201
0.00398115 -0.0239309
0.000274646 -0.086058
0.00209193 -0.481004
0.00170976 -0.487347
-0.0297239 -0.456255
-0.031464 -0.458462
0.0338342 -0.300695
0.0483957 -0.337297
-0.0385063 -0.0984664
-0.0371126 -0.102248
-0.0292156 -0.287818
-0.0281733 -0.279028
-0.00444092 -0.00500348
-0.00146743 -0.00134652
-0.0499595 -0.343738
-0.0536005 -0.368675
-0.00299626 -0.463722
-0.00033316 -0.465161
-0.00331969 -0.452174
-0.00387504 -0.459561
-0.0187308 -0.429346
-0.0074264 -0.420401
-0.0449358 -0.0593285
-0.0482233 -0.053269
0.0184126 -0.13538
0.0143953 -0.161736
0.0178608 -0.43498
0.0185757 -0.41924
-0.00208595 -0.44744
0.00289761 -0.455039
0.0570456 -0.359033
0.0518239 -0.34299
0.0018579 -0.463114
0.00257703 -0.45815
0.0289138 -0.0663663
0.03561 -0.0654024
0.0285736 -0.0367233
0.0179325 -0.023121
0.00337136 -0.00293177
0.0174033 -0.0145502
0.0692919 -0.389925
0.0660415 -0.389044
-0.015216 -0.421412
-0.0223933 -0.427318
0.00234664 -0.125515
-0.0083398 -0.0753745
-0.00538279 -0.504527
-0.010623 -0.496485
-0.0137918 -0.165087
-0.00205934 -0.119575
0.0248817 -0.140646
0.0210378 -0.146739
-0.00870085 -0.4391
0.000516006 -0.440272
0.0645107 -0.398377
0.0630671 -0.413238
0.0156975 -0.497465
0.0273904 -0.483925
0.031107 -0.250583
0.0392477 -0.291451
-0.0271175 -0.118863
-0.0253043 -0.102317
0.00737384 -0.495793
0.0162368 -0.487311
-0.0396656 -0.466323
-0.0390379 -0.469027
0.0323235 -0.270217
0.0270674 -0.282932
-0.0437458 -0.326605
-0.0383418 -0.311049
0.0122208 -0.0209219
0.0208017 -0.0354907
-0.00157709 -0.476685
-0.00500876 -0.477321
-0.00297616 -0.14999
-0.0113226 -0.154794
-0.0355109 -0.406614
-0.0423255 -0.403406
-0.000542746 -0.450858
-0.00803784 -0.449423
0.0023715 -0.461608
0.00698007 -0.456347
0.0123455 -0.474566
0.0126784 -0.476184
0.0303642 -0.103561
0.0371643 -0.0783404
0.0407799 -0.300475
0.0482419 -0.333635
0.0277263 -0.236284
0.0206843 -0.211616
-0.0272671 -0.47075
-0.0236297 -0.474802
-0.0148738 -0.454461
-0.0173142 -0.445984
-0.0561048 -0.362024
-0.0478246 -0.333125
-0.0351449 -0.473388
-0.0424199 -0.463329
0.0137345 -0.288285
-0.00382784 -0.323438
-0.0197413 -0.443903
-0.0242698 -0.444883
-0.00885982 -0.448296
-0.0159523 -0.439343
-0.00593398 -0.462936
-0.0138181 -0.460369
-0.00119385 -0.475001
0.00448494 -0.474651
0.00865575 -0.462418
0.0124294 -0.462378
0.0490976 -0.336686
0.055762 -0.361415
0.00531052 -0.0360719
-0.00301584 -0.0681063
0.0319406 -0.0359477
0.0410101 -0.0536815
0.00313738 -0.476476
0.00454626 -0.477336
0.0461327 -0.330811
0.0489266 -0.337657
-0.00736923 -0.228119
-0.0224987 -0.268898
-0.00909859 -0.453352
-0.00443686 -0.460277
-0.0113946 -0.4655
-0.0184869 -0.464846
-0.0188069 -0.184887
-0.00627666 -0.136234
-0.00676831 -0.171149
0.00593605 -0.197568
-0.00115278 -0.479579
-0.00306602 -0.478758
0.0011725 -0.463484
-0.000116583 -0.464426
-0.00718235 -0.476632
-0.00259037 -0.477023
0.0027176 -0.198537
0.0102251 -0.179735
0.0456629 -0.307567
0.0414261 -0.248947
0.000648423 -0.479072
0.001805 -0.47894
0.0197522 -0.454207
0.0130781 -0.459721
0.0127227 -0.498676
0.0235181 -0.487944
-0.0833596 -0.411085
-0.0659878 -0.373539
-0.0263981 -0.282622
-0.0120833 -0.243409
0.00459082 -0.00941115
0.00927556 -0.0128351
-0.0447173 -0.460895
-0.0635668 -0.436325
0.0578534 -0.436352
0.0598942 -0.427283
0.00680194 -0.47687
0.00339956 -0.477888
0.0517441 -0.449465
0.0545369 -0.444188
-0.0382249 -0.0956188
-0.0438607 -0.0742599
0.0364237 -0.40288
0.028613 -0.41238
0.00365949 -0.502857
0.0125019 -0.492826
0.0444665 -0.324514
0.0528271 -0.348286
0.0111393 -0.233489
0.00893521 -0.234153
-0.000101551 -0.465162
-0.000683158 -0.463795
0.00821926 -0.467468
0.016014 -0.46489
0.0353937 -0.439999
0.0279818 -0.44833
0.00800767 -0.453338
0.0142443 -0.443896
-0.0413213 -0.466253
-0.0504209 -0.452568
0.00956197 -0.43516
0.0185076 -0.431211
-0.0247872 -0.487703
-0.0357985 -0.474313
-0.0200212 -0.433321
-0.0201724 -0.444084
0.043943 -0.0850738
0.0399314 -0.088456
0.0214763 -0.458843
0.0296082 -0.453706
-0.00538354 -0.477869
-0.00921179 -0.4782
-0.0364879 -0.308277
-0.0459275 -0.331574
-0.0473862 -0.0631158
-0.0420834 -0.0590368
0.00792019 -0.0785551
0.0144259 -0.0694543
0.0357344 -0.420919
0.0327045 -0.434498
0.00595839 -0.45497
0.0126606 -0.446834
0.0610526 -0.37909
0.0640935 -0.402597
0.0237347 -0.459514
0.0160604 -0.461958
0.0176824 -0.254122
0.0275271 -0.283792
0.0131481 -0.163683
0.00934496 -0.14752
0.030382 -0.289218
0.0142741 -0.244538
0.000574321 -0.476825
0.00307991 -0.475468
0.0201422 -0.241866
0.0373742 -0.261555
0.0131126 -0.488505
0.00806777 -0.4965
0.0053396 -0.221053
-0.00857571 -0.184339
0.0251316 -0.275531
0.0147457 -0.250383
-0.0134504 -0.234696
-0.00682723 -0.204737
0.0372066 -0.0950674
0.0373167 -0.104744
-0.0425356 -0.464906
-0.0307327 -0.48002
-0.0213252 -0.0212496
-0.0276096 -0.0244996
0.0497728 -0.338587
0.0380803 -0.298157
-0.0260617 -0.0473569
-0.0328493 -0.0642371
0.0180954 -0.115808
0.0195137 -0.0874831
-0.00279552 -0.463376
0.000259062 -0.463563
0.00933568 -0.127699
-0.0297618 -0.141296
0.0237895 -0.488184
0.0221542 -0.489676
-0.0439826 -0.0742419
-0.048209 -0.0692917
-0.060789 -0.412352
-0.0580666 -0.429396
-0.00460766 -0.463072
0.00157551 -0.463385
0.0339195 -0.0417974
0.0426558 -0.0507839
0.00661545 -0.00725823
0.0104634 -0.0140769
-0.0160176 -0.464578
-0.0231977 -0.463185
-0.0164043 -0.0146281
-0.0325061 -0.0313014
0.0167764 -0.496099
0.0203842 -0.491116
0.0561429 -0.440465
0.0485124 -0.455529
-0.0308121 -0.473898
-0.0314548 -0.470315
0.00927291 -0.474829
0.00962125 -0.472938
-0.0180874 -0.476288
-0.0126993 -0.478361
0.0227129 -0.452647
0.0241662 -0.44728
0.00417611 -0.462956
0.00627038 -0.462228
0.0286994 -0.0394497
0.0322667 -0.0598164
-0.00440575 -0.105741
-0.0126928 -0.0652431
0.051124 -0.443549
0.050009 -0.439434
0.000810945 -0.478436
0.000295867 -0.479203
-0.0041784 -0.463437
0.00173965 -0.463775
-0.00218781 -0.399011
0.0122121 -0.39387
0.0318051 -0.0709667
0.0297002 -0.0987851
-0.00317628 -0.479266
-0.00429543 -0.478204
0.0199221 -0.252025
0.0253238 -0.257902
-0.0153216 -0.0894995
-0.0167524 -0.0560906
0.0523803 -0.448442
0.053151 -0.447068
-0.0346446 -0.464901
-0.0279013 -0.469824
0.0028449 -0.217371
0.0175669 -0.257639
0.0286611 -0.127316
0.0525171 -0.220157
-0.0330842 -0.453613
-0.0262381 -0.457164
-0.0565985 -0.42012
-0.0526069 -0.431291
0.0128949 -0.461074
0.00998088 -0.461313
-0.0102511 -0.16118
-0.00680888 -0.234978
0.00551423 -0.462601
-0.000427981 -0.46362
0.0167878 -0.150279
0.0270115 -0.117763
0.0698733 -0.313236
0.0458277 -0.253233
-0.00390464 -0.479517
-0.00836251 -0.478872
0.0201359 -0.360217
0.0299652 -0.38516
0.0415207 -0.304434
0.0425572 -0.309177
-0.0255566 -0.485752
-0.0325996 -0.47678
-0.00130457 -0.462945
0.00105035 -0.464108
0.0186561 -0.385595
0.026049 -0.407162
-0.0067745 -0.46188
-0.00352401 -0.462776
-0.00805652 -0.178643
-0.0101196 -0.18057
-0.00650472 -0.451307
0.000514533 -0.453586
-0.0203433 -0.456642
-0.0281185 -0.450416
-0.035265 -0.444714
-0.0278214 -0.452198
0.0577578 -0.417358
0.0592471 -0.399169
0.00107325 -0.439904
0.00530986 -0.423895
-0.00781471 -0.035641
-0.00266655 -0.0442039
0.0245551 -0.457728
0.0323539 -0.452902
-0.0205202 -0.147269
-0.00775888 -0.180268
0.0200704 -0.210333
0.0239409 -0.213132
-0.0267665 -0.48129
-0.0204816 -0.484608
0.00815275 -0.476489
0.00480214 -0.47772
-0.0484043 -0.364352
-0.0461614 -0.335824
0.0223995 -0.0494974
0.0290421 -0.0625176
0.000118425 -0.463326
0.00617363 -0.462777
-0.014553 -0.474681
-0.0116205 -0.476709
-0.055844 -0.358575
-0.0642246 -0.387247
-0.00902672 -0.432352
-0.00280209 -0.444361
-0.00562901 -0.4784
-0.0103708 -0.477958
-0.00601563 -0.478391
-0.010866 -0.477797
0.0417201 -0.306488
0.0349326 -0.26704
0.0587391 -0.359338
0.0749592 -0.391648
-0.00881102 -0.461652
-0.00400459 -0.463236
0.0170451 -0.489763
0.0140035 -0.488257
0.0154604 -0.189072
0.0263373 -0.231913
-0.0182294 -0.479669
-0.0237269 -0.479157
0.0508556 -0.43435
0.053584 -0.434584
0.052066 -0.397933
0.0526116 -0.414122
-0.058604 -0.416041
-0.0565205 -0.432049
0.025936 -0.426478
0.0213244 -0.440757
0.00148738 -0.479141
0.00310136 -0.478678
-0.035405 -0.336867
-0.0422305 -0.349652
0.0495367 -0.0632833
0.0451576 -0.0605737
0.0345184 -0.10268
0.0296974 -0.124863
-0.0125307 -0.44274
-0.0201131 -0.439979
-0.0155386 -0.458369
-0.0212465 -0.455789
-0.00583384 -0.477279
-0.0102781 -0.477383
-0.0291765 -0.0327778
-0.0250159 -0.0335914
-0.0169602 -0.250014
-0.00997945 -0.237509
0.067349 -0.408086
0.0623724 -0.430457
-0.0344366 -0.468908
-0.0357013 -0.464553
-0.0497398 -0.422915
-0.0537149 -0.40965
-0.0345148 -0.451422
-0.0409881 -0.442011
-0.0198289 -0.457527
-0.0240684 -0.452017
0.0438873 -0.4615
0.0410665 -0.464646
-0.0180756 -0.469164
-0.0256108 -0.466188
0.0410661 -0.364878
0.027194 -0.331013
-0.011221 -0.0886201
-0.00932298 -0.0649208
-0.0170086 -0.215993
-0.0351086 -0.248487
0.00241048 -0.203591
-0.00639783 -0.226183
0.0183836 -0.139591
0.00675065 -0.17615
-0.0456799 -0.324622
-0.0373801 -0.29088
-0.0536777 -0.384264
-0.0549554 -0.402873
0.0594717 -0.397594
0.0611089 -0.406906
-0.0200251 -0.461674
-0.0185886 -0.464794
-0.0111181 -0.479976
-0.00586218 -0.479801
-0.0452291 -0.408256
-0.0465106 -0.387713
-0.0592482 -0.438821
-0.0641244 -0.423689
-0.000419536 -0.465285
0.000185111 -0.464851
0.0606147 -0.408486
0.0626135 -0.410918
0.00101035 -0.465762
0.000264366 -0.46448
-0.0299361 -0.275001
-0.0255039 -0.225429
-0.0620575 -0.42923
-0.0571272 -0.439918
-0.0385121 -0.470393
-0.0499654 -0.453569
-0.00644291 -0.111462
0.0119977 -0.159539
0.00559517 -0.178931
-0.00588844 -0.136982
-0.046435 -0.459137
-0.0547215 -0.445715
0.0121576 -0.501117
0.0192406 -0.493524
-0.000357932 -0.206042
-0.00555718 -0.132101
-0.0323732 -0.297248
-0.0313861 -0.295132
-0.0620542 -0.437871
-0.0704962 -0.413343
-0.0217859 -0.366173
-0.0122333 -0.389579
-0.024608 -0.0296156
-0.0351651 -0.0411341
0.0253518 -0.0754228
0.0243929 -0.0470594
-0.0240957 -0.484729
-0.0309501 -0.479087
0.0453187 -0.407209
0.0483875 -0.414755
0.0276339 -0.27021
0.0401512 -0.307552
-0.00360471 -0.463329
-0.00639686 -0.462727
-0.0618324 -0.378238
-0.0597234 -0.376129
0.042343 -0.459384
0.04329 -0.46115
0.0196429 -0.47197
0.0154768 -0.471277
-0.0310586 -0.0752265
-0.0312208 -0.050901
0.00289913 -0.46169
0.00640767 -0.454622
0.00669343 -0.483566
0.010682 -0.486643
-0.0054714 -0.479354
-0.00977734 -0.478261
-0.000282991 -0.465128
-0.00269641 -0.464083
-0.026021 -0.349622
-0.0327645 -0.369872
-0.00443412 -0.463018
-0.00266841 -0.461037
0.00410847 -0.00582248
0.0161715 -0.031613
-0.0700496 -0.372974
-0.0451556 -0.313481
0.0589637 -0.41714
0.0571731 -0.412606
-0.0134826 -0.44103
-0.0122523 -0.451816
0.00878537 -0.466099
0.0170989 -0.46403
0.0174286 -0.459342
0.0254848 -0.454128
-0.0189902 -0.472892
-0.0157378 -0.471757
-0.00150728 -0.10805
-0.00123797 -0.122036
-0.0386903 -0.373093
-0.0179708 -0.351759
-0.0093864 -0.490656
-0.0187289 -0.492398
-0.0187289 -0.492398
-0.0285212 -0.494711
-0.0285212 -0.494711
-0.0385465 -0.497787
-0.0385465 -0.497787
-0.0486158 -0.501727
-0.0486158 -0.501727
-0.0585858 -0.506485
-0.0585858 -0.506485
-0.0682797 -0.512056
-0.0682797 -0.512056
-0.0775555 -0.518386
-0.0775555 -0.518386
-0.0862859 -0.525404
-0.0862859 -0.525404
-0.0943543 -0.533026
-0.0943543 -0.533026
-0.101681 -0.541145
-0.101681 -0.541145
-0.108192 -0.549648
-0.108192 -0.549648
-0.113844 -0.558419
-0.113844 -0.558419
-0.11862 -0.567339
-0.11862 -0.567339
-0.122492 -0.576272
-0.122492 -0.576272
-0.125494 -0.585145
-0.125494 -0.585145
-0.127652 -0.593822
-0.127652 -0.593822
-0.129004 -0.602214
-0.129004 -0.602214
-0.129613 -0.610265
-0.129613 -0.610265
-0.129534 -0.617871
-0.129534 -0.617871
-0.128852 -0.624999
-0.128852 -0.624999
-0.127619 -0.631627
-0.127619 -0.631627
-0.125909 -0.637703
-0.125909 -0.637703
-0.123807 -0.643225
-0.123807 -0.643225
-0.121354 -0.648202
-0.121354 -0.648202
-0.118593 -0.652663
-0.118593 -0.652663
-0.11558 -0.656577
-0.11558 -0.656577
-0.112361 -0.659986
-0.112361 -0.659986
-0.108909 -0.662959
-0.108909 -0.662959
-0.105223 -0.665471
-0.105223 -0.665471
-0.101353 -0.667534
-0.101353 -0.667534
-0.0972397 -0.669109
-0.0972397 -0.669109
-0.0928082 -0.670302
-0.0928082 -0.670302
-0.0880652 -0.671068
-0.0880652 -0.671068
-0.0829913 -0.671237
-0.0829913 -0.671237
-0.0774267 -0.670844
-0.0774267 -0.670844
-0.0713752 -0.669927
-0.0713752 -0.669927
-0.0648045 -0.668239
-0.0648045 -0.668239
-0.0576328 -0.665462
-0.0576328 -0.665462
-0.0498151 -0.66168
-0.0498151 -0.66168
-0.0413784 -0.656699
-0.0413784 -0.656699
-0.0322662 -0.649953
-0.0322662 -0.649953
-0.0225666 -0.641237
-0.0225666 -0.641237
-0.0123402 -0.630171
-0.0123402 -0.630171
-0.00147658 -0.615942
-0.00147658 -0.615942
0.00948887 -0.597595
0.00948887 -0.597595
0.0207444 -0.574143
0.0207444 -0.574143
0.0320616 -0.542111
0.0320616 -0.542111
0.0437852 -0.500198
0.0437852 -0.500198
0.0601857 -0.454449
0.0601857 -0.454449
0.0700353 -0.432225
0.0700353 -0.432225
0.0706633 -0.424375
0.0706633 -0.424375
0.068657 -0.421407
0.068657 -0.421407
0.0665546 -0.421283
0.0665546 -0.421283
0.0643609 -0.423168
0.0643609 -0.423168
0.0625234 -0.426402
0.0625234 -0.426402
0.0604264 -0.430855
0.0604264 -0.430855
0.0577414 -0.436245
0.0577414 -0.436245
0.0549995 -0.442388
0.0549995 -0.442388
0.0520042 -0.448678
0.0520042 -0.448678
0.0485325 -0.454677
0.0485325 -0.454677
0.0445729 -0.460224
0.0445729 -0.460224
0.0404125 -0.465354
0.0404125 -0.465354
0.0361225 -0.469915
0.0361225 -0.469915
0.0316821 -0.473868
0.0316821 -0.473868
0.0272032 -0.477262
0.0272032 -0.477262
0.022726 -0.480124
0.022726 -0.480124
0.018262 -0.482468
0.018262 -0.482468
0.013746 -0.484405
0.013746 -0.484405
0.00912574 -0.486004
0.00912574 -0.486004
0.00426618 -0.487434
0.00426618 -0.487434
-0.00155523 -0.488937
-0.00155523 -0.488937
-0.0093864 -0.490656
0.0715384 -0.670505
0.0775735 -0.671418
0.0775735 -0.671418
0.0831324 -0.671786
0.0831324 -0.671786
0.0882012 -0.671628
0.0882012 -0.671628
0.0929256 -0.67089
0.0929256 -0.67089
0.0973407 -0.669706
0.0973407 -0.669706
0.101445 -0.668147
0.101445 -0.668147
0.105291 -0.666099
0.105291 -0.666099
0.108962 -0.663614
0.108962 -0.663614
0.112403 -0.66065
0.112403 -0.66065
0.115611 -0.657251
0.115611 -0.657251
0.118611 -0.653353
0.118611 -0.653353
0.121359 -0.648907
0.121359 -0.648907
0.123806 -0.643942
0.123806 -0.643942
0.1259 -0.638443
0.1259 -0.638443
0.127601 -0.632402
0.127601 -0.632402
0.128829 -0.62577
0.128829 -0.62577
0.129516 -0.618672
0.129516 -0.618672
0.129593 -0.611125
0.129593 -0.611125
0.128998 -0.603095
0.128998 -0.603095
0.12764 -0.594704
0.12764 -0.594704
0.12549 -0.586051
0.12549 -0.586051
0.122502 -0.577215
0.122502 -0.577215
0.118629 -0.568292
0.118629 -0.568292
0.113874 -0.559393
0.113874 -0.559393
0.108243 -0.550659
0.108243 -0.550659
0.10174 -0.542171
0.10174 -0.542171
0.0944407 -0.534079
0.0944407 -0.534079
0.086391 -0.526481
0.086391 -0.526481
0.0776885 -0.519477
0.0776885 -0.519477
0.0684442 -0.513162
0.0684442 -0.513162
0.0587824 -0.507596
0.0587824 -0.507596
0.0488651 -0.502854
0.0488651 -0.502854
0.0388167 -0.498937
0.0388167 -0.498937
0.028862 -0.495861
0.028862 -0.495861
0.0191208 -0.493539
0.0191208 -0.493539
0.00991208 -0.491781
0.00991208 -0.491781
0.00210347 -0.490099
0.00210347 -0.490099
-0.00368752 -0.488585
-0.00368752 -0.488585
-0.00860746 -0.487165
-0.00860746 -0.487165
-0.0132769 -0.48557
-0.0132769 -0.48557
-0.017853 -0.48366
-0.017853 -0.48366
-0.0223914 -0.481308
-0.0223914 -0.481308
-0.0269423 -0.478413
-0.0269423 -0.478413
-0.0314483 -0.47496
-0.0314483 -0.47496
-0.0359137 -0.470932
-0.0359137 -0.470932
-0.0402278 -0.466294
-0.0402278 -0.466294
-0.0443048 -0.461031
-0.0443048 -0.461031
-0.0481072 -0.455242
-0.0481072 -0.455242
-0.0516756 -0.449214
-0.0516756 -0.449214
-0.0548171 -0.443444
-0.0548171 -0.443444
-0.0575127 -0.437865
-0.0575127 -0.437865
-0.0598204 -0.432709
-0.0598204 -0.432709
-0.0619717 -0.428106
-0.0619717 -0.428106
-0.0641939 -0.424524
-0.0641939 -0.424524
-0.0661455 -0.422478
-0.0661455 -0.422478
-0.0681017 -0.422334
-0.0681017 -0.422334
-0.0695409 -0.425366
-0.0695409 -0.425366
-0.0688897 -0.433006
-0.0688897 -0.433006
-0.0606637 -0.454557
-0.0606637 -0.454557
-0.0430616 -0.50056
-0.0430616 -0.50056
-0.0309465 -0.541499
-0.0309465 -0.541499
-0.0203536 -0.574009
-0.0203536 -0.574009
-0.00926145 -0.598325
-0.00926145 -0.598325
0.00191839 -0.616441
0.00191839 -0.616441
0.012552 -0.630794
0.012552 -0.630794
0.0228442 -0.641704
0.0228442 -0.641704
0.0326132 -0.650383
0.0326132 -0.650383
0.0416703 -0.657243
0.0416703 -0.657243
0.0500519 -0.662275
0.0500519 -0.662275
0.057856 -0.665967
0.057856 -0.665967
0.0650259 -0.668717
0.0650259 -0.668717
0.0715384 -0.670505
      </DataArray> 
      <DataArray type="Float64" NumberOfComponents="2" Name="Velocity" format="ascii">
0 0
0 0
0 0
0 0
0 0
0 0
0 0
0 0
0 0
0 0
0 0
0 0
0 0
0 0
0 0
0 0
0 0
0 0
0 0
0 0
0 0
0 0
0 0
0 0
0 0
0 0
0 0
0 0
0 0
0 0
0 0
0 0
0 0
0 0
0 0
0 0
0 0
0 0
0 0
0 0
0 0
0 0
0 0
0 0
0 0
0 0
0 0
0 0
0 0
0 0
0 0
0 0
0 0
0 0
0 0
0 0
0 0
0 0
0 0
0 0
0 0
0 0
0 0
0 0
0 0
0 0
0 0
0 0
0 0
0 0
0 0
0 0
0 0
0 0
0 0
0 0
0 0
0 0
0 0
0 0
0 0
0 0
0 0
0 0
0 0
0 0
0 0
0 0
0 0
0 0
0 0
0 0
0 0
0 0
0 0
0 0
0 0
0 0
0 0
0 0
0 0
0 0
0 0
0 0
0 0
0 0
0 0
0 0
0 0
0 0
0 0
0 0
0 0
0 0
0 0
0 0
0 0
0 0
0 0
0 0
0 0
0 0
0 0
0 0
0 0
0 0
0 0
0 0
0 0
0 0
0 0
0 0
0 0
0 0
0 0
0 0
0 0
0 0
0 0
0 0
0 0
0 0
0 0
0 0
0 0
0 0
0 0
0 0
0 0
0 0
0 0
0 0
0 0
0 0
0 0
0 0
0 0
0 0
0 0
0 0
0 0
0 0
0 0
0 0
0 0
0 0
0 0
0 0
0 0
0 0
0 0
0 0
0 0
0 0
0 0
0 0
0 0
0 0
0 0
0 0
0 0
0 0
0 0
0 0
0 0
0 0
0 0
0 0
0 0
0 0
0 0
0 0
0 0
0 0
0 0
0 0
0 0
0 0
0 0
0 0
0 0
0 0
0 0
0 0
0 0
0 0
0 0
0 0
0 0
0 0
0 0
0 0
0 0
0 0
0 0
0 0
0 0
0 0
0 0
0 0
0 0
0 0
0 0
0 0
0 0
0 0
0 0
0 0
0 0
0 0
0 0
0 0
0 0
0 0
0 0
0 0
0 0
0 0
0 0
0 0
0 0
0 0
0 0
0 0
0 0
0 0
0 0
0 0
0 0
0 0
0 0
0 0
0 0
0 0
0 0
0 0
0 0
0 0
0 0
0 0
0 0
0 0
0 0
0 0
0 0
0 0
0 0
0 0
0 0
0 0
0 0
0 0
0 0
0 0
0 0
0 0
0 0
0 0
0 0
0 0
0 0
0 0
0 0
0 0
0 0
0 0
0 0
0 0
0 0
0 0
0 0
0 0
0 0
0 0
0 0
0 0
0 0
0 0
0 0
0 0
0 0
0 0
0 0
0 0
0 0
0 0
0 0
0 0
0 0
0 0
0 0
0 0
0 0
0 0
0 0
0 0
0 0
0 0
0 0
0 0
0 0
0 0
0 0
0 0
0 0
0 0
0 0
0 0
0 0
0 0
0 0
0 0
0 0
0 0
0 0
0 0
0 0
0 0
0 0
0 0
0 0
0 0
0 0
0 0
0 0
0 0
0 0
0 0
0 0
0 0
0 0
0 0
0 0
0 0
0 0
0 0
0 0
0 0
0 0
0 0
0 0
0 0
0 0
0 0
0 0
0 0
0 0
0 0
0 0
0 0
0 0
0 0
0 0
0 0
0 0
0 0
0 0
0 0
0 0
0 0
0 0
0 0
0 0
0 0
0 0
0 0
0 0
0 0
0 0
0 0
0 0
0 0
0 0
0 0
0 0
0 0
0 0
0 0
0 0
0 0
0 0
0 0
0 0
0 0
0 0
0 0
0 0
0 0
0 0
0 0
0 0
0 0
0 0
0 0
0 0
0 0
0 0
0 0
0 0
0 0
0 0
0 0
0 0
0 0
0 0
0 0
0 0
0 0
0 0
0 0
0 0
0 0
0 0
0 0
0 0
0 0
0 0
0 0
0 0
0 0
0 0
0 0
0 0
0 0
0 0
0 0
0 0
0 0
0 0
0 0
0 0
0 0
0 0
0 0
0 0
0 0
0 0
0 0
0 0
0 0
0 0
0 0
0 0
0 0
0 0
0 0
0 0
0 0
0 0
0 0
0 0
0 0
0 0
0 0
0 0
0 0
0 0
0 0
0 0
0 0
0 0
0 0
0 0
0 0
0 0
0 0
0 0
0 0
0 0
0 0
0 0
0 0
0 0
0 0
0 0
0 0
0 0
0 0
0 0
0 0
0 0
0 0
0 0
0 0
0 0
0 0
0 0
0 0
0 0
0 0
0 0
0 0
0 0
0 0
0 0
0 0
0 0
0 0
0 0
0 0
0 0
0 0
0 0
0 0
0 0
0 0
0 0
0 0
0 0
0 0
0 0
0 0
0 0
0 0
0 0
0 0
0 0
0 0
0 0
0 0
0 0
0 0
0 0
0 0
0 0
0 0
0 0
0 0
0 0
0 0
0 0
0 0
0 0
0 0
0 0
0 0
0 0
0 0
0 0
0 0
0 0
0 0
0 0
0 0
0 0
0 0
0 0
0 0
0 0
0 0
0 0
0 0
0 0
0 0
0 0
0 0
0 0
0 0
0 0
0 0
0 0
0 0
0 0
0 0
0 0
0 0
0 0
0 0
0 0
0 0
0 0
0 0
0 0
0 0
0 0
0 0
0 0
0 0
0 0
0 0
0 0
0 0
0 0
0 0
0 0
0 0
0 0
0 0
0 0
0 0
0 0
0 0
0 0
0 0
0 0
0 0
0 0
0 0
0 0
0 0
0 0
0 0
0 0
0 0
0 0
0 0
0 0
0 0
0 0
0 0
0 0
0 0
0 0
0 0
0 0
0 0
0 0
0 0
0 0
0 0
0 0
0 0
0 0
0 0
0 0
0 0
0 0
0 0
0 0
0 0
0 0
0 0
0 0
0 0
0 0
0 0
0 0
0 0
0 0
0 0
0 0
0 0
0 0
0 0
0 0
0 0
0 0
0 0
0 0
0 0
0 0
0 0
0 0
0 0
0 0
0 0
0 0
0 0
0 0
0 0
0 0
0 0
0 0
0 0
0 0
0 0
0 0
0 0
0 0
0 0
0 0
0 0
0 0
0 0
0 0
0 0
0 0
0 0
0 0
0 0
0 0
0 0
0 0
0 0
0 0
0 0
0 0
0 0
0 0
0 0
0 0
0 0
0 0
0 0
0 0
0 0
0 0
0 0
0 0
0 0
0 0
0 0
0 0
0 0
0 0
0 0
0 0
0 0
0 0
0 0
0 0
0 0
0 0
0 0
0 0
0 0
0 0
0 0
0 0
0 0
0 0
0 0
0 0
0 0
0 0
0 0
0 0
0 0
0 0
0 0
0 0
0 0
0 0
0 0
0 0
0 0
0 0
0 0
0 0
0 0
0 0
0 0
0 0
0 0
0 0
0 0
0 0
0 0
0 0
0 0
0 0
0 0
0 0
0 0
0 0
0 0
0 0
0 0
0 0
0 0
0 0
0 0
0 0
0 0
0 0
0 0
0 0
0 0
0 0
0 0
0 0
0 0
0 0
0 0
0 0
0 0
0 0
0 0
0 0
0 0
0 0
0 0
0 0
0 0
0 0
0 0
0 0
0 0
0 0
0 0
0 0
0 0
0 0
0 0
0 0
0 0
0 0
0 0
0 0
0 0
0 0
0 0
0 0
0 0
0 0
0 0
0 0
0 0
0 0
0 0
0 0
0 0
0 0
0 0
0 0
0 0
0 0
0 0
0 0
0 0
0 0
0 0
0 0
0 0
0 0
0 0
0 0
0 0
0 0
0 0
0 0
0 0
0 0
0 0
0 0
0 0
0 0
0 0
0 0
0 0
0 0
0 0
0 0
0 0
0 0
0 0
0 0
0 0
0 0
0 0
0 0
0 0
0 0
0 0
0 0
0 0
0 0
0 0
0 0
0 0
0 0
0 0
0 0
0 0
0 0
0 0
0 0
0 0
0 0
0 0
0 0
0 0
0 0
0 0
0 0
0 0
0 0
0 0
0 0
0 0
0 0
0 0
0 0
0 0
0 0
0 0
0 0
0 0
0 0
0 0
0 0
0 0
0 0
0 0
0 0
0 0
0 0
0 0
0 0
0 0
0 0
0 0
0 0
0 0
0 0
0 0
0 0
0 0
0 0
0 0
0 0
0 0
0 0
0 0
0 0
0 0
0 0
0 0
0 0
0 0
0 0
0 0
0 0
0 0
0 0
0 0
0 0
0 0
0 0
0 0
0 0
0 0
0 0
0 0
0 0
0 0
0 0
0 0
0 0
0 0
0 0
0 0
0 0
0 0
0 0
0 0
0 0
0 0
0 0
0 0
0 0
0 0
0 0
0 0
0 0
0 0
0 0
0 0
0 0
0 0
0 0
0 0
0 0
0 0
0 0
0 0
0 0
0 0
0 0
0 0
0 0
0 0
0 0
0 0
0 0
0 0
0 0
0 0
0 0
0 0
0 0
0 0
0 0
0 0
0 0
0 0
0 0
0 0
0 0
0 0
0 0
0 0
0 0
0 0
0 0
0 0
0 0
0 0
0 0
0 0
0 0
0 0
0 0
0 0
0 0
0 0
0 0
0 0
0 0
0 0
0 0
0 0
0 0
0 0
0 0
0 0
0 0
0 0
0 0
0 0
0 0
0 0
0 0
0 0
0 0
0 0
0 0
0 0
0 0
0 0
0 0
0 0
0 0
0 0
0 0
0 0
0 0
0 0
0 0
0 0
0 0
0 0
0 0
0 0
0 0
0 0
0 0
0 0
0 0
0 0
0 0
0 0
0 0
0 0
0 0
0 0
0 0
0 0
0 0
0 0
0 0
0 0
0 0
0 0
0 0
0 0
0 0
0 0
0 0
0 0
0 0
0 0
0 0
0 0
0 0
0 0
0 0
0 0
0 0
0 0
0 0
0 0
0 0
0 0
0 0
0 0
0 0
0 0
0 0
0 0
0 0
0 0
0 0
0 0
0 0
0 0
0 0
0 0
0 0
0 0
0 0
0 0
0 0
0 0
0 0
0 0
0 0
0 0
0 0
0 0
0 0
0 0
0 0
0 0
0 0
0 0
0 0
0 0
0 0
0 0
0 0
0 0
0 0
0 0
0 0
0 0
0 0
0 0
0 0
0 0
0 0
0 0
0 0
0 0
0 0
0 0
0 0
0 0
0 0
0 0
0 0
0 0
0 0
0 0
0 0
0 0
0 0
0 0
0 0
0 0
0 0
0 0
0 0
0 0
0 0
0 0
0 0
0 0
0 0
0 0
0 0
0 0
0 0
0 0
0 0
0 0
0 0
0 0
0 0
0 0
0 0
0 0
0 0
0 0
0 0
0 0
0 0
0 0
0 0
0 0
0 0
0 0
0 0
0 0
0 0
0 0
0 0
0 0
0 0
0 0
0 0
0 0
0 0
0 0
0 0
0 0
0 0
0 0
0 0
0 0
0 0
0 0
0 0
0 0
0 0
0 0
0 0
0 0
0 0
0 0
0 0
0 0
0 0
0 0
0 0
0 0
0 0
0 0
0 0
0 0
0 0
0 0
0 0
0 0
0 0
0 0
0 0
0 0
0 0
0 0
0 0
0 0
0 0
0 0
0 0
0 0
0 0
0 0
0 0
0 0
0 0
0 0
0 0
0 0
0 0
0 0
0 0
0 0
0 0
0 0
0 0
0 0
0 0
0 0
0 0
0 0
0 0
0 0
0 0
0 0
0 0
0 0
0 0
0 0
0 0
0 0
0 0
0 0
0 0
0 0
0 0
0 0
0 0
0 0
0 0
0 0
0 0
0 0
0 0
0 0
0 0
0 0
0 0
0 0
0 0
0 0
0 0
0 0
0 0
0 0
0 0
0 0
0 0
0 0
0 0
0 0
0 0
0 0
0 0
0 0
0 0
0 0
0 0
0 0
0 0
0 0
0 0
0 0
0 0
0 0
0 0
0 0
0 0
0 0
0 0
0 0
0 0
0 0
0 0
0 0
0 0
0 0
0 0
0 0
0 0
0 0
0 0
0 0
0 0
0 0
0 0
0 0
0 0
0 0
0 0
0 0
0 0
0 0
0 0
0 0
0 0
0 0
0 0
0 0
0 0
0 0
0 0
0 0
0 0
0 0
0 0
0 0
0 0
0 0
0 0
0 0
0 0
0 0
0 0
0 0
0 0
0 0
0 0
0 0
0 0
0 0
0 0
0 0
0 0
0 0
0 0
0 0
0 0
0 0
0 0
0 0
0 0
0 0
0 0
0 0
0 0
0 0
0 0
0 0
0 0
0 0
0 0
0 0
0 0
0 0
0 0
0 0
0 0
0 0
0 0
0 0
0 0
0 0
0 0
0 0
0 0
0 0
0 0
0 0
0 0
0 0
0 0
0 0
0 0
0 0
0 0
0 0
0 0
0 0
0 0
0 0
0 0
0 0
0 0
0 0
0 0
0 0
0 0
0 0
0 0
0 0
0 0
0 0
0 0
0 0
0 0
0 0
0 0
0 0
0 0
0 0
0 0
0 0
0 0
0 0
0 0
0 0
0 0
0 0
0 0
0 0
0 0
0 0
0 0
0 0
0 0
0 0
0 0
0 0
0 0
0 0
0 0
0 0
0 0
0 0
0 0
0 0
0 0
0 0
0 0
0 0
0 0
0 0
0 0
0 0
0 0
0 0
0 0
0 0
0 0
0 0
0 0
0 0
0 0
0 0
0 0
0 0
0 0
0 0
0 0
0 0
0 0
0 0
0 0
0 0
0 0
0 0
0 0
0 0
0 0
0 0
0 0
0 0
0 0
0 0
0 0
0 0
0 0
0 0
0 0
0 0
0 0
0 0
0 0
0 0
0 0
0 0
0 0
0 0
0 0
0 0
0 0
0 0
0 0
0 0
0 0
0 0
0 0
0 0
0 0
0 0
0 0
0 0
0 0
0 0
0 0
0 0
0 0
0 0
0 0
0 0
0 0
0 0
0 0
0 0
0 0
0 0
0 0
0 0
0 0
0 0
0 0
0 0
0 0
0 0
0 0
0 0
0 0
0 0
0 0
0 0
0 0
0 0
0 0
0 0
0 0
0 0
0 0
0 0
0 0
0 0
0 0
0 0
0 0
0 0
0 0
0 0
0 0
0 0
0 0
0 0
0 0
0 0
0 0
0 0
0 0
0 0
0 0
0 0
0 0
0 0
0 0
0 0
0 0
0 0
0 0
0 0
0 0
0 0
0 0
0 0
0 0
0 0
0 0
0 0
0 0
0 0
0 0
0 0
0 0
0 0
0 0
0 0
0 0
0 0
0 0
0 0
0 0
0 0
0 0
0 0
0 0
0 0
0 0
0 0
0 0
0 0
0 0
0 0
0 0
0 0
0 0
0 0
0 0
0 0
0 0
0 0
0 0
0 0
0 0
0 0
0 0
0 0
0 0
0 0
0 0
0 0
0 0
0 0
0 0
0 0
0 0
0 0
0 0
0 0
0 0
0 0
0 0
0 0
0 0
0 0
0 0
0 0
0 0
0 0
0 0
0 0
0 0
0 0
0 0
0 0
0 0
0 0
0 0
0 0
0 0
0 0
0 0
0 0
0 0
0 0
0 0
0 0
0 0
0 0
0 0
0 0
0 0
0 0
0 0
0 0
0 0
0 0
0 0
0 0
0 0
0 0
0 0
0 0
0 0
0 0
0 0
0 0
0 0
0 0
0 0
0 0
0 0
0 0
0 0
0 0
0 0
0 0
0 0
0 0
0 0
0 0
0 0
0 0
0 0
0 0
0 0
0 0
0 0
0 0
0 0
0 0
0 0
0 0
0 0
0 0
0 0
0 0
0 0
0 0
0 0
0 0
0 0
0 0
0 0
0 0
0 0
0 0
0 0
0 0
0 0
0 0
0 0
0 0
0 0
0 0
0 0
0 0
0 0
0 0
0 0
0 0
0 0
0 0
0 0
0 0
0 0
0 0
0 0
0 0
0 0
0 0
0 0
0 0
0 0
0 0
0 0
0 0
0 0
0 0
0 0
0 0
0 0
0 0
0 0
0 0
0 0
0 0
0 0
0 0
0 0
0 0
0 0
0 0
0 0
0 0
0 0
0 0
0 0
0 0
0 0
0 0
0 0
0 0
0 0
0 0
0 0
0 0
0 0
0 0
0 0
0 0
0 0
0 0
0 0
0 0
0 0
0 0
0 0
0 0
0 0
0 0
0 0
0 0
0 0
0 0
0 0
0 0
0 0
0 0
0 0
0 0
0 0
0 0
0 0
0 0
0 0
0 0
0 0
0 0
0 0
0 0
0 0
0 0
0 0
0 0
0 0
0 0
0 0
0 0
0 0
0 0
0 0
0 0
0 0
0 0
0 0
0 0
0 0
0 0
0 0
0 0
0 0
0 0
0 0
0 0
0 0
0 0
0 0
0 0
0 0
0 0
0 0
0 0
0 0
0 0
0 0
0 0
0 0
0 0
0 0
0 0
0 0
0 0
0 0
0 0
0 0
0 0
0 0
0 0
0 0
0 0
0 0
0 0
0 0
0 0
0 0
0 0
0 0
0 0
0 0
0 0
0 0
0 0
0 0
0 0
0 0
0 0
0 0
0 0
0 0
0 0
0 0
0 0
0 0
0 0
0 0
0 0
0 0
0 0
0 0
0 0
0 0
0 0
0 0
0 0
0 0
0 0
0 0
0 0
0 0
0 0
0 0
0 0
0 0
0 0
0 0
0 0
0 0
0 0
0 0
0 0
0 0
0 0
0 0
0 0
0 0
0 0
0 0
0 0
0 0
0 0
0 0
0 0
0 0
0 0
0 0
0 0
0 0
0 0
0 0
0 0
0 0
0 0
0 0
0 0
0 0
0 0
0 0
0 0
0 0
0 0
0 0
0 0
0 0
0 0
0 0
0 0
0 0
0 0
0 0
0 0
0 0
0 0
0 0
0 0
0 0
0 0
0 0
0 0
0 0
0 0
0 0
0 0
0 0
0 0
0 0
0 0
0 0
0 0
0 0
0 0
0 0
0 0
0 0
0 0
0 0
0 0
0 0
0 0
0 0
0 0
0 0
0 0
0 0
0 0
0 0
0 0
0 0
0 0
0 0
0 0
0 0
0 0
0 0
0 0
0 0
0 0
0 0
0 0
0 0
0 0
0 0
0 0
0 0
0 0
0 0
0 0
0 0
0 0
0 0
0 0
0 0
0 0
0 0
0 0
0 0
0 0
0 0
0 0
0 0
0 0
0 0
0 0
0 0
0 0
0 0
0 0
0 0
0 0
0 0
0 0
0 0
0 0
0 0
0 0
0 0
0 0
0 0
0 0
0 0
0 0
0 0
0 0
0 0
0 0
0 0
0 0
0 0
0 0
0 0
0 0
0 0
0 0
0 0
0 0
0 0
0 0
0 0
0 0
0 0
0 0
0 0
0 0
0 0
0 0
0 0
0 0
0 0
0 0
0 0
0 0
0 0
0 0
0 0
0 0
0 0
0 0
0 0
0 0
0 0
0 0
0 0
0 0
0 0
0 0
0 0
0 0
0 0
0 0
0 0
0 0
0 0
0 0
0 0
0 0
0 0
0 0
0 0
0 0
0 0
0 0
0 0
0 0
0 0
0 0
0 0
0 0
0 0
0 0
0 0
0 0
0 0
0 0
0 0
0 0
0 0
0 0
0 0
0 0
0 0
0 0
0 0
0 0
0 0
0 0
0 0
0 0
0 0
0 0
0 0
0 0
0 0
0 0
0 0
0 0
0 0
0 0
0 0
0 0
0 0
0 0
0 0
0 0
0 0
0 0
0 0
0 0
0 0
0 0
0 0
0 0
0 0
0 0
0 0
0 0
0 0
0 0
0 0
0 0
0 0
0 0
0 0
0 0
0 0
0 0
0 0
0 0
0 0
0 0
0 0
0 0
0 0
0 0
0 0
0 0
0 0
0 0
0 0
0 0
0 0
0 0
0 0
0 0
0 0
0 0
0 0
0 0
0 0
0 0
0 0
0 0
0 0
0 0
0 0
0 0
0 0
0 0
0 0
0 0
0 0
0 0
0 0
0 0
0 0
0 0
0 0
0 0
0 0
0 0
0 0
0 0
0 0
0 0
0 0
0 0
0 0
0 0
0 0
0 0
0 0
0 0
0 0
0 0
0 0
0 0
0 0
0 0
0 0
0 0
0 0
0 0
0 0
0 0
0 0
0 0
0 0
0 0
0 0
0 0
0 0
0 0
0 0
0 0
0 0
0 0
0 0
0 0
0 0
0 0
0 0
0 0
0 0
0 0
0 0
0 0
0 0
0 0
0 0
0 0
0 0
0 0
0 0
0 0
0 0
0 0
0 0
0 0
0 0
0 0
0 0
0 0
0 0
0 0
0 0
0 0
0 0
0 0
0 0
0 0
0 0
0 0
0 0
0 0
0 0
0 0
0 0
0 0
0 0
0 0
0 0
0 0
0 0
0 0
0 0
0 0
0 0
0 0
0 0
0 0
0 0
0 0
0 0
0 0
0 0
0 0
0 0
0 0
0 0
0 0
0 0
0 0
0 0
0 0
0 0
0 0
0 0
0 0
0 0
0 0
0 0
0 0
0 0
0 0
0 0
0 0
0 0
0 0
0 0
0 0
0 0
0 0
0 0
0 0
0 0
0 0
0 0
0 0
0 0
0 0
0 0
0 0
0 0
0 0
0 0
0 0
0 0
0 0
0 0
0 0
0 0
0 0
0 0
0 0
0 0
0 0
0 0
0 0
0 0
0 0
0 0
0 0
0 0
0 0
0 0
0 0
0 0
0 0
0 0
0 0
0 0
0 0
0 0
0 0
0 0
0 0
0 0
0 0
0 0
0 0
0 0
0 0
0 0
0 0
0 0
0 0
0 0
0 0
0 0
0 0
0 0
0 0
0 0
0 0
0 0
0 0
0 0
0 0
0 0
0 0
0 0
0 0
0 0
0 0
0 0
0 0
0 0
0 0
0 0
0 0
0 0
0 0
0 0
0 0
0 0
0 0
0 0
0 0
0 0
0 0
0 0
0 0
0 0
0 0
0 0
0 0
0 0
0 0
0 0
0 0
0 0
0 0
0 0
0 0
0 0
0 0
0 0
0 0
0 0
0 0
0 0
0 0
0 0
0 0
0 0
0 0
0 0
0 0
0 0
0 0
0 0
0 0
0 0
0 0
0 0
0 0
0 0
0 0
0 0
0 0
0 0
0 0
0 0
0 0
0 0
0 0
0 0
0 0
0 0
0 0
0 0
0 0
0 0
0 0
0 0
0 0
0 0
0 0
0 0
0 0
0 0
0 0
0 0
0 0
0 0
0 0
0 0
0 0
0 0
0 0
0 0
0 0
0 0
0 0
0 0
0 0
0 0
0 0
0 0
0 0
0 0
0 0
0 0
0 0
0 0
0 0
0 0
0 0
0 0
0 0
0 0
0 0
0 0
0 0
0 0
0 0
0 0
0 0
0 0
0 0
0 0
0 0
0 0
0 0
0 0
0 0
0 0
0 0
0 0
0 0
0 0
0 0
0 0
0 0
0 0
0 0
0 0
0 0
0 0
0 0
0 0
0 0
0 0
0 0
0 0
0 0
0 0
0 0
0 0
0 0
0 0
0 0
0 0
0 0
0 0
0 0
0 0
0 0
0 0
0 0
0 0
0 0
0 0
0 0
0 0
0 0
0 0
0 0
0 0
0 0
0 0
0 0
0 0
0 0
0 0
0 0
0 0
0 0
0 0
0 0
0 0
0 0
0 0
0 0
0 0
0 0
0 0
0 0
0 0
0 0
0 0
0 0
0 0
0 0
0 0
0 0
0 0
0 0
0 0
0 0
0 0
0 0
0 0
0 0
0 0
0 0
0 0
0 0
0 0
0 0
0 0
0 0
0 0
0 0
0 0
0 0
0 0
0 0
0 0
0 0
0 0
0 0
0 0
0 0
0 0
0 0
0 0
0 0
0 0
0 0
0 0
0 0
0 0
0 0
0 0
0 0
0 0
0 0
0 0
0 0
0 0
0 0
0 0
0 0
0 0
0 0
0 0
0 0
0 0
0 0
0 0
0 0
0 0
0 0
0 0
0 0
0 0
0 0
0 0
0 0
0 0
0 0
0 0
0 0
0 0
0 0
0 0
0 0
0 0
0 0
0 0
0 0
0 0
0 0
0 0
0 0
0 0
0 0
0 0
0 0
0 0
0 0
0 0
0 0
0 0
0 0
0 0
0 0
0 0
0 0
0 0
0 0
0 0
0 0
0 0
0 0
0 0
0 0
0 0
0 0
0 0
0 0
0 0
0 0
0 0
0 0
0 0
0 0
0 0
0 0
0 0
0 0
0 0
0 0
0 0
0 0
0 0
0 0
0 0
0 0
0 0
0 0
0 0
0 0
0 0
0 0
0 0
0 0
0 0
0 0
0 0
0 0
0 0
0 0
0 0
0 0
0 0
0 0
0 0
0 0
0 0
0 0
0 0
0 0
0 0
0 0
0 0
0 0
0 0
0 0
0 0
0 0
0 0
0 0
0 0
0 0
0 0
0 0
0 0
0 0
0 0
0 0
0 0
0 0
0 0
0 0
0 0
0 0
0 0
0 0
0 0
0 0
0 0
0 0
0 0
0 0
0 0
0 0
0 0
0 0
0 0
0 0
0 0
0 0
0 0
0 0
0 0
0 0
0 0
0 0
0 0
0 0
0 0
0 0
0 0
0 0
0 0
0 0
0 0
0 0
0 0
0 0
0 0
0 0
0 0
0 0
0 0
0 0
0 0
0 0
0 0
0 0
0 0
0 0
0 0
0 0
0 0
0 0
0 0
0 0
0 0
0 0
0 0
0 0
0 0
0 0
0 0
0 0
0 0
0 0
0 0
0 0
0 0
0 0
0 0
0 0
0 0
0 0
0 0
0 0
0 0
0 0
0 0
0 0
0 0
0 0
0 0
0 0
0 0
0 0
0 0
0 0
0 0
0 0
0 0
0 0
0 0
0 0
0 0
0 0
0 0
0 0
0 0
0 0
0 0
0 0
0 0
0 0
0 0
0 0
0 0
0 0
0 0
0 0
0 0
0 0
0 0
0 0
0 0
0 0
0 0
0 0
0 0
0 0
0 0
0 0
0 0
0 0
0 0
0 0
0 0
0 0
0 0
0 0
0 0
0 0
0 0
0 0
0 0
0 0
0 0
0 0
0 0
0 0
0 0
0 0
0 0
0 0
0 0
0 0
0 0
0 0
0 0
0 0
0 0
0 0
0 0
0 0
0 0
0 0
0 0
0 0
0 0
0 0
0 0
0 0
0 0
0 0
0 0
0 0
0 0
0 0
0 0
0 0
0 0
0 0
0 0
0 0
0 0
0 0
0 0
0 0
0 0
0 0
0 0
0 0
0 0
0 0
0 0
0 0
0 0
0 0
0 0
0 0
0 0
0 0
0 0
0 0
0 0
0 0
0 0
0 0
0 0
0 0
0 0
0 0
0 0
0 0
0 0
0 0
0 0
0 0
0 0
0 0
0 0
0 0
0 0
0 0
0 0
0 0
0 0
0 0
0 0
0 0
0 0
0 0
0 0
0 0
0 0
0 0
0 0
0 0
0 0
0 0
0 0
0 0
0 0
0 0
0 0
0 0
0 0
0 0
0 0
0 0
0 0
0 0
0 0
0 0
0 0
0 0
0 0
0 0
0 0
0 0
0 0
0 0
0 0
0 0
0 0
0 0
0 0
0 0
0 0
0 0
0 0
0 0
0 0
0 0
0 0
0 0
0 0
0 0
0 0
0 0
0 0
0 0
0 0
0 0
0 0
0 0
0 0
0 0
0 0
0 0
0 0
0 0
0 0
0 0
0 0
0 0
0 0
0 0
0 0
0 0
0 0
0 0
0 0
0 0
0 0
0 0
0 0
0 0
0 0
0 0
0 0
0 0
0 0
0 0
0 0
0 0
0 0
0 0
0 0
0 0
0 0
0 0
0 0
0 0
0 0
0 0
0 0
0 0
0 0
0 0
0 0
0 0
0 0
0 0
0 0
0 0
0 0
0 0
0 0
0 0
0 0
0 0
0 0
0 0
0 0
0 0
0 0
0 0
0 0
0 0
0 0
0 0
0 0
0 0
0 0
0 0
0 0
0 0
0 0
0 0
0 0
0 0
0 0
0 0
0 0
0 0
0 0
0 0
0 0
0 0
0 0
0 0
0 0
0 0
0 0
0 0
0 0
0 0
0 0
0 0
0 0
0 0
0 0
0 0
0 0
0 0
0 0
0 0
0 0
0 0
0 0
0 0
0 0
0 0
0 0
0 0
0 0
0 0
0 0
0 0
0 0
0 0
0 0
0 0
0 0
0 0
0 0
0 0
0 0
0 0
0 0
0 0
0 0
0 0
0 0
0 0
0 0
0 0
0 0
0 0
0 0
0 0
0 0
0 0
0 0
0 0
0 0
0 0
0 0
0 0
0 0
0 0
0 0
0 0
0 0
0 0
0 0
0 0
0 0
0 0
0 0
0 0
0 0
0 0
0 0
0 0
0 0
0 0
0 0
0 0
0 0
0 0
0 0
0 0
0 0
0 0
0 0
0 0
0 0
0 0
0 0
0 0
0 0
0 0
0 0
0 0
0 0
0 0
0 0
0 0
0 0
0 0
0 0
0 0
0 0
0 0
0 0
0 0
0 0
0 0
0 0
0 0
0 0
0 0
0 0
0 0
0 0
0 0
0 0
0 0
0 0
0 0
0 0
0 0
0 0
0 0
0 0
0 0
0 0
0 0
0 0
0 0
0 0
0 0
0 0
0 0
0 0
0 0
0 0
0 0
0 0
0 0
0 0
0 0
0 0
0 0
0 0
0 0
0 0
0 0
0 0
0 0
0 0
0 0
0 0
0 0
0 0
0 0
0 0
0 0
0 0
0 0
0 0
0 0
0 0
0 0
0 0
0 0
0 0
0 0
0 0
0 0
0 0
0 0
0 0
0 0
0 0
0 0
0 0
0 0
0 0
0 0
0 0
0 0
0 0
0 0
0 0
0 0
0 0
0 0
0 0
0 0
0 0
0 0
0 0
0 0
0 0
0 0
0 0
0 0
0 0
0 0
0 0
0 0
0 0
0 0
0 0
0 0
0 0
0 0
0 0
0 0
0 0
0 0
0 0
0 0
0 0
0 0
0 0
0 0
0 0
0 0
0 0
0 0
0 0
0 0
0 0
0 0
0 0
0 0
0 0
0 0
0 0
0 0
0 0
0 0
0 0
0 0
0 0
0 0
0 0
0 0
0 0
0 0
0 0
0 0
0 0
0 0
0 0
0 0
0 0
0 0
0 0
0 0
0 0
0 0
0 0
0 0
0 0
0 0
0 0
0 0
0 0
0 0
0 0
0 0
0 0
0 0
0 0
0 0
0 0
0 0
0 0
0 0
0 0
0 0
0 0
0 0
0 0
0 0
0 0
0 0
0 0
0 0
0 0
0 0
0 0
0 0
0 0
0 0
0 0
0 0
0 0
0 0
0 0
0 0
0 0
0 0
0 0
0 0
0 0
0 0
0 0
0 0
0 0
0 0
0 0
0 0
0 0
0 0
0 0
0 0
0 0
0 0
0 0
0 0
0 0
0 0
0 0
0 0
0 0
0 0
0 0
      </DataArray> 
      <DataArray type="Float64" NumberOfComponents="2" Name="Acceleration" format="ascii">
0 0
0 0
0 0
0 0
0 0
0 0
0 0
0 0
0 0
0 0
0 0
0 0
0 0
0 0
0 0
0 0
0 0
0 0
0 0
0 0
0 0
0 0
0 0
0 0
0 0
0 0
0 0
0 0
0 0
0 0
0 0
0 0
0 0
0 0
0 0
0 0
0 0
0 0
0 0
0 0
0 0
0 0
0 0
0 0
0 0
0 0
0 0
0 0
0 0
0 0
0 0
0 0
0 0
0 0
0 0
0 0
0 0
0 0
0 0
0 0
0 0
0 0
0 0
0 0
0 0
0 0
0 0
0 0
0 0
0 0
0 0
0 0
0 0
0 0
0 0
0 0
0 0
0 0
0 0
0 0
0 0
0 0
0 0
0 0
0 0
0 0
0 0
0 0
0 0
0 0
0 0
0 0
0 0
0 0
0 0
0 0
0 0
0 0
0 0
0 0
0 0
0 0
0 0
0 0
0 0
0 0
0 0
0 0
0 0
0 0
0 0
0 0
0 0
0 0
0 0
0 0
0 0
0 0
0 0
0 0
0 0
0 0
0 0
0 0
0 0
0 0
0 0
0 0
0 0
0 0
0 0
0 0
0 0
0 0
0 0
0 0
0 0
0 0
0 0
0 0
0 0
0 0
0 0
0 0
0 0
0 0
0 0
0 0
0 0
0 0
0 0
0 0
0 0
0 0
0 0
0 0
0 0
0 0
0 0
0 0
0 0
0 0
0 0
0 0
0 0
0 0
0 0
0 0
0 0
0 0
0 0
0 0
0 0
0 0
0 0
0 0
0 0
0 0
0 0
0 0
0 0
0 0
0 0
0 0
0 0
0 0
0 0
0 0
0 0
0 0
0 0
0 0
0 0
0 0
0 0
0 0
0 0
0 0
0 0
0 0
0 0
0 0
0 0
0 0
0 0
0 0
0 0
0 0
0 0
0 0
0 0
0 0
0 0
0 0
0 0
0 0
0 0
0 0
0 0
0 0
0 0
0 0
0 0
0 0
0 0
0 0
0 0
0 0
0 0
0 0
0 0
0 0
0 0
0 0
0 0
0 0
0 0
0 0
0 0
0 0
0 0
0 0
0 0
0 0
0 0
0 0
0 0
0 0
0 0
0 0
0 0
0 0
0 0
0 0
0 0
0 0
0 0
0 0
0 0
0 0
0 0
0 0
0 0
0 0
0 0
0 0
0 0
0 0
0 0
0 0
0 0
0 0
0 0
0 0
0 0
0 0
0 0
0 0
0 0
0 0
0 0
0 0
0 0
0 0
0 0
0 0
0 0
0 0
0 0
0 0
0 0
0 0
0 0
0 0
0 0
0 0
0 0
0 0
0 0
0 0
0 0
0 0
0 0
0 0
0 0
0 0
0 0
0 0
0 0
0 0
0 0
0 0
0 0
0 0
0 0
0 0
0 0
0 0
0 0
0 0
0 0
0 0
0 0
0 0
0 0
0 0
0 0
0 0
0 0
0 0
0 0
0 0
0 0
0 0
0 0
0 0
0 0
0 0
0 0
0 0
0 0
0 0
0 0
0 0
0 0
0 0
0 0
0 0
0 0
0 0
0 0
0 0
0 0
0 0
0 0
0 0
0 0
0 0
0 0
0 0
0 0
0 0
0 0
0 0
0 0
0 0
0 0
0 0
0 0
0 0
0 0
0 0
0 0
0 0
0 0
0 0
0 0
0 0
0 0
0 0
0 0
0 0
0 0
0 0
0 0
0 0
0 0
0 0
0 0
0 0
0 0
0 0
0 0
0 0
0 0
0 0
0 0
0 0
0 0
0 0
0 0
0 0
0 0
0 0
0 0
0 0
0 0
0 0
0 0
0 0
0 0
0 0
0 0
0 0
0 0
0 0
0 0
0 0
0 0
0 0
0 0
0 0
0 0
0 0
0 0
0 0
0 0
0 0
0 0
0 0
0 0
0 0
0 0
0 0
0 0
0 0
0 0
0 0
0 0
0 0
0 0
0 0
0 0
0 0
0 0
0 0
0 0
0 0
0 0
0 0
0 0
0 0
0 0
0 0
0 0
0 0
0 0
0 0
0 0
0 0
0 0
0 0
0 0
0 0
0 0
0 0
0 0
0 0
0 0
0 0
0 0
0 0
0 0
0 0
0 0
0 0
0 0
0 0
0 0
0 0
0 0
0 0
0 0
0 0
0 0
0 0
0 0
0 0
0 0
0 0
0 0
0 0
0 0
0 0
0 0
0 0
0 0
0 0
0 0
0 0
0 0
0 0
0 0
0 0
0 0
0 0
0 0
0 0
0 0
0 0
0 0
0 0
0 0
0 0
0 0
0 0
0 0
0 0
0 0
0 0
0 0
0 0
0 0
0 0
0 0
0 0
0 0
0 0
0 0
0 0
0 0
0 0
0 0
0 0
0 0
0 0
0 0
0 0
0 0
0 0
0 0
0 0
0 0
0 0
0 0
0 0
0 0
0 0
0 0
0 0
0 0
0 0
0 0
0 0
0 0
0 0
0 0
0 0
0 0
0 0
0 0
0 0
0 0
0 0
0 0
0 0
0 0
0 0
0 0
0 0
0 0
0 0
0 0
0 0
0 0
0 0
0 0
0 0
0 0
0 0
0 0
0 0
0 0
0 0
0 0
0 0
0 0
0 0
0 0
0 0
0 0
0 0
0 0
0 0
0 0
0 0
0 0
0 0
0 0
0 0
0 0
0 0
0 0
0 0
0 0
0 0
0 0
0 0
0 0
0 0
0 0
0 0
0 0
0 0
0 0
0 0
0 0
0 0
0 0
0 0
0 0
0 0
0 0
0 0
0 0
0 0
0 0
0 0
0 0
0 0
0 0
0 0
0 0
0 0
0 0
0 0
0 0
0 0
0 0
0 0
0 0
0 0
0 0
0 0
0 0
0 0
0 0
0 0
0 0
0 0
0 0
0 0
0 0
0 0
0 0
0 0
0 0
0 0
0 0
0 0
0 0
0 0
0 0
0 0
0 0
0 0
0 0
0 0
0 0
0 0
0 0
0 0
0 0
0 0
0 0
0 0
0 0
0 0
0 0
0 0
0 0
0 0
0 0
0 0
0 0
0 0
0 0
0 0
0 0
0 0
0 0
0 0
0 0
0 0
0 0
0 0
0 0
0 0
0 0
0 0
0 0
0 0
0 0
0 0
0 0
0 0
0 0
0 0
0 0
0 0
0 0
0 0
0 0
0 0
0 0
0 0
0 0
0 0
0 0
0 0
0 0
0 0
0 0
0 0
0 0
0 0
0 0
0 0
0 0
0 0
0 0
0 0
0 0
0 0
0 0
0 0
0 0
0 0
0 0
0 0
0 0
0 0
0 0
0 0
0 0
0 0
0 0
0 0
0 0
0 0
0 0
0 0
0 0
0 0
0 0
0 0
0 0
0 0
0 0
0 0
0 0
0 0
0 0
0 0
0 0
0 0
0 0
0 0
0 0
0 0
0 0
0 0
0 0
0 0
0 0
0 0
0 0
0 0
0 0
0 0
0 0
0 0
0 0
0 0
0 0
0 0
0 0
0 0
0 0
0 0
0 0
0 0
0 0
0 0
0 0
0 0
0 0
0 0
0 0
0 0
0 0
0 0
0 0
0 0
0 0
0 0
0 0
0 0
0 0
0 0
0 0
0 0
0 0
0 0
0 0
0 0
0 0
0 0
0 0
0 0
0 0
0 0
0 0
0 0
0 0
0 0
0 0
0 0
0 0
0 0
0 0
0 0
0 0
0 0
0 0
0 0
0 0
0 0
0 0
0 0
0 0
0 0
0 0
0 0
0 0
0 0
0 0
0 0
0 0
0 0
0 0
0 0
0 0
0 0
0 0
0 0
0 0
0 0
0 0
0 0
0 0
0 0
0 0
0 0
0 0
0 0
0 0
0 0
0 0
0 0
0 0
0 0
0 0
0 0
0 0
0 0
0 0
0 0
0 0
0 0
0 0
0 0
0 0
0 0
0 0
0 0
0 0
0 0
0 0
0 0
0 0
0 0
0 0
0 0
0 0
0 0
0 0
0 0
0 0
0 0
0 0
0 0
0 0
0 0
0 0
0 0
0 0
0 0
0 0
0 0
0 0
0 0
0 0
0 0
0 0
0 0
0 0
0 0
0 0
0 0
0 0
0 0
0 0
0 0
0 0
0 0
0 0
0 0
0 0
0 0
0 0
0 0
0 0
0 0
0 0
0 0
0 0
0 0
0 0
0 0
0 0
0 0
0 0
0 0
0 0
0 0
0 0
0 0
0 0
0 0
0 0
0 0
0 0
0 0
0 0
0 0
0 0
0 0
0 0
0 0
0 0
0 0
0 0
0 0
0 0
0 0
0 0
0 0
0 0
0 0
0 0
0 0
0 0
0 0
0 0
0 0
0 0
0 0
0 0
0 0
0 0
0 0
0 0
0 0
0 0
0 0
0 0
0 0
0 0
0 0
0 0
0 0
0 0
0 0
0 0
0 0
0 0
0 0
0 0
0 0
0 0
0 0
0 0
0 0
0 0
0 0
0 0
0 0
0 0
0 0
0 0
0 0
0 0
0 0
0 0
0 0
0 0
0 0
0 0
0 0
0 0
0 0
0 0
0 0
0 0
0 0
0 0
0 0
0 0
0 0
0 0
0 0
0 0
0 0
0 0
0 0
0 0
0 0
0 0
0 0
0 0
0 0
0 0
0 0
0 0
0 0
0 0
0 0
0 0
0 0
0 0
0 0
0 0
0 0
0 0
0 0
0 0
0 0
0 0
0 0
0 0
0 0
0 0
0 0
0 0
0 0
0 0
0 0
0 0
0 0
0 0
0 0
0 0
0 0
0 0
0 0
0 0
0 0
0 0
0 0
0 0
0 0
0 0
0 0
0 0
0 0
0 0
0 0
0 0
0 0
0 0
0 0
0 0
0 0
0 0
0 0
0 0
0 0
0 0
0 0
0 0
0 0
0 0
0 0
0 0
0 0
0 0
0 0
0 0
0 0
0 0
0 0
0 0
0 0
0 0
0 0
0 0
0 0
0 0
0 0
0 0
0 0
0 0
0 0
0 0
0 0
0 0
0 0
0 0
0 0
0 0
0 0
0 0
0 0
0 0
0 0
0 0
0 0
0 0
0 0
0 0
0 0
0 0
0 0
0 0
0 0
0 0
0 0
0 0
0 0
0 0
0 0
0 0
0 0
0 0
0 0
0 0
0 0
0 0
0 0
0 0
0 0
0 0
0 0
0 0
0 0
0 0
0 0
0 0
0 0
0 0
0 0
0 0
0 0
0 0
0 0
0 0
0 0
0 0
0 0
0 0
0 0
0 0
0 0
0 0
0 0
0 0
0 0
0 0
0 0
0 0
0 0
0 0
0 0
0 0
0 0
0 0
0 0
0 0
0 0
0 0
0 0
0 0
0 0
0 0
0 0
0 0
0 0
0 0
0 0
0 0
0 0
0 0
0 0
0 0
0 0
0 0
0 0
0 0
0 0
0 0
0 0
0 0
0 0
0 0
0 0
0 0
0 0
0 0
0 0
0 0
0 0
0 0
0 0
0 0
0 0
0 0
0 0
0 0
0 0
0 0
0 0
0 0
0 0
0 0
0 0
0 0
0 0
0 0
0 0
0 0
0 0
0 0
0 0
0 0
0 0
0 0
0 0
0 0
0 0
0 0
0 0
0 0
0 0
0 0
0 0
0 0
0 0
0 0
0 0
0 0
0 0
0 0
0 0
0 0
0 0
0 0
0 0
0 0
0 0
0 0
0 0
0 0
0 0
0 0
0 0
0 0
0 0
0 0
0 0
0 0
0 0
0 0
0 0
0 0
0 0
0 0
0 0
0 0
0 0
0 0
0 0
0 0
0 0
0 0
0 0
0 0
0 0
0 0
0 0
0 0
0 0
0 0
0 0
0 0
0 0
0 0
0 0
0 0
0 0
0 0
0 0
0 0
0 0
0 0
0 0
0 0
0 0
0 0
0 0
0 0
0 0
0 0
0 0
0 0
0 0
0 0
0 0
0 0
0 0
0 0
0 0
0 0
0 0
0 0
0 0
0 0
0 0
0 0
0 0
0 0
0 0
0 0
0 0
0 0
0 0
0 0
0 0
0 0
0 0
0 0
0 0
0 0
0 0
0 0
0 0
0 0
0 0
0 0
0 0
0 0
0 0
0 0
0 0
0 0
0 0
0 0
0 0
0 0
0 0
0 0
0 0
0 0
0 0
0 0
0 0
0 0
0 0
0 0
0 0
0 0
0 0
0 0
0 0
0 0
0 0
0 0
0 0
0 0
0 0
0 0
0 0
0 0
0 0
0 0
0 0
0 0
0 0
0 0
0 0
0 0
0 0
0 0
0 0
0 0
0 0
0 0
0 0
0 0
0 0
0 0
0 0
0 0
0 0
0 0
0 0
0 0
0 0
0 0
0 0
0 0
0 0
0 0
0 0
0 0
0 0
0 0
0 0
0 0
0 0
0 0
0 0
0 0
0 0
0 0
0 0
0 0
0 0
0 0
0 0
0 0
0 0
0 0
0 0
0 0
0 0
0 0
0 0
0 0
0 0
0 0
0 0
0 0
0 0
0 0
0 0
0 0
0 0
0 0
0 0
0 0
0 0
0 0
0 0
0 0
0 0
0 0
0 0
0 0
0 0
0 0
0 0
0 0
0 0
0 0
0 0
0 0
0 0
0 0
0 0
0 0
0 0
0 0
0 0
0 0
0 0
0 0
0 0
0 0
0 0
0 0
0 0
0 0
0 0
0 0
0 0
0 0
0 0
0 0
0 0
0 0
0 0
0 0
0 0
0 0
0 0
0 0
0 0
0 0
0 0
0 0
0 0
0 0
0 0
0 0
0 0
0 0
0 0
0 0
0 0
0 0
0 0
0 0
0 0
0 0
0 0
0 0
0 0
0 0
0 0
0 0
0 0
0 0
0 0
0 0
0 0
0 0
0 0
0 0
0 0
0 0
0 0
0 0
0 0
0 0
0 0
0 0
0 0
0 0
0 0
0 0
0 0
0 0
0 0
0 0
0 0
0 0
0 0
0 0
0 0
0 0
0 0
0 0
0 0
0 0
0 0
0 0
0 0
0 0
0 0
0 0
0 0
0 0
0 0
0 0
0 0
0 0
0 0
0 0
0 0
0 0
0 0
0 0
0 0
0 0
0 0
0 0
0 0
0 0
0 0
0 0
0 0
0 0
0 0
0 0
0 0
0 0
0 0
0 0
0 0
0 0
0 0
0 0
0 0
0 0
0 0
0 0
0 0
0 0
0 0
0 0
0 0
0 0
0 0
0 0
0 0
0 0
0 0
0 0
0 0
0 0
0 0
0 0
0 0
0 0
0 0
0 0
0 0
0 0
0 0
0 0
0 0
0 0
0 0
0 0
0 0
0 0
0 0
0 0
0 0
0 0
0 0
0 0
0 0
0 0
0 0
0 0
0 0
0 0
0 0
0 0
0 0
0 0
0 0
0 0
0 0
0 0
0 0
0 0
0 0
0 0
0 0
0 0
0 0
0 0
0 0
0 0
0 0
0 0
0 0
0 0
0 0
0 0
0 0
0 0
0 0
0 0
0 0
0 0
0 0
0 0
0 0
0 0
0 0
0 0
0 0
0 0
0 0
0 0
0 0
0 0
0 0
0 0
0 0
0 0
0 0
0 0
0 0
0 0
0 0
0 0
0 0
0 0
0 0
0 0
0 0
0 0
0 0
0 0
0 0
0 0
0 0
0 0
0 0
0 0
0 0
0 0
0 0
0 0
0 0
0 0
0 0
0 0
0 0
0 0
0 0
0 0
0 0
0 0
0 0
0 0
0 0
0 0
0 0
0 0
0 0
0 0
0 0
0 0
0 0
0 0
0 0
0 0
0 0
0 0
0 0
0 0
0 0
0 0
0 0
0 0
0 0
0 0
0 0
0 0
0 0
0 0
0 0
0 0
0 0
0 0
0 0
0 0
0 0
0 0
0 0
0 0
0 0
0 0
0 0
0 0
0 0
0 0
0 0
0 0
0 0
0 0
0 0
0 0
0 0
0 0
0 0
0 0
0 0
0 0
0 0
0 0
0 0
0 0
0 0
0 0
0 0
0 0
0 0
0 0
0 0
0 0
0 0
0 0
0 0
0 0
0 0
0 0
0 0
0 0
0 0
0 0
0 0
0 0
0 0
0 0
0 0
0 0
0 0
0 0
0 0
0 0
0 0
0 0
0 0
0 0
0 0
0 0
0 0
0 0
0 0
0 0
0 0
0 0
0 0
0 0
0 0
0 0
0 0
0 0
0 0
0 0
0 0
0 0
0 0
0 0
0 0
0 0
0 0
0 0
0 0
0 0
0 0
0 0
0 0
0 0
0 0
0 0
0 0
0 0
0 0
0 0
0 0
0 0
0 0
0 0
0 0
0 0
0 0
0 0
0 0
0 0
0 0
0 0
0 0
0 0
0 0
0 0
0 0
0 0
0 0
0 0
0 0
0 0
0 0
0 0
0 0
0 0
0 0
0 0
0 0
0 0
0 0
0 0
0 0
0 0
0 0
0 0
0 0
0 0
0 0
0 0
0 0
0 0
0 0
0 0
0 0
0 0
0 0
0 0
0 0
0 0
0 0
0 0
0 0
0 0
0 0
0 0
0 0
0 0
0 0
0 0
0 0
0 0
0 0
0 0
0 0
0 0
0 0
0 0
0 0
0 0
0 0
0 0
0 0
0 0
0 0
0 0
0 0
0 0
0 0
0 0
0 0
0 0
0 0
0 0
0 0
0 0
0 0
0 0
0 0
0 0
0 0
0 0
0 0
0 0
0 0
0 0
0 0
0 0
0 0
0 0
0 0
0 0
0 0
0 0
0 0
0 0
0 0
0 0
0 0
0 0
0 0
0 0
0 0
0 0
0 0
0 0
0 0
0 0
0 0
0 0
0 0
0 0
0 0
0 0
0 0
0 0
0 0
0 0
0 0
0 0
0 0
0 0
0 0
0 0
0 0
0 0
0 0
0 0
0 0
0 0
0 0
0 0
0 0
0 0
0 0
0 0
0 0
0 0
0 0
0 0
0 0
0 0
0 0
0 0
0 0
0 0
0 0
0 0
0 0
0 0
0 0
0 0
0 0
0 0
0 0
0 0
0 0
0 0
0 0
0 0
0 0
0 0
0 0
0 0
0 0
0 0
0 0
0 0
0 0
0 0
0 0
0 0
0 0
0 0
0 0
0 0
0 0
0 0
0 0
0 0
0 0
0 0
0 0
0 0
0 0
0 0
0 0
0 0
0 0
0 0
0 0
0 0
0 0
0 0
0 0
0 0
0 0
0 0
0 0
0 0
0 0
0 0
0 0
0 0
0 0
0 0
0 0
0 0
0 0
0 0
0 0
0 0
0 0
0 0
0 0
0 0
0 0
0 0
0 0
0 0
0 0
0 0
0 0
0 0
0 0
0 0
0 0
0 0
0 0
0 0
0 0
0 0
0 0
0 0
0 0
0 0
0 0
0 0
0 0
0 0
0 0
0 0
0 0
0 0
0 0
0 0
0 0
0 0
0 0
0 0
0 0
0 0
0 0
0 0
0 0
0 0
0 0
0 0
0 0
0 0
0 0
0 0
0 0
0 0
0 0
0 0
0 0
0 0
0 0
0 0
0 0
0 0
0 0
0 0
0 0
0 0
0 0
0 0
0 0
0 0
0 0
0 0
0 0
0 0
0 0
0 0
0 0
0 0
0 0
0 0
0 0
0 0
0 0
0 0
0 0
0 0
0 0
0 0
0 0
0 0
0 0
0 0
0 0
0 0
0 0
0 0
0 0
0 0
0 0
0 0
0 0
0 0
0 0
0 0
0 0
0 0
0 0
0 0
0 0
0 0
0 0
0 0
0 0
0 0
0 0
0 0
0 0
0 0
0 0
0 0
0 0
0 0
0 0
0 0
0 0
0 0
0 0
0 0
0 0
0 0
0 0
0 0
0 0
0 0
0 0
0 0
0 0
0 0
0 0
0 0
0 0
0 0
0 0
0 0
0 0
0 0
0 0
0 0
0 0
0 0
0 0
0 0
0 0
0 0
0 0
0 0
0 0
0 0
0 0
0 0
0 0
0 0
0 0
0 0
0 0
0 0
0 0
0 0
0 0
0 0
0 0
0 0
0 0
0 0
0 0
0 0
0 0
0 0
0 0
0 0
0 0
0 0
0 0
0 0
0 0
0 0
0 0
0 0
0 0
0 0
0 0
0 0
0 0
0 0
0 0
0 0
0 0
0 0
0 0
0 0
0 0
0 0
0 0
0 0
0 0
0 0
0 0
0 0
0 0
0 0
0 0
0 0
0 0
0 0
0 0
0 0
0 0
0 0
0 0
0 0
0 0
0 0
0 0
0 0
0 0
0 0
0 0
0 0
0 0
0 0
0 0
0 0
0 0
0 0
0 0
0 0
0 0
0 0
0 0
0 0
0 0
0 0
0 0
0 0
0 0
0 0
0 0
0 0
0 0
0 0
0 0
0 0
0 0
0 0
0 0
0 0
0 0
0 0
0 0
0 0
0 0
0 0
0 0
0 0
0 0
0 0
0 0
0 0
0 0
0 0
0 0
0 0
0 0
0 0
0 0
0 0
0 0
0 0
0 0
0 0
0 0
0 0
0 0
0 0
0 0
0 0
0 0
0 0
0 0
0 0
0 0
0 0
0 0
0 0
0 0
0 0
0 0
0 0
0 0
0 0
0 0
0 0
0 0
0 0
0 0
0 0
0 0
0 0
0 0
0 0
0 0
0 0
0 0
0 0
0 0
0 0
0 0
0 0
0 0
0 0
0 0
0 0
0 0
0 0
0 0
0 0
0 0
0 0
0 0
0 0
0 0
0 0
0 0
0 0
0 0
0 0
0 0
0 0
0 0
0 0
0 0
0 0
0 0
0 0
0 0
0 0
0 0
0 0
0 0
0 0
0 0
0 0
0 0
0 0
0 0
0 0
0 0
0 0
0 0
0 0
0 0
0 0
0 0
0 0
0 0
0 0
0 0
0 0
0 0
0 0
0 0
0 0
0 0
0 0
0 0
0 0
0 0
0 0
0 0
0 0
0 0
0 0
0 0
0 0
0 0
0 0
0 0
0 0
0 0
0 0
0 0
0 0
0 0
0 0
0 0
0 0
0 0
0 0
0 0
0 0
0 0
0 0
0 0
0 0
0 0
0 0
0 0
0 0
0 0
0 0
0 0
0 0
0 0
0 0
0 0
0 0
0 0
0 0
0 0
0 0
0 0
0 0
0 0
0 0
0 0
0 0
0 0
0 0
0 0
0 0
0 0
0 0
0 0
0 0
0 0
0 0
0 0
0 0
0 0
0 0
0 0
0 0
0 0
0 0
0 0
0 0
0 0
0 0
0 0
0 0
0 0
0 0
0 0
0 0
0 0
0 0
0 0
0 0
0 0
0 0
0 0
0 0
0 0
0 0
0 0
0 0
0 0
0 0
0 0
0 0
0 0
0 0
0 0
0 0
0 0
0 0
0 0
0 0
0 0
0 0
0 0
0 0
0 0
0 0
0 0
0 0
0 0
0 0
0 0
0 0
0 0
0 0
0 0
0 0
0 0
0 0
0 0
0 0
0 0
0 0
0 0
0 0
0 0
0 0
0 0
0 0
0 0
0 0
0 0
0 0
0 0
0 0
0 0
0 0
0 0
0 0
0 0
0 0
0 0
0 0
0 0
0 0
0 0
0 0
0 0
0 0
0 0
0 0
0 0
0 0
0 0
0 0
0 0
0 0
0 0
0 0
0 0
0 0
0 0
0 0
0 0
0 0
0 0
0 0
0 0
0 0
0 0
0 0
0 0
0 0
0 0
0 0
0 0
0 0
0 0
0 0
0 0
0 0
0 0
0 0
0 0
0 0
0 0
0 0
0 0
0 0
0 0
0 0
0 0
0 0
0 0
0 0
0 0
0 0
0 0
0 0
0 0
0 0
0 0
0 0
0 0
0 0
0 0
0 0
0 0
0 0
0 0
0 0
0 0
0 0
0 0
0 0
0 0
0 0
0 0
0 0
0 0
0 0
0 0
0 0
0 0
0 0
0 0
0 0
0 0
0 0
0 0
0 0
0 0
0 0
0 0
0 0
0 0
0 0
0 0
0 0
0 0
0 0
0 0
0 0
0 0
0 0
0 0
0 0
0 0
0 0
0 0
0 0
0 0
0 0
0 0
0 0
0 0
0 0
0 0
0 0
0 0
0 0
0 0
0 0
0 0
0 0
0 0
0 0
0 0
0 0
0 0
0 0
0 0
0 0
0 0
0 0
0 0
0 0
0 0
0 0
0 0
0 0
0 0
0 0
0 0
0 0
0 0
0 0
0 0
0 0
0 0
0 0
0 0
0 0
0 0
0 0
0 0
0 0
0 0
0 0
0 0
0 0
0 0
0 0
0 0
0 0
0 0
0 0
0 0
0 0
0 0
0 0
0 0
0 0
0 0
0 0
0 0
0 0
0 0
0 0
0 0
0 0
0 0
0 0
0 0
0 0
0 0
0 0
0 0
0 0
0 0
0 0
0 0
0 0
0 0
0 0
0 0
0 0
0 0
0 0
0 0
0 0
0 0
0 0
0 0
0 0
0 0
0 0
0 0
0 0
0 0
0 0
0 0
0 0
0 0
0 0
0 0
0 0
0 0
0 0
0 0
0 0
0 0
0 0
0 0
0 0
0 0
0 0
0 0
0 0
0 0
0 0
0 0
0 0
0 0
0 0
0 0
0 0
0 0
0 0
0 0
0 0
0 0
0 0
0 0
0 0
0 0
0 0
0 0
0 0
0 0
0 0
0 0
0 0
0 0
0 0
0 0
0 0
0 0
0 0
0 0
0 0
0 0
0 0
0 0
0 0
0 0
0 0
0 0
0 0
0 0
0 0
0 0
0 0
0 0
0 0
0 0
0 0
0 0
0 0
0 0
0 0
0 0
0 0
0 0
0 0
0 0
0 0
0 0
0 0
0 0
0 0
0 0
0 0
0 0
0 0
0 0
0 0
0 0
0 0
0 0
0 0
0 0
0 0
0 0
0 0
0 0
0 0
0 0
0 0
0 0
0 0
0 0
0 0
0 0
0 0
0 0
0 0
0 0
0 0
0 0
0 0
0 0
0 0
0 0
0 0
0 0
0 0
0 0
0 0
0 0
0 0
0 0
0 0
0 0
0 0
0 0
0 0
0 0
0 0
0 0
0 0
0 0
0 0
0 0
0 0
0 0
0 0
0 0
0 0
0 0
0 0
0 0
0 0
0 0
0 0
0 0
0 0
0 0
0 0
0 0
0 0
0 0
0 0
0 0
0 0
0 0
0 0
0 0
0 0
0 0
0 0
0 0
0 0
0 0
0 0
0 0
0 0
0 0
0 0
0 0
0 0
0 0
0 0
0 0
0 0
0 0
0 0
0 0
0 0
0 0
0 0
0 0
0 0
0 0
0 0
0 0
0 0
0 0
0 0
0 0
0 0
0 0
0 0
0 0
0 0
0 0
0 0
0 0
0 0
0 0
0 0
0 0
0 0
0 0
0 0
0 0
0 0
0 0
0 0
0 0
0 0
0 0
0 0
0 0
0 0
0 0
0 0
0 0
0 0
0 0
0 0
0 0
0 0
0 0
0 0
0 0
0 0
0 0
0 0
0 0
0 0
0 0
0 0
0 0
0 0
0 0
0 0
0 0
0 0
0 0
0 0
0 0
0 0
0 0
0 0
0 0
0 0
0 0
0 0
0 0
0 0
0 0
0 0
0 0
0 0
0 0
0 0
0 0
0 0
0 0
0 0
0 0
0 0
0 0
0 0
0 0
0 0
0 0
0 0
0 0
0 0
0 0
0 0
0 0
0 0
0 0
0 0
0 0
0 0
0 0
0 0
0 0
0 0
0 0
0 0
0 0
0 0
0 0
0 0
0 0
0 0
0 0
0 0
0 0
0 0
0 0
0 0
0 0
0 0
0 0
0 0
0 0
0 0
0 0
0 0
0 0
0 0
0 0
0 0
0 0
0 0
0 0
0 0
0 0
0 0
0 0
0 0
0 0
0 0
0 0
0 0
0 0
0 0
0 0
0 0
0 0
0 0
0 0
0 0
0 0
0 0
0 0
0 0
0 0
0 0
0 0
0 0
0 0
0 0
0 0
0 0
0 0
0 0
0 0
0 0
0 0
0 0
0 0
0 0
0 0
0 0
0 0
0 0
0 0
0 0
0 0
0 0
0 0
0 0
0 0
0 0
0 0
0 0
0 0
0 0
0 0
0 0
0 0
0 0
0 0
0 0
0 0
0 0
0 0
0 0
0 0
0 0
0 0
0 0
0 0
0 0
0 0
0 0
0 0
0 0
0 0
0 0
0 0
0 0
0 0
0 0
0 0
0 0
0 0
0 0
0 0
0 0
0 0
0 0
0 0
0 0
0 0
0 0
0 0
0 0
0 0
0 0
0 0
0 0
0 0
0 0
0 0
0 0
0 0
0 0
0 0
0 0
0 0
0 0
0 0
0 0
0 0
0 0
0 0
0 0
0 0
0 0
0 0
0 0
0 0
0 0
0 0
0 0
0 0
0 0
0 0
0 0
0 0
0 0
0 0
0 0
0 0
0 0
0 0
0 0
0 0
0 0
0 0
0 0
0 0
0 0
0 0
0 0
0 0
0 0
0 0
0 0
0 0
0 0
0 0
0 0
0 0
0 0
0 0
0 0
0 0
0 0
0 0
0 0
0 0
0 0
0 0
0 0
0 0
0 0
0 0
0 0
0 0
0 0
0 0
0 0
0 0
0 0
0 0
0 0
0 0
0 0
0 0
0 0
0 0
0 0
0 0
0 0
0 0
0 0
0 0
0 0
0 0
0 0
0 0
0 0
0 0
0 0
0 0
0 0
0 0
0 0
0 0
0 0
0 0
0 0
0 0
0 0
0 0
0 0
0 0
0 0
0 0
0 0
0 0
0 0
0 0
0 0
0 0
0 0
0 0
0 0
0 0
0 0
0 0
0 0
0 0
0 0
0 0
0 0
0 0
0 0
0 0
0 0
0 0
0 0
0 0
0 0
0 0
0 0
0 0
0 0
0 0
0 0
0 0
0 0
0 0
0 0
0 0
0 0
0 0
0 0
0 0
0 0
0 0
0 0
0 0
0 0
0 0
0 0
0 0
0 0
0 0
0 0
0 0
0 0
0 0
0 0
0 0
0 0
0 0
0 0
0 0
0 0
0 0
0 0
0 0
0 0
0 0
0 0
0 0
0 0
0 0
0 0
0 0
0 0
0 0
0 0
0 0
0 0
0 0
0 0
0 0
0 0
0 0
0 0
0 0
0 0
0 0
0 0
0 0
0 0
0 0
0 0
0 0
0 0
0 0
0 0
0 0
0 0
0 0
0 0
0 0
0 0
0 0
0 0
0 0
0 0
0 0
0 0
0 0
0 0
0 0
0 0
0 0
0 0
0 0
0 0
0 0
0 0
0 0
0 0
0 0
0 0
0 0
0 0
0 0
0 0
0 0
0 0
0 0
0 0
0 0
0 0
0 0
0 0
0 0
0 0
0 0
0 0
0 0
0 0
0 0
0 0
0 0
0 0
0 0
0 0
0 0
0 0
0 0
0 0
0 0
0 0
0 0
0 0
0 0
0 0
      </DataArray> 
      <DataArray type="Float64" NumberOfComponents="2" Name="CauchyNormalStress" format="ascii">
21.1495 13.2656
19.3067 10.8423
20.2544 2.13348
10.307 -0.529459
6.94245 0.0872192
4.27393 -0.0261905
2.79223 -0.224242
1.80995 -0.226275
0.663231 -0.100526
-0.159836 -0.00833513
-0.803264 -0.106461
-1.19304 -0.148028
-1.74947 -0.0778126
-2.10939 -0.00334592
-2.34741 -0.0858464
-2.40302 -0.106474
-2.57974 -0.0395728
-2.58922 0.00932711
-2.48204 -0.0794655
-2.18706 -0.106862
-2.01328 -0.0387819
-1.67025 0.00686039
-1.17772 -0.0995638
-0.434917 -0.144214
0.152929 -0.0490095
0.984631 0.0341714
2.10491 -0.107065
3.9731 -0.479325
5.74927 -0.683495
8.55888 -0.327861
18.2482 0.932726
-1.85937 2.70752
-2.45032 3.12964
-2.20201 5.46186
6.55433 17.5888
-1.60429 -0.059845
-0.451496 0.397332
-0.0995856 0.0549028
-0.243098 -0.233722
-0.233033 -0.356008
-0.0586422 -0.852369
-0.038103 -1.01894
-0.0270337 -1.19311
-0.0877589 -1.26024
-0.134969 -1.4314
-0.153338 -1.2017
-0.162301 -1.3504
-0.209355 -1.31926
-0.286911 -1.35098
-0.363844 -1.22855
-0.429188 -1.22278
-0.48931 -1.0095
-0.598469 -1.07906
-0.0140692 -1.3675
-1.26557 -0.0938105
-1.51458 -0.118562
-1.13904 -0.280908
-1.23825 -0.361982
-0.865215 -0.628998
-173.502 -435.215
-0.971506 -4.06266
-0.296689 -1.42429
-2.06597 -5.06588
-16.6837 -84.8048
-5.82143 -74.9357
0.0697593 -42.5361
-3.33064 -44.8548
-3.85505 -44.045
-7.02828 -51.2149
38.2311 2.33097
-28.2235 -85.0764
-37.5485 -101.854
-52.04 -152.808
-16.8621 -84.1871
40.0841 1.03289
55.7856 22.2416
-42.1717 -15.8672
-157.618 -417.596
-6.22096 -75.2366
0.0565247 -43.0034
-3.44473 -45.1072
-3.8565 -44.1739
-6.99834 -51.1828
0.0369716 -1.77174
-0.950927 -4.00238
-0.458439 -1.41944
-2.7471 -4.49154
-1.73962 0.235626
-0.470001 -3.17135
-0.0791809 -1.7469
-0.442516 -2.21877
-0.481729 -1.27014
-0.587749 -1.12536
-1.36553 2.79943
-1.25496 -0.0268349
-1.46823 -0.195993
-1.0753 -0.226506
-1.21591 -0.425192
-0.937692 -0.41303
-0.930825 -0.613342
-0.747901 -0.695845
-0.719178 -0.833719
-0.616067 -1.0011
-0.508311 -1.00761
-0.444469 -1.22951
-0.304842 -1.1446
-0.235365 -1.37458
-0.133598 -1.33496
-0.166395 -1.3846
-0.142286 -1.19707
-0.0908973 -1.25864
-1.82947 4.14493
-0.659682 7.15907
7.15159 16.474
-43.9428 -26.0316
-26.8673 -68.2813
-42.6048 -28.202
-23.4742 -92.398
-29.9754 -74.7073
-5.19216 -55.0816
-43.4299 -20.4985
11.5354 -60.9093
3.69418 -8.76039
2.44012 -9.24292
-7.78025 -94.698
-8.21445 -97.4225
5.58294 -22.5807
2.25831 -10.4542
1.13568 -46.0723
1.30002 -40.236
-0.541065 -46.3227
2.45396 -35.1349
1.55181 -40.8914
-4.04036 -38.8923
-0.386781 -39.103
-1.0435 -42.3465
-5.50225 -41.7979
3.4933 -32.4088
4.4427 -30.9507
3.82684 -42.2394
-22.2733 -13.6693
-23.199 -13.6797
-24.6811 -15.0594
2.19903 -49.0586
3.02447 -37.3177
-12.7625 -43.1678
-12.1823 -40.5506
-0.618532 -54.6561
-3.52194 -52.6827
-9.89593 -46.3214
-11.1408 -49.7107
-0.829062 -50.6744
-17.0292 -11.1673
-20.3177 -11.8988
-18.8496 -12.0007
1.994 -31.2058
2.66646 -32.909
-19.0997 -19.3113
-12.5598 -29.3135
-2.63971 -33.7584
1.10079 -29.3608
0.814131 -31.4285
-2.78187 -36.5064
-13.4035 -31.4404
-20.3437 -20.0932
4.02729 -27.0854
5.4744 -37.6873
-31.8183 -23.2687
-30.9149 -18.5212
-25.924 -14.8802
-27.2137 -20.3413
6.85783 -38.9869
7.37551 -46.9453
5.97817 -45.3918
4.81188 -37.3966
4.76311 -29.1848
4.20739 -25.8792
-33.3617 -26.6937
-19.1242 -39.2092
-18.4576 -36.518
-33.1116 -37.5007
5.42737 -58.0489
0.509203 -73.5414
-12.1049 -54.8092
-2.30709 -58.0211
6.52241 -53.4257
-15.3108 -10.8649
-17.5234 -11.1184
-17.5044 -10.6884
-17.9751 -11.0332
-14.66 -9.29965
-14.174 -9.13981
-13.5657 -8.72867
-15.5369 -10.3312
2.61922 -26.5266
3.54955 -24.0493
3.7412 -23.4691
2.68794 -27.2913
-14.4533 -10.9077
-15.1682 -12.4322
-15.4983 -18.792
-11.9233 -22.5082
-5.6491 -26.5878
-1.76801 -28.7972
-2.57965 -30.293
-6.60277 -28.2072
-12.9339 -24.1019
-16.0029 -19.4702
-16.0657 -11.924
-14.9765 -10.5094
3.85529 -22.7571
6.02123 -29.7597
-42.2454 -33.6115
-34.9446 -19.3956
-37.9911 -23.6205
8.77706 -39.2295
8.78504 -44.1272
5.56855 -29.3841
3.71705 -20.6273
-33.7464 -42.4657
-33.9091 -54.9291
9.34519 -62.9667
-16.029 -65.3383
-34.5501 -67.8293
-12.9176 -56.795
3.18108 -64.9196
-10.6311 -7.55554
-12.1844 -8.48063
-12.3971 -8.41127
-10.8196 -7.47897
-10.0641 -7.2808
-10.0678 -7.09891
3.06702 -21.9004
2.58943 -21.5513
-10.5306 -9.22708
-7.84567 -15.5323
-0.584301 -22.2212
-1.80583 -23.1836
-8.58719 -15.8971
-10.5012 -8.5299
2.58855 -14.1746
3.19361 -16.464
3.7778 -19.7192
4.45788 -20.1859
6.18959 -22.1992
8.04588 -29.0562
-36.4537 -53.4903
-44.687 -20.742
-40.5918 -36.7445
9.71293 -36.8089
9.9138 -39.0199
8.1709 -32.161
6.3111 -26.1508
4.90319 -22.2716
3.29209 -17.1492
2.38063 -12.5844
-40.3206 -58.5446
-40.6671 -77.4087
11.0209 -46.6469
10.0499 -84.777
-38.766 -90.0207
11.4158 -63.1337
10.7119 -43.8485
-22.2282 -73.5142
6.38664 -77.2463
-5.38749 -5.27557
-5.8959 -4.96105
-7.49793 -6.16844
-6.37227 -6.11402
-8.77346 -6.30215
-8.10952 -6.36762
-8.348 -5.81524
-8.34269 -5.95053
-6.69794 -5.17319
-7.15564 -5.15506
-6.23484 -5.63722
-7.19199 -5.56624
-4.99923 -4.68251
-5.66397 -5.18309
2.8438 -19.4993
3.04327 -18.9275
3.12377 -16.4889
2.26264 -12.2187
3.15385 -15.9271
2.90677 -19.5281
1.51211 -20.893
-7.04002 -6.40605
-5.48088 -8.60204
-2.16206 -13.5788
0.748468 -16.62
-1.28078 -18.1749
-3.30057 -14.1114
-6.37786 -8.34836
-6.46276 -5.50843
0.989898 -6.35964
2.07052 -11.2766
2.77322 -12.7245
4.09168 -15.4642
5.63063 -18.6436
1.21975 -121.082
-34.3764 -18.1812
-20.571 -2.38957
-35.274 -13.9635
-4.45437 -110.713
8.43264 -28.9554
8.11899 -27.686
5.68705 -20.2675
3.47188 -16.1857
1.1868 -7.46524
2.3916 -156.084
-12.4783 -119.757
1.66763 -150.86
-5.4523 -128.231
8.6121 -48.8957
-22.2009 -125.211
-73.6791 -146.271
8.38344 -40.357
-70.567 -128.468
-5.78764 -99.1874
-0.423961 -2.91283
-2.44812 -4.01185
-4.59414 -4.01148
-5.2858 -3.73896
-4.8331 -3.52331
-3.24474 -3.60257
-0.562971 -3.23867
4.44592 -13.3074
1.66986 -8.43122
2.31215 -9.39825
3.22365 -14.5881
-0.172125 -3.5021
4.81669 -10.4512
6.84658 -8.95029
5.34914 -11.2226
2.04891 -11.6197
-0.331462 -3.31251
1.02415 -3.7327
0.98908 -4.98356
0.245864 -2.71191
0.661591 -4.73064
0.626521 -4.75472
1.21219 -7.36685
1.0503 -6.28059
1.57047 -7.9061
1.65993 -7.84915
1.89379 -8.2298
1.6029 -7.25124
-30.9281 -50.5707
-16.0226 -5.11678
-14.4552 -4.58882
-31.8628 -35.3422
3.26688 -11.3071
4.04303 -13.5501
4.30172 -15.1249
2.95605 -12.759
3.66092 -20.78
3.43571 -18.75
3.11694 -13.3358
3.91425 -14.0195
3.98416 -13.4134
3.11589 -11.0096
3.12051 -11.2037
2.36726 -9.49091
1.42226 -7.03392
1.6933 -8.32221
0.476947 -4.43517
0.650648 -4.46654
0.590228 -4.53112
0.424351 -3.69104
1.77317 -84.2752
1.99259 -112.158
-1.76472 -150.074
1.46349 -81.9307
1.37693 -143.553
0.80033 -107.856
1.17197 -24.9506
-4.56002 -22.4419
-2.96788 -175.521
2.18947 -24.4953
4.58387 -118.062
-1.39408 -31.5884
3.62584 -1.59274
8.03977 2.69206
4.38977 -2.32175
0.767176 -2.0345
1.96094 -2.00293
-0.767194 -2.14667
-2.30802 -2.07303
-1.65808 -2.02578
-3.05643 -2.01475
-3.68456 -1.97881
-3.43374 -1.92681
-3.66707 -1.8028
-3.57508 -1.81555
-3.69289 -1.75068
-3.09741 -1.78216
-2.16843 -1.83941
-2.73142 -1.74607
-1.0721 -1.88211
1.30826 -2.05943
-0.174142 -1.82532
3.25032 -1.28376
8.85236 1.87843
4.15546 -1.43093
0.249982 -2.07551
0.25322 -2.49556
0.540683 -3.39601
0.463256 -3.20021
2.49655 -8.20778
5.11203 -2.32376
3.03919 -8.09366
4.77157 -9.69586
4.06206 -3.43816
8.61508 0.584055
5.50456 -5.13151
4.0923 -6.25465
7.74599 0.685976
0.365474 -1.38793
0.316569 -1.20944
0.436503 0.98684
0.728331 -0.496497
0.574597 -0.624053
0.266999 0.581269
3.45107 2.48363
16.329 7.31266
4.16397 2.63354
3.84359 0.640514
4.23083 0.260717
12.9423 2.90822
7.91538 -5.66955
9.84546 -1.69267
1.40546 -2.35472
1.71379 -2.53067
-0.38848 -6.54991
0.872131 -6.74074
3.69939 -13.3658
3.17704 -12.9391
1.03198 -6.35212
0.535396 -4.10107
-0.143652 -1.9902
-1.7907 -3.66617
-4.07283 -3.50809
-5.03887 -3.52201
-5.05365 -3.88751
-3.5693 -4.0572
-0.757336 -3.88944
-2.21694 -1.99267
8.2726 -56.77
5.77165 -73.034
10.5279 -124.046
11.404 -127.882
1.35153 -7.83898
3.9493 -15.8046
7.05859 -23.217
7.06033 -27.0647
8.72738 -34.5643
7.18394 -23.5987
-33.0836 -38.347
-29.4424 -51.914
4.10616 -14.3389
3.49324 -14.6217
2.76726 -13.6843
1.49129 -8.49924
2.70218 -15.9945
5.14031 -14.1393
-40.6813 -90.4381
-43.6926 -107.93
-39.2305 -12.0258
-11.7919 -10.6188
-5.70794 -20.7985
-4.49615 -19.6999
-11.5262 -11.3354
1.37692 -25.4953
3.22485 -17.9691
3.47373 -19.6007
2.14498 -24.5932
-9.47017 -6.94046
-10.6289 -7.51166
-9.51601 -6.84593
-11.87 -8.05508
-12.7727 -8.66285
-11.5796 -8.21179
-9.81608 -7.28392
-6.82191 -62.4673
9.94445 -56.926
6.71449 -80.833
9.60544 -49.3254
-41.03 -50.3514
-42.8263 -35.4392
4.36706 -23.1164
7.10939 -36.1124
-28.901 -16.6594
-40.6094 -25.9022
7.38652 -30.6929
4.59475 -25.7266
-18.7031 -50.9052
-18.2682 -47.7091
-20.4319 -13.5063
-20.0954 -27.479
-7.03293 -35.4902
-6.27022 -33.2906
-19.2192 -25.4594
-19.0021 -13.986
4.01936 -28.8976
3.32748 -28.4813
-17.5214 -10.63
-23.0892 -13.2511
2.00903 -53.5502
-5.4222 -61.4688
2.46964 -44.5808
3.73428 -48.1298
1.07911 -37.167
0.712903 -34.0556
-3.57715 -47.8947
-1.57953 -44.24
4.10039 -36.2878
5.11768 -182.006
-3.26558 -2.06885
-20.1837 -42.0984
-8.16824 -38.7036
-5.80548 -4.88221
7.42066 -80.0244
-2.40252 -3.0265
-31.3683 -246.475
-21.7437 -75.3134
-3.59791 -4.11321
-11.3462 -43.3653
3.08015 -113.938
-0.22932 -126.702
-18.3034 -125.919
-16.4476 -102.531
-9.99626 -199.55
-10.1616 -54.27
-16.665 -59.6121
-11.405 -87.8202
5.2282 -115.398
4.56006 -127.228
1.03945 -93.1557
-6.13133 -80.7933
-4.61226 -69.2057
-22.5291 -65.2049
-29.3794 -80.8122
-1.43547 -63.1904
4.28136 -104.641
-0.212765 -132.721
-15.0492 -106.085
-18.3826 -133.127
-10.9825 -90.1942
-10.2024 -54.3245
-16.6369 -59.7786
-17.0162 -221.336
3.78096 -130.944
6.04125 -119.826
1.68849 -96.2894
-4.5025 -70.5287
-5.74683 -82.8644
-1.3004 -64.4391
-22.5991 -65.6732
-29.3711 -82.2445
4.88552 -108.131
-20.1341 -13.4896
2.95802 -7.63842
12.7429 4.21953
9.74118 -0.911845
-109.932 -210.232
-52.8224 -155.017
-81.0546 -118.315
-31.7468 -39.6142
-22.9343 -18.1896
-21.7582 -16.5379
10.2881 2.63614
1.22496 -7.75748
-80.8031 -133.019
-108.379 -213.51
-43.2169 -17.7465
9.44338 -1.40722
-22.47 -23.4517
-30.2113 -53.6533
-35.5062 -111.392
-31.4526 -157.998
2.26749 -119.992
-114.897 -180.035
9.73359 -87.2611
-38.5056 -87.1501
-51.3401 -106.361
-65.5885 -134.944
-13.7125 -156.628
-79.5994 -178.663
5.73437 -115.473
-115.597 -188.219
-58.3805 -124.863
-51.9401 -110.829
-33.0971 -142.149
-30.7016 -175.652
-4.94415 -138.456
2.48674 -129.188
-24.104 -119.076
-36.7882 -124.563
-9.82485 -136.266
-44.6942 -158.563
0.259649 -127.209
-27.4926 -104.186
4.69667 -134.189
-18.5502 -86.6862
-8.87938 -102.035
-22.1275 -76.9273
-33.762 -212.131
8.43621 -137.59
2.67589 -121.273
-28.4329 -7.47748
-16.022 -3.53677
-25.9714 -12.0928
7.6383 -1.78334
-33.5339 -24.5988
-36.6423 -12.5608
-30.8399 -8.41777
-27.9998 -9.64131
-26.6998 -15.2706
-16.849 -4.04989
-31.8502 -32.1356
-36.1989 -14.507
5.90379 -138.09
-6.62846 -110.479
-12.8465 -100.092
-31.9578 -206.773
-16.4405 -90.3314
4.80492 -123.795
7.53311 -134.066
-35.5085 -76.9695
-21.2084 -89.8045
-6.57377 -78.996
-14.403 -68.0894
-43.7165 -98.7131
-22.9679 -102.165
-0.355941 -102.889
-4.82566 -89.3858
-38.6659 -79.0074
-28.7006 -70.569
-19.9573 -61.972
-26.6243 -59.3058
-33.3293 -55.1735
-37.4705 -50.7992
-38.6067 -63.7168
-38.4462 -38.7271
-41.156 -47.3702
-39.3848 -73.643
-26.6654 -46.785
-37.8859 -52.8723
-37.4953 -44.2413
-32.9819 -46.1399
-26.0205 -42.4712
-26.4043 -32.0177
-26.1399 -51.5215
-38.1691 -31.687
-33.2428 -34.4238
-27.1115 -35.4491
-26.9628 -26.6739
-40.4062 -29.3324
-35.5664 -24.9521
-31.1263 -21.5646
-33.5097 -20.438
-35.6715 -22.4431
-37.6453 -22.2428
-32.8576 -18.8166
-29.0945 -16.5142
-31.8633 -17.9154
-27.1021 -15.7464
-32.1797 -30.0569
-37.8152 -35.3555
-37.3052 -29.1368
-41.3503 -41.6747
-41.3379 -29.3775
-36.1062 -24.3642
-25.6758 -23.8743
-31.1188 -20.6643
-26.7034 -16.1972
-20.5722 -13.6808
-22.4912 -13.4532
-27.1152 -18.3188
-25.6762 -19.2094
-25.1468 -101.564
-6.28745 -127.053
-23.9497 -129.628
3.42379 -115.97
-37.547 -101.471
-28.1271 -84.802
-13.3505 -87.8121
0.713807 -64.6672
-2.67612 -93.09
-4.22407 -67.8013
-35.3589 -91.71
-47.6628 -71.7136
-3.97735 -66.3629
-2.66354 -90.5644
0.573054 -63.4248
3.05244 -112.248
-35.8596 -88.7054
-46.383 -73.6166
-12.8906 -86.9201
-24.0059 -127.208
-6.09674 -123.354
-24.7389 -100.143
54.5868 26.5357
40.1702 1.85243
-41.7209 -28.2116
-39.7409 -18.3805
-37.707 -24.435
-41.3135 -15.5186
-36.2951 -37.9652
-41.9158 -36.3252
-43.2462 -27.9233
-35.8249 -56.4071
-35.1129 -65.2316
-40.45 -48.4461
-35.1352 -83.1224
-31.136 -58.622
-7.3771 -113.703
-22.7574 -96.4401
-16.7492 -90.2648
-10.4285 -104.763
-16.9173 -110.128
-1.62929 -122.08
-32.0554 -99.8278
-25.3218 -74.9438
-37.9901 -66.7152
-31.8494 -83.6157
-30.6588 -74.4848
-42.0093 -91.7527
-32.3053 -53.6463
-38.7747 -51.9438
-39.7581 -64.5506
-42.6404 -31.7844
-43.3956 -23.7671
-43.4855 -26.5932
-41.133 -19.4323
-42.5104 -17.611
-43.1871 -24.2943
-41.6167 -38.9291
-35.1749 -34.2446
-38.9841 -24.8866
-39.5698 -39.7109
-34.7185 -72.867
-31.4713 -79.1877
-41.4012 -84.0071
-15.3332 -81.2886
-37.2476 -65.9606
-30.739 -61.5193
-22.0189 -57.746
-39.831 -23.17
-41.0927 -24.9863
-36.3759 -21.6119
-43.0329 -30.6168
-42.3118 -25.6107
-43.7757 -20.1319
-43.7929 -23.8082
-44.1134 -22.6404
-10.3257 -22.8875
-6.57472 -30.5045
-5.94379 -15.3428
-3.02881 -63.4881
-0.703218 -47.4368
-3.81647 -12.9867
-5.4676 -3.48728
-8.55887 -2.34791
-14.1837 -24.0376
-10.9748 -105.11
-5.79928 -80.9676
-14.5006 -55.7943
5.41839 -88.9966
-21.4668 -38.6455
-11.2222 -120.113
3.06882 -135.729
-58.3054 -328.734
-65.0407 -72.9222
-38.5 -141.691
-6.87321 -162.192
-34.9309 -151.707
-91.6774 -282.533
-65.0513 -68.3961
-71.4984 -345.536
-38.1924 -154.846
-35.9046 -166.18
-9.7468 -171.842
-88.2256 -305.34
-69.823 -166.476
-52.0488 -198.365
-19.569 -181.559
-159.225 -280.58
-67.4123 -273.085
2.4617 -137.675
-10.0328 -147.985
-55.8709 -139.928
-84.9329 -152.165
5.04766 -102.593
7.81446 -85.8311
6.97289 -100.5
8.24299 -66.1338
8.74419 -73.328
3.00334 -94.2364
-3.49923 -110.403
1.81499 -124.314
6.43171 -93.9207
-37.4246 -98.2467
-45.9548 -96.8064
-46.0606 -108.433
-40.802 -89.3298
-45.5401 -98.5019
-57.704 -117.779
-55.6013 -120.147
-19.0564 -105.965
-27.1843 -100.427
-1.56049 -132.321
2.69204 -118.245
-2.96123 -137.829
5.82135 -96.0586
-10.9593 -172.42
-19.7563 -141.032
-6.31316 -121.463
-59.323 -215.8
-91.849 -222.938
-109.209 -181.318
-125.152 -337.169
-162.1 -294.563
-83.2015 -166.648
-85.5357 -158.89
-37.333 -187.247
-15.1336 -210.388
-66.531 -129.823
-59.2558 -118.018
-55.1171 -121.756
-48.0356 -115.253
-51.0663 -109.795
-38.0907 -117.548
-43.6779 -130.984
-76.6843 -141.5
-62.0085 -135.164
-61.7064 -184.446
-54.3627 -199.899
-26.0387 -194.156
-13.0183 -162.086
-52.8109 -161.317
-52.385 -144.78
-46.0851 -133.783
-40.6809 -124.746
-16.1151 -132.291
-36.8072 -188.629
-70.113 -200.073
-78.0259 -164.709
-61.4566 -143.207
-22.0171 -161.014
-54.5489 -127.991
-45.4509 -115.606
-23.8501 -120.672
-39.4586 -107.108
-14.0479 -93.9712
-6.6436 -88.992
-14.1733 -84.3388
-14.491 -76.3417
-6.87521 -70.7731
-21.7357 -81.7983
0.955368 -110.398
5.16541 -94.964
8.57004 -97.7834
3.75161 -90.6634
7.7061 -83.4332
7.76824 -80.5072
-9.68782 -113.198
-13.2159 -95.9187
-3.37124 -96.3933
-10.9798 -102.876
1.25891 -85.6352
-22.8128 -113.171
-32.4884 -95.8331
-18.2026 -91.1096
-1.59299 -80.9537
-10.6303 -85.2305
-22.0327 -75.0336
-26.9256 -86.2372
2.94878 -77.4616
-7.25032 -77.9179
-9.70765 -70.9322
-3.11355 -67.576
0.349625 -78.2274
4.15806 -71.3583
-1.39207 -71.6444
8.53482 -66.1138
6.87517 -61.1847
-1.67775 -63.7188
1.25542 -87.3039
-0.0659385 -61.4515
-4.47848 -35.0405
1.83427 -56.7191
-6.10819 -19.5015
-2.61224 -16.3604
3.60079 -45.0647
-4.38889 -78.8505
-11.9021 -19.3631
-7.13387 -18.059
-13.7146 -41.2622
-5.5863 -0.676524
-7.72898 -81.3332
-17.0052 -18.8786
-9.90768 -6.01203
-22.6067 -62.5614
-35.3629 -27.6408
-14.1181 -105.687
-9.46448 0.930272
-14.7236 -1.94658
0.401494 -28.242
-1.18033 -16.3636
0.6411 -12.687
-36.8122 35.6739
-82.3616 -128.812
0.930077 -13.0622
4.74897 -41.0397
-31.7092 -69.5784
-14.8295 -136.788
-42.3014 -45.9181
-12.2012 1.37048
-19.7522 10.6499
-2.52752 -25.4056
0.117096 -12.7586
-1.92768 -12.2644
0.672654 -13.2327
-33.8041 70.9471
-82.5794 -108.429
3.54584 -46.6555
1.51273 -7.77939
0.457712 -3.95215
0.583752 -4.5908
0.387012 -3.88658
-0.0224796 -1.02341
-0.133824 -0.782867
0.680115 -4.67908
2.76336 -12.0832
2.71061 -11.303
1.88457 -8.24661
0.775608 -4.93705
0.233996 -3.80234
0.60116 -4.85306
-0.246413 -0.331932
-0.190456 -0.397216
3.16085 -12.6874
3.12054 -11.1183
0.945708 -5.50325
0.866308 -5.53319
0.655498 -5.38054
-0.0539327 -0.0625854
-0.261358 0.344279
1.04233 -5.64396
5.04801 -17.2751
5.19091 -16.6793
3.50941 -12.4714
1.26946 -6.53543
1.01033 -5.51312
1.47322 -6.7194
-0.882433 -0.82651
-0.888632 -0.665488
5.46844 -18.6071
3.57664 -13.7596
1.03989 -7.00012
1.55499 -7.20221
1.3007 -7.15659
-1.23528 -0.433814
-1.1509 -0.378276
1.31765 -7.03561
5.57606 -20.176
4.94635 -20.3052
3.26098 -16.2821
1.51944 -10.2099
1.48016 -7.32392
1.62705 -9.92663
-1.49239 -0.199836
-1.27158 -0.175018
5.37579 -23.0457
3.24701 -17.0867
1.35299 -6.93665
1.68331 -11.1836
1.22474 -6.91632
-0.869308 -0.859148
-0.583656 -1.09974
1.68654 -10.6357
6.27976 -27.6785
5.7271 -23.5229
3.68569 -14.0573
1.76832 -7.79518
0.973698 -6.76445
1.47957 -7.58408
-0.46901 -1.26137
-0.46317 -2.21078
6.51451 -24.2594
3.61635 -12.5664
1.02057 -5.62103
1.27606 -6.6677
0.89538 -5.53756
-0.0730159 -1.60272
-0.606735 -3.10695
1.50484 -6.81983
5.61512 -18.6957
5.32154 -17.1418
1.70579 -7.85662
0.485773 -4.31429
0.38372 -3.79379
0.635578 -4.40746
-0.679632 -0.918604
-0.770379 -0.88556
0.18046 -3.74693
2.90983 -10.5858
2.9685 -11.3528
1.58703 -7.97298
0.527644 -4.40312
0.580136 -4.3139
0.601283 -4.46595
-0.91126 -0.595527
-0.990169 -0.528772
0.501829 -4.26945
2.6317 -11.0939
2.51322 -11.2697
-1.2991 -0.28275
0.346304 -3.7035
0.410006 -3.81081
0.418521 -3.83314
1.92633 -9.81444
-1.09963 -0.236048
-34.7897 -132.392
-10.3565 -135.567
-15.327 -116.912
5.68897 -29.7099
5.48403 -32.7256
2.77421 -21.9825
8.4954 -47.617
7.82553 -33.2535
-39.141 -145.063
-42.0781 -167.273
-69.7317 -153.061
6.01862 -34.5046
2.17693 -24.0579
5.01619 -36.1979
7.13025 -60.2886
8.6172 -41.9356
-32.0821 -160.827
-14.3614 -147.798
-38.1885 -141.697
-20.6632 -141.436
3.6721 -16.1241
2.65293 -12.0875
1.49449 -8.2563
2.3636 -11.9781
4.41912 -15.6494
2.75055 -10.3416
4.0234 -14.8944
4.80525 -18.1231
6.31083 -21.8865
5.89897 -21.0762
3.94163 -13.8858
6.20033 -20.0823
7.49644 -25.7644
7.57408 -27.6363
6.34398 -20.8238
4.14881 -14.5628
6.35523 -22.224
8.51292 -32.2473
7.66627 -26.5103
2.83984 -11.7148
1.74281 -8.19286
3.07003 -11.6501
4.08232 -15.0561
3.77129 -15.1578
1.89802 -9.49537
1.27738 -7.18762
2.21212 -10.2164
3.10368 -13.7166
2.74886 -13.2922
-29.728 -88.849
-30.4134 -80.3819
11.347 -52.4864
9.70402 -52.4944
9.49066 -42.6198
9.63011 -61.0187
8.72481 -35.8578
10.4295 -50.9517
10.1872 -60.6614
-37.8573 -107.166
-43.1095 -99.3528
4.44651 -18.9383
4.16123 -19.3024
3.98172 -19.5802
4.66261 -22.7837
7.11726 -29.1437
6.97495 -26.1048
5.98845 -23.2628
7.6574 -27.8377
5.14839 -20.9579
6.79403 -30.9709
7.65317 -34.2568
10.1319 -41.8698
9.55019 -35.0975
9.02688 -33.773
8.6416 -30.6557
10.1743 -47.3462
10.2823 -41.9042
9.09574 -32.9048
9.84907 -37.3925
8.55666 -29.9039
10.0135 -40.7773
10.3207 -48.0407
9.64961 -42.9605
7.04023 -25.7273
5.90726 -20.4991
6.92885 -23.6262
5.22399 -18.0745
4.79494 -16.5532
6.31878 -21.2689
7.62771 -26.4067
7.71775 -29.9175
6.84287 -26.2825
4.00056 -17.3028
3.60222 -16.4657
3.56518 -17.0508
4.55062 -22.882
11.009 -73.4128
9.15585 -70.9685
7.10895 -83.2518
5.97039 -27.8379
5.55902 -24.2401
5.28573 -25.7456
4.91945 -26.2959
6.21067 -32.7957
9.40678 -41.6783
8.86899 -35.676
8.59336 -37.8599
7.78462 -40.1765
9.20431 -50.5248
8.45143 -33.9889
8.78166 -33.0811
9.25467 -38.0443
9.17849 -44.2655
8.04175 -35.0337
7.9447 -55.4174
5.0685 -58.9408
2.27171 -59.3188
4.44577 -53.5755
3.36462 -65.3249
7.03583 -60.6952
5.05303 -68.7894
7.48234 -53.8967
9.54521 -55.8967
8.35598 -71.3479
0.197561 -60.1364
5.99245 -36.8291
5.26092 -33.2646
4.2233 -33.2182
3.74954 -40.873
6.15727 -49.5397
7.60512 -48.6871
7.40717 -44.8381
6.62694 -40.59
4.0723 -49.3932
7.05605 -43.0466
7.82025 -39.1511
8.01905 -43.0777
7.15095 -34.7566
8.39209 -48.2072
5.68599 -47.6383
5.33845 -43.485
6.67903 -30.2641
6.45616 -34.4024
5.14203 -33.0073
5.19791 -27.7817
6.48601 -52.2393
4.30118 -53.2962
5.22192 -41.4595
4.29891 -44.9982
5.87802 -22.4831
4.90034 -18.8488
5.08361 -18.9405
4.51334 -18.6795
6.45257 -26.7172
5.27517 -25.0205
4.98821 -21.4533
5.84007 -26.051
4.10487 -13.72
2.82877 -10.3496
4.44718 -15.0829
0.564467 -4.59911
3.25224 -11.8774
0.174783 -3.68223
0.55447 -4.58223
2.01175 -8.25669
-1.50922 -0.184941
-1.24646 -0.0877384
10.8527 -71.8646
10.2025 -55.2019
9.14702 -67.6499
10.0914 -47.7032
9.23577 -71.5834
10.0956 -54.963
11.1644 -53.7577
10.312 -62.186
0 0
0 0
0 0
0 0
0 0
0 0
0 0
0 0
0 0
0 0
0 0
0 0
0 0
0 0
0 0
0 0
0 0
0 0
0 0
0 0
0 0
0 0
0 0
0 0
0 0
0 0
0 0
0 0
0 0
0 0
0 0
0 0
0 0
0 0
0 0
0 0
0 0
0 0
0 0
0 0
0 0
0 0
0 0
0 0
0 0
0 0
0 0
0 0
0 0
0 0
0 0
0 0
0 0
0 0
0 0
0 0
0 0
0 0
0 0
0 0
0 0
0 0
0 0
0 0
0 0
0 0
0 0
0 0
0 0
0 0
0 0
0 0
0 0
0 0
0 0
0 0
0 0
0 0
0 0
0 0
0 0
0 0
0 0
0 0
0 0
0 0
0 0
0 0
0 0
0 0
0 0
0 0
0 0
0 0
0 0
0 0
0 0
0 0
0 0
0 0
0 0
0 0
0 0
0 0
0 0
0 0
0 0
0 0
0 0
0 0
0 0
0 0
0 0
0 0
0 0
0 0
0 0
0 0
0 0
0 0
0 0
0 0
0 0
0 0
0 0
0 0
0 0
0 0
0 0
0 0
0 0
0 0
0 0
0 0
0 0
0 0
0 0
0 0
0 0
0 0
0 0
0 0
0 0
0 0
0 0
0 0
0 0
0 0
0 0
0 0
0 0
0 0
0 0
0 0
0 0
0 0
0 0
0 0
0 0
0 0
0 0
0 0
0 0
0 0
0 0
0 0
0 0
0 0
0 0
0 0
0 0
0 0
0 0
0 0
0 0
0 0
0 0
0 0
0 0
0 0
0 0
0 0
0 0
0 0
0 0
0 0
0 0
0 0
0 0
0 0
0 0
0 0
0 0
0 0
0 0
0 0
0 0
0 0
0 0
0 0
0 0
0 0
0 0
0 0
0 0
0 0
0 0
0 0
0 0
0 0
0 0
0 0
0 0
0 0
0 0
0 0
0 0
0 0
0 0
0 0
0 0
0 0
0 0
0 0
0 0
0 0
0 0
0 0
0 0
0 0
0 0
0 0
0 0
0 0
0 0
0 0
0 0
0 0
0 0
0 0
0 0
0 0
0 0
0 0
0 0
0 0
0 0
0 0
0 0
0 0
0 0
0 0
0 0
0 0
0 0
0 0
0 0
0 0
0 0
0 0
0 0
0 0
0 0
0 0
0 0
0 0
0 0
0 0
0 0
0 0
0 0
0 0
0 0
0 0
0 0
0 0
0 0
0 0
0 0
0 0
0 0
0 0
0 0
0 0
0 0
0 0
0 0
0 0
0 0
0 0
0 0
0 0
0 0
0 0
0 0
0 0
0 0
0 0
0 0
0 0
0 0
0 0
0 0
0 0
0 0
0 0
0 0
0 0
0 0
0 0
0 0
0 0
0 0
0 0
0 0
0 0
0 0
0 0
0 0
0 0
0 0
0 0
0 0
0 0
0 0
0 0
0 0
0 0
0 0
0 0
0 0
0 0
0 0
0 0
0 0
0 0
0 0
0 0
0 0
0 0
0 0
0 0
0 0
0 0
0 0
0 0
0 0
0 0
0 0
0 0
0 0
0 0
0 0
0 0
0 0
0 0
0 0
0 0
0 0
0 0
0 0
0 0
0 0
0 0
0 0
0 0
0 0
0 0
0 0
0 0
0 0
0 0
0 0
0 0
0 0
0 0
0 0
0 0
0 0
0 0
0 0
0 0
0 0
0 0
0 0
0 0
0 0
0 0
0 0
0 0
0 0
0 0
0 0
0 0
0 0
0 0
0 0
0 0
0 0
0 0
0 0
0 0
0 0
0 0
0 0
0 0
0 0
0 0
0 0
0 0
0 0
0 0
0 0
0 0
0 0
0 0
0 0
0 0
0 0
0 0
0 0
0 0
0 0
0 0
0 0
0 0
0 0
0 0
0 0
0 0
0 0
0 0
0 0
0 0
0 0
0 0
0 0
0 0
0 0
0 0
0 0
0 0
0 0
0 0
0 0
0 0
0 0
0 0
0 0
0 0
0 0
0 0
0 0
0 0
0 0
0 0
0 0
0 0
0 0
0 0
0 0
0 0
0 0
0 0
0 0
0 0
0 0
0 0
0 0
0 0
0 0
0 0
0 0
0 0
0 0
0 0
0 0
0 0
0 0
0 0
0 0
0 0
0 0
0 0
0 0
0 0
0 0
0 0
0 0
0 0
0 0
0 0
0 0
0 0
0 0
0 0
0 0
0 0
0 0
0 0
0 0
0 0
0 0
0 0
0 0
0 0
0 0
0 0
0 0
0 0
0 0
0 0
0 0
0 0
0 0
0 0
0 0
0 0
0 0
0 0
0 0
0 0
0 0
0 0
0 0
0 0
0 0
0 0
0 0
0 0
0 0
0 0
0 0
0 0
0 0
0 0
0 0
0 0
0 0
0 0
0 0
0 0
0 0
0 0
0 0
0 0
0 0
0 0
0 0
0 0
0 0
0 0
0 0
0 0
0 0
0 0
0 0
0 0
0 0
0 0
0 0
0 0
0 0
0 0
0 0
0 0
0 0
0 0
0 0
0 0
0 0
0 0
0 0
0 0
0 0
0 0
0 0
0 0
0 0
0 0
0 0
0 0
0 0
0 0
0 0
0 0
0 0
0 0
0 0
0 0
0 0
0 0
0 0
0 0
0 0
0 0
0 0
0 0
0 0
0 0
0 0
0 0
0 0
0 0
0 0
0 0
0 0
0 0
0 0
0 0
0 0
0 0
0 0
0 0
0 0
0 0
0 0
0 0
0 0
0 0
0 0
0 0
0 0
0 0
0 0
0 0
0 0
0 0
0 0
0 0
0 0
0 0
0 0
0 0
0 0
0 0
0 0
0 0
0 0
0 0
0 0
0 0
0 0
0 0
0 0
0 0
0 0
0 0
0 0
0 0
0 0
0 0
0 0
0 0
0 0
0 0
0 0
0 0
0 0
0 0
0 0
0 0
0 0
0 0
0 0
0 0
0 0
0 0
0 0
0 0
0 0
0 0
0 0
0 0
0 0
0 0
0 0
0 0
0 0
0 0
0 0
0 0
0 0
0 0
0 0
0 0
0 0
0 0
0 0
0 0
0 0
0 0
0 0
0 0
0 0
0 0
0 0
0 0
0 0
0 0
0 0
0 0
0 0
0 0
0 0
0 0
0 0
0 0
0 0
0 0
0 0
0 0
0 0
0 0
0 0
0 0
0 0
0 0
0 0
0 0
0 0
0 0
0 0
0 0
0 0
0 0
0 0
0 0
0 0
0 0
0 0
0 0
0 0
0 0
0 0
0 0
0 0
0 0
0 0
0 0
0 0
0 0
0 0
0 0
0 0
0 0
0 0
0 0
0 0
0 0
0 0
0 0
0 0
0 0
0 0
0 0
0 0
0 0
0 0
0 0
0 0
0 0
0 0
0 0
0 0
0 0
0 0
0 0
0 0
0 0
0 0
0 0
0 0
0 0
0 0
0 0
0 0
0 0
0 0
0 0
0 0
0 0
0 0
0 0
0 0
0 0
0 0
0 0
0 0
0 0
0 0
0 0
0 0
0 0
0 0
0 0
0 0
0 0
0 0
0 0
0 0
0 0
0 0
0 0
0 0
0 0
0 0
0 0
0 0
0 0
0 0
0 0
0 0
0 0
0 0
0 0
0 0
0 0
0 0
0 0
0 0
0 0
0 0
0 0
0 0
0 0
0 0
0 0
0 0
0 0
0 0
0 0
0 0
0 0
0 0
0 0
0 0
0 0
0 0
0 0
0 0
0 0
0 0
0 0
0 0
0 0
0 0
0 0
0 0
0 0
0 0
0 0
0 0
0 0
0 0
0 0
0 0
0 0
0 0
0 0
0 0
0 0
0 0
0 0
0 0
0 0
0 0
0 0
0 0
0 0
0 0
0 0
0 0
0 0
0 0
0 0
0 0
0 0
0 0
0 0
0 0
0 0
0 0
0 0
0 0
0 0
0 0
0 0
0 0
0 0
0 0
0 0
0 0
0 0
0 0
0 0
0 0
0 0
0 0
0 0
0 0
0 0
0 0
0 0
0 0
0 0
0 0
0 0
0 0
0 0
0 0
0 0
0 0
0 0
0 0
0 0
0 0
0 0
0 0
0 0
0 0
0 0
0 0
0 0
0 0
0 0
0 0
0 0
0 0
0 0
0 0
0 0
0 0
0 0
0 0
0 0
0 0
0 0
0 0
0 0
0 0
0 0
0 0
0 0
0 0
0 0
0 0
0 0
0 0
0 0
0 0
0 0
0 0
0 0
0 0
0 0
0 0
0 0
0 0
0 0
0 0
0 0
0 0
0 0
0 0
0 0
0 0
0 0
0 0
0 0
0 0
0 0
0 0
0 0
0 0
0 0
0 0
0 0
0 0
0 0
0 0
0 0
0 0
0 0
0 0
0 0
0 0
0 0
0 0
0 0
0 0
0 0
0 0
0 0
0 0
0 0
0 0
0 0
0 0
0 0
0 0
0 0
0 0
0 0
0 0
0 0
0 0
0 0
0 0
0 0
0 0
0 0
0 0
0 0
0 0
0 0
0 0
0 0
0 0
0 0
0 0
0 0
0 0
0 0
0 0
0 0
0 0
0 0
0 0
0 0
0 0
0 0
0 0
0 0
0 0
0 0
0 0
0 0
0 0
0 0
0 0
0 0
0 0
0 0
0 0
0 0
0 0
0 0
0 0
0 0
0 0
0 0
0 0
0 0
0 0
0 0
0 0
0 0
0 0
0 0
0 0
0 0
0 0
0 0
0 0
0 0
0 0
0 0
0 0
0 0
0 0
0 0
0 0
0 0
0 0
0 0
0 0
0 0
0 0
0 0
0 0
0 0
0 0
0 0
0 0
0 0
0 0
0 0
0 0
0 0
0 0
0 0
0 0
0 0
0 0
0 0
0 0
0 0
0 0
0 0
0 0
0 0
0 0
0 0
0 0
0 0
0 0
0 0
0 0
0 0
0 0
0 0
0 0
0 0
0 0
0 0
0 0
0 0
0 0
0 0
0 0
0 0
0 0
0 0
0 0
0 0
0 0
0 0
0 0
0 0
0 0
0 0
0 0
0 0
0 0
0 0
0 0
0 0
0 0
0 0
0 0
0 0
0 0
0 0
0 0
0 0
0 0
0 0
0 0
0 0
0 0
0 0
0 0
0 0
0 0
0 0
0 0
0 0
0 0
0 0
0 0
0 0
0 0
0 0
0 0
0 0
0 0
0 0
0 0
0 0
0 0
0 0
0 0
0 0
0 0
0 0
0 0
0 0
0 0
0 0
0 0
0 0
0 0
0 0
0 0
0 0
0 0
0 0
0 0
0 0
0 0
0 0
0 0
0 0
0 0
0 0
0 0
0 0
0 0
0 0
0 0
0 0
0 0
0 0
0 0
0 0
0 0
0 0
0 0
0 0
0 0
0 0
0 0
0 0
0 0
0 0
0 0
0 0
0 0
0 0
0 0
0 0
0 0
0 0
0 0
0 0
0 0
0 0
0 0
0 0
0 0
0 0
0 0
0 0
0 0
0 0
0 0
0 0
0 0
0 0
0 0
0 0
0 0
0 0
0 0
0 0
0 0
0 0
0 0
0 0
0 0
0 0
0 0
0 0
0 0
0 0
0 0
0 0
0 0
0 0
0 0
0 0
0 0
0 0
0 0
0 0
0 0
0 0
0 0
0 0
0 0
0 0
0 0
0 0
0 0
0 0
0 0
0 0
0 0
0 0
0 0
0 0
0 0
0 0
0 0
0 0
0 0
0 0
0 0
0 0
0 0
0 0
0 0
0 0
0 0
0 0
0 0
0 0
0 0
0 0
0 0
0 0
0 0
0 0
0 0
0 0
0 0
0 0
0 0
0 0
0 0
0 0
0 0
0 0
0 0
0 0
0 0
0 0
0 0
0 0
0 0
0 0
0 0
0 0
0 0
0 0
0 0
0 0
0 0
0 0
0 0
0 0
0 0
0 0
0 0
0 0
0 0
0 0
0 0
0 0
0 0
0 0
0 0
0 0
0 0
0 0
0 0
0 0
0 0
0 0
0 0
0 0
0 0
0 0
0 0
0 0
0 0
0 0
0 0
0 0
0 0
0 0
0 0
0 0
0 0
0 0
0 0
0 0
0 0
0 0
0 0
0 0
0 0
0 0
0 0
0 0
0 0
0 0
0 0
0 0
0 0
0 0
0 0
0 0
0 0
0 0
0 0
0 0
0 0
0 0
0 0
0 0
0 0
0 0
0 0
0 0
0 0
0 0
0 0
0 0
0 0
0 0
0 0
0 0
0 0
0 0
0 0
0 0
0 0
0 0
0 0
0 0
0 0
0 0
0 0
0 0
0 0
0 0
0 0
0 0
0 0
0 0
0 0
0 0
0 0
0 0
0 0
0 0
0 0
0 0
0 0
0 0
0 0
0 0
0 0
0 0
0 0
0 0
0 0
0 0
0 0
0 0
0 0
0 0
0 0
0 0
0 0
0 0
0 0
0 0
0 0
0 0
0 0
0 0
0 0
0 0
0 0
0 0
0 0
0 0
0 0
0 0
0 0
0 0
0 0
0 0
0 0
0 0
0 0
0 0
0 0
0 0
0 0
0 0
0 0
0 0
0 0
0 0
0 0
0 0
0 0
0 0
0 0
0 0
0 0
0 0
0 0
0 0
0 0
0 0
0 0
0 0
0 0
0 0
0 0
0 0
0 0
0 0
0 0
0 0
0 0
0 0
0 0
0 0
0 0
0 0
0 0
0 0
0 0
0 0
0 0
0 0
0 0
0 0
0 0
0 0
0 0
0 0
0 0
0 0
0 0
0 0
0 0
0 0
0 0
0 0
0 0
0 0
0 0
0 0
0 0
0 0
0 0
0 0
0 0
0 0
0 0
0 0
0 0
0 0
0 0
0 0
0 0
0 0
0 0
0 0
0 0
0 0
0 0
0 0
0 0
0 0
0 0
0 0
0 0
0 0
0 0
0 0
0 0
0 0
0 0
0 0
0 0
0 0
0 0
0 0
0 0
0 0
0 0
0 0
0 0
0 0
0 0
0 0
0 0
0 0
0 0
0 0
0 0
0 0
0 0
0 0
0 0
0 0
0 0
0 0
0 0
0 0
0 0
0 0
0 0
0 0
0 0
0 0
0 0
0 0
0 0
0 0
0 0
0 0
0 0
0 0
0 0
0 0
0 0
0 0
0 0
0 0
0 0
0 0
0 0
0 0
0 0
0 0
0 0
0 0
0 0
0 0
0 0
0 0
0 0
0 0
0 0
0 0
0 0
0 0
0 0
0 0
0 0
0 0
0 0
0 0
0 0
0 0
0 0
0 0
0 0
0 0
0 0
0 0
0 0
0 0
0 0
0 0
0 0
0 0
0 0
0 0
0 0
0 0
0 0
0 0
0 0
0 0
0 0
0 0
0 0
0 0
0 0
0 0
0 0
0 0
0 0
0 0
0 0
0 0
0 0
0 0
0 0
0 0
0 0
0 0
0 0
0 0
0 0
0 0
0 0
0 0
0 0
0 0
0 0
0 0
0 0
0 0
0 0
0 0
0 0
0 0
0 0
0 0
0 0
0 0
0 0
0 0
0 0
0 0
0 0
0 0
0 0
0 0
0 0
0 0
0 0
0 0
0 0
0 0
0 0
0 0
0 0
0 0
0 0
0 0
0 0
0 0
0 0
0 0
0 0
0 0
0 0
0 0
0 0
0 0
0 0
0 0
0 0
0 0
0 0
0 0
0 0
0 0
0 0
0 0
0 0
0 0
0 0
0 0
0 0
0 0
0 0
0 0
0 0
0 0
0 0
0 0
0 0
0 0
0 0
0 0
0 0
0 0
0 0
0 0
0 0
0 0
0 0
0 0
0 0
0 0
0 0
0 0
0 0
0 0
0 0
0 0
0 0
0 0
0 0
0 0
0 0
0 0
0 0
0 0
0 0
0 0
0 0
0 0
0 0
0 0
0 0
0 0
0 0
0 0
0 0
0 0
0 0
0 0
0 0
0 0
0 0
0 0
0 0
0 0
0 0
0 0
0 0
0 0
0 0
0 0
0 0
0 0
0 0
0 0
0 0
0 0
0 0
0 0
0 0
0 0
0 0
0 0
0 0
0 0
0 0
0 0
0 0
0 0
0 0
0 0
0 0
0 0
0 0
0 0
0 0
0 0
0 0
0 0
0 0
0 0
0 0
0 0
0 0
0 0
0 0
0 0
0 0
0 0
0 0
0 0
0 0
0 0
0 0
0 0
0 0
0 0
0 0
0 0
0 0
0 0
0 0
0 0
0 0
0 0
0 0
0 0
0 0
0 0
0 0
0 0
0 0
0 0
0 0
0 0
0 0
0 0
0 0
0 0
0 0
0 0
0 0
0 0
0 0
0 0
0 0
0 0
0 0
0 0
0 0
0 0
0 0
0 0
0 0
0 0
0 0
0 0
0 0
0 0
0 0
0 0
0 0
0 0
0 0
0 0
0 0
0 0
0 0
0 0
0 0
0 0
0 0
0 0
0 0
0 0
0 0
0 0
0 0
0 0
0 0
0 0
0 0
0 0
0 0
0 0
0 0
0 0
0 0
0 0
0 0
0 0
0 0
0 0
0 0
0 0
0 0
0 0
0 0
0 0
0 0
0 0
0 0
0 0
0 0
0 0
0 0
0 0
0 0
0 0
0 0
0 0
0 0
0 0
0 0
0 0
0 0
0 0
0 0
0 0
0 0
0 0
0 0
0 0
0 0
0 0
0 0
0 0
0 0
0 0
0 0
0 0
0 0
0 0
0 0
0 0
0 0
0 0
0 0
0 0
0 0
0 0
0 0
0 0
0 0
0 0
0 0
0 0
0 0
0 0
0 0
0 0
0 0
0 0
0 0
0 0
0 0
0 0
0 0
0 0
0 0
0 0
0 0
0 0
0 0
0 0
0 0
0 0
0 0
0 0
0 0
0 0
0 0
0 0
0 0
0 0
0 0
0 0
0 0
0 0
0 0
0 0
0 0
0 0
0 0
0 0
0 0
0 0
0 0
0 0
0 0
0 0
0 0
0 0
0 0
0 0
0 0
0 0
0 0
0 0
0 0
0 0
0 0
0 0
0 0
0 0
0 0
0 0
0 0
0 0
0 0
0 0
0 0
0 0
0 0
0 0
0 0
0 0
0 0
0 0
0 0
0 0
0 0
0 0
0 0
0 0
0 0
0 0
0 0
0 0
0 0
0 0
0 0
0 0
0 0
0 0
0 0
0 0
0 0
0 0
0 0
0 0
0 0
0 0
0 0
0 0
0 0
0 0
0 0
0 0
0 0
0 0
0 0
0 0
0 0
0 0
0 0
0 0
0 0
0 0
0 0
0 0
0 0
0 0
0 0
0 0
0 0
0 0
0 0
0 0
0 0
0 0
0 0
0 0
0 0
0 0
0 0
0 0
0 0
0 0
0 0
0 0
0 0
0 0
0 0
0 0
0 0
0 0
0 0
0 0
0 0
0 0
0 0
0 0
0 0
0 0
0 0
0 0
0 0
0 0
0 0
0 0
0 0
0 0
0 0
0 0
0 0
0 0
0 0
0 0
0 0
0 0
0 0
0 0
0 0
0 0
0 0
0 0
0 0
0 0
0 0
0 0
0 0
0 0
0 0
0 0
0 0
0 0
0 0
0 0
0 0
0 0
0 0
0 0
0 0
0 0
0 0
0 0
0 0
0 0
0 0
0 0
0 0
0 0
0 0
0 0
0 0
0 0
0 0
0 0
0 0
0 0
0 0
0 0
0 0
0 0
0 0
0 0
0 0
0 0
0 0
0 0
0 0
0 0
0 0
0 0
0 0
0 0
0 0
0 0
0 0
0 0
0 0
0 0
0 0
0 0
0 0
0 0
0 0
0 0
0 0
0 0
0 0
0 0
0 0
0 0
0 0
0 0
0 0
0 0
0 0
0 0
0 0
0 0
0 0
0 0
0 0
0 0
0 0
0 0
0 0
0 0
0 0
0 0
0 0
0 0
0 0
0 0
0 0
0 0
0 0
0 0
0 0
0 0
0 0
0 0
0 0
0 0
0 0
0 0
0 0
0 0
0 0
0 0
0 0
0 0
0 0
0 0
0 0
0 0
0 0
0 0
0 0
0 0
0 0
0 0
0 0
0 0
0 0
0 0
0 0
0 0
0 0
0 0
0 0
0 0
0 0
0 0
0 0
0 0
0 0
0 0
0 0
0 0
0 0
0 0
0 0
0 0
0 0
0 0
0 0
0 0
      </DataArray> 
      <DataArray type="Float64" NumberOfComponents="1" Name="CauchyShearStress" format="ascii">
-7.68046
6.76346
-2.25709
0.653765
0.332692
0.45662
0.330689
0.161596
-0.0355849
-0.0686858
-0.0650973
-0.111799
-0.158011
-0.116451
-0.0553883
-0.0433927
-0.0477905
0.0243698
0.0844495
0.0804737
0.0589449
0.110526
0.126155
0.0367013
-0.0814422
-0.10489
-0.203121
-0.688929
-0.870153
-1.13431
0.828354
0.00461106
0.292136
0.683949
-8.56496
0.0428656
0.26101
0.310615
0.27883
0.0905943
0.0714283
0.163856
0.265053
0.25156
0.368004
0.282605
0.397661
0.521473
0.60053
0.598389
0.649528
0.667104
0.701681
0.320295
-0.166077
-0.32651
-0.502896
-0.636432
-0.767509
-1.58219
0.993722
1.37473
2.74189
-33.6649
-16.8158
-7.11618
-10.7981
-13.4074
-19.3089
0.245782
-32.46
-28.222
-21.4231
34.101
-2.88759
-23.3944
33.94
-6.17376
17.353
7.3785
10.9183
13.4543
19.3424
-0.416002
-1.3191
-1.54293
-3.25309
0.00468351
-0.153306
0.288081
0.518157
0.948267
0.981082
0.22422
-0.180531
-0.319801
-0.468364
-0.5937
-0.668892
-0.720495
-0.740387
-0.792839
-0.691016
-0.665519
-0.641211
-0.568358
-0.582839
-0.424362
-0.244271
-0.17856
-0.247779
0.849722
1.64428
8.96829
2.27352
-18.4784
-10.6069
-18.4851
20.6162
11.9899
5.08214
5.27602
-4.74054
-0.42638
-17.603
17.6131
-4.2607
-4.76021
-8.80573
-8.33744
9.43434
-7.42178
8.27895
-8.10818
-8.32709
8.98056
9.01897
-7.19914
-6.85238
-8.00783
-4.05087
3.03585
4.22288
9.05802
7.59104
10.2605
-9.30961
-10.719
-11.2609
-10.8063
11.8522
9.92448
-4.26744
0.947811
3.96335
-7.00569
7.2571
-5.33838
-6.15354
-7.0709
-6.51977
6.87814
7.78509
7.00047
5.63884
-6.69213
-6.81291
-5.91991
-3.02458
1.32258
6.06016
-6.12688
-5.94763
6.97731
7.24708
6.45216
6.35283
7.21493
9.86589
-8.768
-10.1646
-7.80351
-11.5664
-13.0391
11.5975
6.62916
-4.8998
-3.31156
-0.313253
-1.61594
1.27876
3.16115
2.20395
4.46764
-6.32634
-6.52119
6.39233
6.45841
-5.15919
-4.39708
-4.78324
-4.18593
-4.7191
-5.88506
6.28056
5.33659
4.75801
5.0688
4.47041
5.11268
-6.2048
-5.85174
-7.9565
0.185175
4.57328
-3.72998
4.19277
6.04909
5.76042
12.093
-14.7131
-3.08093
-16.1284
16.8265
13.6106
9.5026
-4.9701
-3.63183
-1.27532
0.901908
2.75386
4.49735
-6.09006
5.94246
-4.37124
-3.03227
-4.22583
4.41067
3.29235
4.50308
-4.97499
-5.39438
-5.4704
-4.99336
-2.7366
-1.99653
-19.7758
-3.5461
15.4487
-0.434234
0.43985
3.16988
4.44595
5.00493
5.12688
4.18938
15.9383
-15.7874
2.12175
6.42837
-20.0598
-5.47134
-4.4245
18.6586
5.87905
-4.70984
-4.7943
-3.42713
-4.25745
-1.72162
-2.51064
0.216324
-0.523003
1.62582
1.00029
3.35244
2.55748
4.79023
3.99535
-4.81457
-5.60759
-5.8718
4.89201
5.60234
5.54423
4.3053
-4.21218
-1.9489
-1.77619
-2.80251
2.8214
2.11098
2.09604
4.46902
-2.96844
-4.04934
-3.52878
-2.78222
-0.994548
-35.2785
-13.1746
-1.0431
8.36186
37.2425
2.72423
-2.67955
2.64152
4.46622
2.9926
26.5814
13.5457
-22.4656
-14.0569
14.0518
-22.8794
2.17159
-10.6968
10.8635
15.5673
-4.85115
-2.97357
-1.58713
-0.312342
0.842628
2.02025
3.8271
-5.38004
-4.0757
4.62198
4.53149
-2.71076
-1.97038
-4.85596
3.79158
1.51823
2.78848
-3.21609
3.59142
-0.978578
-1.74942
-1.56618
-2.19119
-1.69039
-1.94621
-1.59761
-1.27518
-0.691943
-65.3819
-9.41462
7.64648
58.6591
0.191122
1.27749
2.86315
3.89671
8.70124
-7.50767
-3.88794
-2.55126
-1.15336
0.0724198
0.967294
1.38969
1.25029
2.06287
0.891837
1.14523
1.32323
1.46993
20.3152
33.7713
19.3491
-19.8407
-27.2051
-33.6157
13.9262
17.3726
20.148
-12.5382
-28.3895
-19.6013
-2.6386
-4.94254
-1.84539
-1.58321
-1.60424
-1.10494
-1.03384
-1.10256
-0.587615
-0.398983
-0.509822
0.0613162
0.253013
0.159362
0.658762
0.793005
0.746838
1.16892
1.13879
1.21725
2.14236
4.76094
2.33549
-1.17968
-1.09132
1.67931
1.8456
-5.28958
-5.85816
5.04715
5.1481
5.50645
-1.19563
-1.79163
2.02965
1.69952
-1.89096
1.7469
-2.70383
-2.1477
1.89257
2.40634
-4.21801
-8.78886
-4.37095
4.2726
4.57149
7.18784
5.88159
-6.90128
4.12504
-4.61975
0.29748
-0.126739
5.50942
-5.77137
3.49601
-2.31396
5.1359
2.7102
1.40227
0.307245
-0.930341
-2.23502
-3.82294
-5.25379
-16.2253
23.5515
-25.9
26.3387
2.63433
3.37643
0.540437
-6.14657
7.37162
0.341282
27.2393
-33.7799
-1.59285
-3.43836
-4.49647
-3.64701
2.99579
-4.06617
12.1471
-6.41539
-2.79505
3.7309
3.13671
-2.64734
-3.60573
5.68303
5.86202
-6.19256
-5.65406
5.05846
3.76598
1.7741
0.0132879
-2.57861
-4.56311
-5.14791
13.7869
2.38809
-4.63575
-3.12007
-13.5402
9.20935
5.80914
5.5312
3.32528
-3.52436
-4.25641
-6.36152
13.3313
-12.1526
5.06454
6.65601
7.45185
-6.61799
-5.9293
-5.16282
6.85801
-6.86282
2.61308
-0.702087
9.55423
-13.3906
8.54981
-8.48503
7.90082
-7.36048
10.2962
-9.2903
-7.49039
-37.107
-3.49763
-40.7642
-28.8671
-4.2559
-21.5856
3.14223
28.9341
53.7442
4.76438
32.5487
29.6293
-31.6331
-47.5182
-48.4621
-50.2661
-25.3359
-32.252
-37.1986
-28.4958
-27.7136
-26.0906
-30.2386
-22.768
-38.9616
-48.7796
-16.5782
-23.148
29.0098
49.3676
45.2802
37.4015
25.5081
32.4451
30.4408
25.1164
28.6431
26.3385
23.1043
30.4337
16.8216
39.2585
49.048
23.5158
25.3146
2.16131
8.62295
2.83168
76.9361
21.1573
89.1313
38.7028
15.8896
-29.8626
-11.7096
-2.43663
-91.4587
-75.3209
-35.0015
-3.72051
-20.3374
-45.8793
26.2235
26.5586
4.4381
15.7453
-4.3188
19.9339
14.1416
-24.7343
-13.4366
-33.9225
3.95271
5.391
-4.84543
-20.6847
0.100894
1.48409
-18.052
-21.4437
-9.21862
1.82989
13.7205
-8.20104
21.0373
12.399
36.5738
52.4897
52.6314
35.0594
38.4106
28.9056
29.3779
3.62977
2.98749
9.17497
-0.215439
16.5513
2.392
-1.9503
-7.26437
-12.6263
-4.85364
-22.1637
-7.45659
-32.241
-50.7323
-53.3936
-33.3379
-37.2864
-28.2488
-27.0358
18.1109
20.9159
15.6011
16.3504
-13.9167
-22.5472
-10.2191
-14.6384
14.9451
17.3205
16.0524
15.4917
14.7199
14.1508
16.3376
10.5737
12.302
14.5741
12.6875
-13.958
-11.9814
-12.3768
-11.1571
-8.25246
-13.6965
8.27356
9.39263
9.62588
7.05576
6.8999
6.09087
5.17837
3.92323
-3.32028
-1.76254
-1.50841
-0.219024
1.81986
-1.87234
-7.75044
-9.06912
-7.00384
-10.4983
-5.32672
-4.67256
-6.20158
-4.45831
-3.42921
-4.82427
-2.45072
-4.87976
-5.55035
21.6323
18.9381
23.251
21.2512
28.1718
32.5273
26.1257
14.01
19.4029
13.252
68.2389
76.8713
-13.0157
-19.0853
-13.6853
-20.9744
-65.7201
-74.5396
-25.8198
-22.7565
-18.4865
-21.8056
25.6912
3.87451
9.95699
7.02087
11.58
1.26627
21.1979
12.3357
7.15643
18.711
18.2076
15.6295
15.5112
25.2926
24.8049
17.1138
28.3194
-26.4431
-15.743
-24.3727
-11.8828
-27.4543
-17.047
-16.3497
-19.685
-11.5179
-26.5283
-16.5827
-14.8381
-9.38015
-6.70539
-5.84842
-7.02019
-3.21461
-3.57171
-11.9517
-16.6302
-12.2487
-14.9216
-17.599
-19.1678
-18.0027
-18.9903
-15.6274
-16.6133
-15.1686
1.17523
3.47461
2.24986
5.83786
-1.09222
0.380212
3.76147
-0.648907
19.0145
24.0243
12.1663
28.1766
22.5409
10.0227
6.02789
7.57002
21.4736
39.4323
33.9443
40.5773
26.0186
31.8808
42.3436
27.261
-57.779
-84.0318
-64.6415
-38.2846
-64.2102
-138.253
91.3625
36.079
63.1337
61.4578
26.609
130.433
27.8804
5.67189
6.20569
4.33362
-50.1222
-34.3527
-1.52617
19.7663
11.368
-9.79113
-11.9534
-0.940351
-18.7577
-10.8848
5.32089
11.2127
-9.28892
-24.9591
22.7363
16.8065
19.786
15.5379
13.7062
12.4304
20.9505
20.9507
22.6887
-2.98037
14.6818
10.3904
14.7033
-0.0584639
-19.4788
-9.08967
-22.1053
-9.68631
-19.8911
44.7423
9.39125
4.91647
-12.5888
-12.2844
25.1416
-13.1835
-12.7364
-21.9883
-6.26025
-12.6674
-22.6047
-25.3195
-12.2119
-1.26846
9.03767
-19.645
-17.877
-14.9762
0.860864
2.04206
-1.51197
-2.25684
-7.74846
1.35587
11.6744
-6.35194
2.46119
6.02491
3.72169
7.81614
7.94723
7.16512
18.3319
15.6853
18.2943
17.261
14.7627
19.8723
-4.39137
-1.66113
5.65974
-6.97299
0.288244
14.041
-15.9259
-18.508
-12.7802
-16.3337
-9.5734
-22.7913
-21.2091
-20.5171
-12.8971
-16.7322
-18.9784
-20.191
-8.41412
-15.2376
-15.7986
-12.7026
10.629
8.01719
12.3475
3.87553
5.81738
11.5964
10.2391
-25.6551
-23.993
-21.5729
-15.2797
-11.642
-18.1087
-31.1701
-19.2608
-16.0636
-33.7768
-3.63989
-35.426
-23.0789
-6.00534
-37.9885
-34.834
-47.9892
-6.20488
-7.81642
-15.9101
-9.90902
-7.14683
-21.4496
-89.3591
-6.0881
-14.6388
46.7769
58.7958
42.4753
7.87498
9.29551
15.8737
7.9505
8.09166
6.51616
19.9036
83.6297
18.8873
1.65901
0.352848
0.627088
0.250559
-0.141915
-0.0136415
0.793807
2.79022
2.27106
1.32561
0.402767
0.218214
0.355872
0.0104053
-0.201411
2.37801
0.460477
0.0596445
0.25563
0.0356824
-0.215513
-0.105455
0.337031
0.870019
0.289598
-0.471863
-0.362656
-0.0508103
-0.490805
0.815249
0.770341
-0.446047
-3.04959
-1.33706
-1.06294
-1.584
0.620776
0.50359
-0.842845
-4.30177
-4.96246
-5.65438
-3.42683
-1.93728
-4.06302
0.287424
0.129124
-6.78431
6.24893
1.85359
3.92181
1.51788
-0.813376
-0.967424
4.73714
8.141
5.75642
3.23235
1.19693
1.34378
0.968096
-0.955375
-0.558726
5.02349
0.646028
0.101793
0.389919
0.0559435
-0.349902
0.0414941
0.522693
0.921381
0.30118
-0.975866
-0.254617
-0.120195
-0.387683
0.660421
0.664397
-0.0309775
-1.12259
-1.49117
-1.74017
-0.588748
-0.513859
-0.721897
0.657078
0.604351
-0.425475
-2.50363
-2.72817
0.678986
-0.499011
-0.580338
-0.723069
-3.07103
0.472746
26.9292
13.293
16.3003
-9.13903
-11.6754
-9.95437
-13.334
-8.3522
-21.4579
-24.5279
-27.2171
11.1654
11.2025
14.1972
18.3356
10.5432
-0.361585
-14.4149
-1.24912
9.66385
3.87099
3.24611
2.29525
3.65541
1.82104
1.1629
2.01055
3.03929
1.63811
-2.76015
-1.74563
-1.92004
-0.919653
-4.30207
2.01859
1.97554
2.98633
4.75473
1.38635
-2.25574
-1.41391
-2.01332
-2.14751
-3.09033
-2.67309
-1.81027
-2.73588
-3.44483
-3.96526
20.7935
19.5753
-5.02597
-8.43548
-7.33096
-10.4454
-5.44723
-1.19535
-1.06573
-22.9269
-20.1383
4.18495
4.75964
5.0784
5.41464
3.85747
2.85962
3.56441
1.79931
3.92295
4.93911
4.30925
-1.77841
-3.57206
-1.22309
0.432607
1.30148
0.731077
1.30572
2.45933
-0.0050553
4.93095
-0.562126
-1.78031
-2.43732
-1.80382
-1.462
-2.12887
-1.35554
-0.431779
-0.740187
-3.08688
-3.47667
-4.20442
-4.24838
-4.7256
-5.72246
-5.10726
-0.0141627
1.55027
5.24174
4.7055
5.4824
5.97067
5.84805
2.18326
1.97399
3.6126
4.96547
3.42465
-2.84973
-1.31145
-2.06421
-3.41224
-4.03292
4.64281
7.94153
9.62086
8.04868
-9.44539
-5.66948
-7.2292
-5.48877
-2.98955
-3.68074
-10.5673
6.38004
6.58558
7.09373
7.82332
6.81857
5.46737
5.5759
6.20127
8.21901
-6.04139
-4.93805
-4.88427
-5.20283
-4.62036
-7.22321
-7.2872
-5.01924
-6.00942
-6.70251
-6.08306
-6.73854
-8.24007
7.18951
7.7449
-3.46363
-3.4948
-2.81442
-3.893
-4.30254
-5.43798
-4.59963
-5.04888
-0.673736
-0.17734
-0.34685
-0.0738755
-0.985696
-0.0674427
-0.0733696
-0.586472
0.383121
0.176905
6.06424
9.54386
10.6777
6.36241
0.487561
-0.48475
3.72416
0.9181
0
0
0
0
0
0
0
0
0
0
0
0
0
0
0
0
0
0
0
0
0
0
0
0
0
0
0
0
0
0
0
0
0
0
0
0
0
0
0
0
0
0
0
0
0
0
0
0
0
0
0
0
0
0
0
0
0
0
0
0
0
0
0
0
0
0
0
0
0
0
0
0
0
0
0
0
0
0
0
0
0
0
0
0
0
0
0
0
0
0
0
0
0
0
0
0
0
0
0
0
0
0
0
0
0
0
0
0
0
0
0
0
0
0
0
0
0
0
0
0
0
0
0
0
0
0
0
0
0
0
0
0
0
0
0
0
0
0
0
0
0
0
0
0
0
0
0
0
0
0
0
0
0
0
0
0
0
0
0
0
0
0
0
0
0
0
0
0
0
0
0
0
0
0
0
0
0
0
0
0
0
0
0
0
0
0
0
0
0
0
0
0
0
0
0
0
0
0
0
0
0
0
0
0
0
0
0
0
0
0
0
0
0
0
0
0
0
0
0
0
0
0
0
0
0
0
0
0
0
0
0
0
0
0
0
0
0
0
0
0
0
0
0
0
0
0
0
0
0
0
0
0
0
0
0
0
0
0
0
0
0
0
0
0
0
0
0
0
0
0
0
0
0
0
0
0
0
0
0
0
0
0
0
0
0
0
0
0
0
0
0
0
0
0
0
0
0
0
0
0
0
0
0
0
0
0
0
0
0
0
0
0
0
0
0
0
0
0
0
0
0
0
0
0
0
0
0
0
0
0
0
0
0
0
0
0
0
0
0
0
0
0
0
0
0
0
0
0
0
0
0
0
0
0
0
0
0
0
0
0
0
0
0
0
0
0
0
0
0
0
0
0
0
0
0
0
0
0
0
0
0
0
0
0
0
0
0
0
0
0
0
0
0
0
0
0
0
0
0
0
0
0
0
0
0
0
0
0
0
0
0
0
0
0
0
0
0
0
0
0
0
0
0
0
0
0
0
0
0
0
0
0
0
0
0
0
0
0
0
0
0
0
0
0
0
0
0
0
0
0
0
0
0
0
0
0
0
0
0
0
0
0
0
0
0
0
0
0
0
0
0
0
0
0
0
0
0
0
0
0
0
0
0
0
0
0
0
0
0
0
0
0
0
0
0
0
0
0
0
0
0
0
0
0
0
0
0
0
0
0
0
0
0
0
0
0
0
0
0
0
0
0
0
0
0
0
0
0
0
0
0
0
0
0
0
0
0
0
0
0
0
0
0
0
0
0
0
0
0
0
0
0
0
0
0
0
0
0
0
0
0
0
0
0
0
0
0
0
0
0
0
0
0
0
0
0
0
0
0
0
0
0
0
0
0
0
0
0
0
0
0
0
0
0
0
0
0
0
0
0
0
0
0
0
0
0
0
0
0
0
0
0
0
0
0
0
0
0
0
0
0
0
0
0
0
0
0
0
0
0
0
0
0
0
0
0
0
0
0
0
0
0
0
0
0
0
0
0
0
0
0
0
0
0
0
0
0
0
0
0
0
0
0
0
0
0
0
0
0
0
0
0
0
0
0
0
0
0
0
0
0
0
0
0
0
0
0
0
0
0
0
0
0
0
0
0
0
0
0
0
0
0
0
0
0
0
0
0
0
0
0
0
0
0
0
0
0
0
0
0
0
0
0
0
0
0
0
0
0
0
0
0
0
0
0
0
0
0
0
0
0
0
0
0
0
0
0
0
0
0
0
0
0
0
0
0
0
0
0
0
0
0
0
0
0
0
0
0
0
0
0
0
0
0
0
0
0
0
0
0
0
0
0
0
0
0
0
0
0
0
0
0
0
0
0
0
0
0
0
0
0
0
0
0
0
0
0
0
0
0
0
0
0
0
0
0
0
0
0
0
0
0
0
0
0
0
0
0
0
0
0
0
0
0
0
0
0
0
0
0
0
0
0
0
0
0
0
0
0
0
0
0
0
0
0
0
0
0
0
0
0
0
0
0
0
0
0
0
0
0
0
0
0
0
0
0
0
0
0
0
0
0
0
0
0
0
0
0
0
0
0
0
0
0
0
0
0
0
0
0
0
0
0
0
0
0
0
0
0
0
0
0
0
0
0
0
0
0
0
0
0
0
0
0
0
0
0
0
0
0
0
0
0
0
0
0
0
0
0
0
0
0
0
0
0
0
0
0
0
0
0
0
0
0
0
0
0
0
0
0
0
0
0
0
0
0
0
0
0
0
0
0
0
0
0
0
0
0
0
0
0
0
0
0
0
0
0
0
0
0
0
0
0
0
0
0
0
0
0
0
0
0
0
0
0
0
0
0
0
0
0
0
0
0
0
0
0
0
0
0
0
0
0
0
0
0
0
0
0
0
0
0
0
0
0
0
0
0
0
0
0
0
0
0
0
0
0
0
0
0
0
0
0
0
0
0
0
0
0
0
0
0
0
0
0
0
0
0
0
0
0
0
0
0
0
0
0
0
0
0
0
0
0
0
0
0
0
0
0
0
0
0
0
0
0
0
0
0
0
0
0
0
0
0
0
0
0
0
0
0
0
0
0
0
0
0
0
0
0
0
0
0
0
0
0
0
0
0
0
0
0
0
0
0
0
0
0
0
0
0
0
0
0
0
0
0
0
0
0
0
0
0
0
0
0
0
0
0
0
0
0
0
0
0
0
0
0
0
0
0
0
0
0
0
0
0
0
0
0
0
0
0
0
0
0
0
0
0
0
0
0
0
0
0
0
0
0
0
0
0
0
0
0
0
0
0
0
0
0
0
0
0
0
0
0
0
0
0
0
0
0
0
0
0
0
0
0
0
0
0
0
0
0
0
0
0
0
0
0
0
0
0
0
0
0
0
0
0
0
0
0
0
0
0
0
0
0
0
0
0
0
0
0
0
0
0
0
0
0
0
0
0
0
0
0
0
0
0
0
0
0
0
0
0
0
0
0
0
0
0
0
0
0
0
0
0
0
0
0
0
0
0
0
0
0
0
0
0
0
0
0
0
0
0
0
0
0
0
0
0
0
0
0
0
0
0
0
0
0
0
0
0
0
0
0
0
0
0
0
0
0
0
0
0
0
0
0
0
0
0
0
0
0
0
0
0
0
0
0
0
0
0
0
0
0
0
0
0
0
0
0
0
0
0
0
0
0
0
0
0
0
0
0
0
0
0
0
0
0
0
0
0
0
0
0
0
0
0
0
0
0
0
0
0
0
0
0
0
0
0
0
0
0
0
0
0
0
0
0
0
0
0
0
0
0
0
0
0
0
0
0
0
0
0
0
0
0
0
0
0
0
0
0
0
0
0
0
0
0
0
0
0
0
0
0
0
0
0
0
0
0
0
0
0
0
0
0
0
0
0
0
0
0
0
0
0
0
0
0
0
0
0
0
0
0
0
0
0
0
0
0
0
0
0
0
0
0
0
0
0
0
0
0
0
0
0
0
0
0
0
0
0
0
0
0
0
0
0
0
0
0
0
0
0
0
0
0
0
0
0
0
0
0
0
0
0
0
0
0
0
0
0
0
0
0
0
0
0
0
0
0
0
0
0
0
0
0
0
0
0
0
0
0
0
0
0
0
0
0
0
0
0
0
0
0
0
0
0
0
0
0
0
0
0
0
0
0
0
0
0
0
0
0
0
0
0
0
0
0
0
0
0
0
0
0
0
0
0
0
0
0
0
0
0
0
0
0
0
0
0
0
0
0
0
0
0
0
0
0
0
0
0
0
0
0
0
0
0
0
0
0
0
0
0
0
0
0
0
0
0
0
0
0
0
0
0
0
0
0
0
0
0
0
0
0
0
0
0
0
0
0
0
0
0
0
0
0
0
0
0
0
0
0
0
0
0
0
0
0
0
0
0
0
0
0
0
0
0
0
0
0
0
0
0
0
0
0
0
0
0
0
0
0
0
0
0
0
0
0
0
0
0
0
0
0
0
0
0
0
0
0
0
0
0
0
0
0
0
0
0
0
0
0
0
0
0
0
0
0
0
0
0
0
0
0
0
0
0
0
0
0
0
0
0
0
0
0
0
0
0
0
0
0
0
0
0
0
0
0
0
0
0
0
0
0
0
0
0
0
0
0
0
0
0
0
0
0
0
0
0
0
0
0
0
0
0
0
0
0
0
0
0
0
0
0
0
0
0
0
0
0
0
0
0
0
0
0
0
0
0
0
0
0
0
0
0
0
0
0
0
0
0
0
0
0
0
0
0
0
0
0
0
0
0
0
0
0
0
0
0
0
0
0
0
0
0
0
0
0
0
0
0
0
0
0
0
0
0
0
0
0
0
0
0
0
0
0
0
0
0
0
0
0
0
0
0
0
0
0
0
0
0
0
0
0
0
0
0
0
0
0
0
0
0
0
0
0
0
0
0
0
0
0
0
0
0
0
0
0
0
0
0
0
0
0
0
0
0
0
0
0
0
0
0
0
0
0
0
0
0
0
0
0
0
0
0
0
0
0
0
0
0
0
0
0
0
0
0
0
0
0
0
0
0
0
0
0
0
0
0
0
0
0
0
0
0
0
0
0
0
0
0
0
0
0
0
0
0
0
0
0
0
0
0
0
0
0
0
0
0
0
0
0
0
0
0
0
0
0
0
0
0
0
0
0
0
0
0
0
0
0
0
0
0
0
0
0
0
0
0
0
0
0
0
0
0
0
0
0
0
0
0
0
0
0
0
0
0
0
0
0
0
0
0
0
0
0
0
0
0
0
0
0
0
0
0
0
0
0
0
0
0
0
0
0
0
0
0
0
0
0
0
0
0
0
0
0
0
0
0
0
0
0
0
0
0
0
0
0
0
0
0
0
0
0
0
0
0
0
0
0
0
0
0
0
0
0
0
0
0
0
0
0
0
0
0
0
0
0
0
0
0
0
0
0
0
0
0
0
0
0
0
0
0
0
0
0
0
0
0
0
0
0
0
0
0
0
0
0
0
0
0
0
0
0
0
0
0
0
0
0
0
0
0
0
0
0
0
0
0
0
0
0
0
0
0
0
0
0
0
0
0
0
0
0
0
0
0
0
0
0
0
0
0
0
0
0
0
0
0
0
0
0
0
0
0
0
0
0
0
0
0
0
0
0
0
0
0
0
0
0
0
0
0
0
0
0
0
0
0
0
0
0
0
0
0
0
0
0
0
0
0
0
0
0
0
0
0
0
0
0
0
0
0
0
0
0
0
0
0
0
0
0
0
0
0
0
0
      </DataArray> 
      <DataArray type="Float64" NumberOfComponents="1" Name="NormalFibers" format="ascii">
0
0
0
0
0
0
0
0
0
0
0
0
0
0
0
0
0
0
0
0
0
0
0
0
0
0
0
0
0
0
0
0
0
0
0
0
0
0
0
0
0
0
0
0
0
0
0
0
0
0
0
0
0
0
0
0
0
0
0
0
0
0
0
0
0
0
0
0
0
0
0
0
0
0
0
0
0
0
0
0
0
0
0
0
0
0
0
0
0
0
0
0
0
0
0
0
0
0
0
0
0
0
0
0
0
0
0
0
0
0
0
0
0
0
0
0
0
0
0
0
0
0
0
0
0
0
0
0
0
0
0
0
0
0
0
0
0
0
0
0
0
0
0
0
0
0
0
0
0
0
0
0
0
0
0
0
0
0
0
0
0
0
0
0
0
0
0
0
0
0
0
0
0
0
0
0
0
0
0
0
0
0
0
0
0
0
0
0
0
0
0
0
0
0
0
0
0
0
0
0
0
0
0
0
0
0
0
0
0
0
0
0
0
0
0
0
0
0
0
0
0
0
0
0
0
0
0
0
0
0
0
0
0
0
0
0
0
0
0
0
0
0
0
0
0
0
0
0
0
0
0
0
0
0
0
0
0
0
0
0
0
0
0
0
0
0
0
0
0
0
0
0
0
0
0
0
0
0
0
0
0
0
0
0
0
0
0
0
0
0
0
0
0
0
0
0
0
0
0
0
0
0
0
0
0
0
0
0
0
0
0
0
0
0
0
0
0
0
0
0
0
0
0
0
0
0
0
0
0
0
0
0
0
0
0
0
0
0
0
0
0
0
0
0
0
0
0
0
0
0
0
0
0
0
0
0
0
0
0
0
0
0
0
0
0
0
0
0
0
0
0
0
0
0
0
0
0
0
0
0
0
0
0
0
0
0
0
0
0
0
0
0
0
0
0
0
0
0
0
0
0
0
0
0
0
0
0
0
0
0
0
0
0
0
0
0
0
0
0
0
0
0
0
0
0
0
0
0
0
0
0
0
0
0
0
0
0
0
0
0
0
0
0
0
0
0
0
0
0
0
0
0
0
0
0
0
0
0
0
0
0
0
0
0
0
0
0
0
0
0
0
0
0
0
0
0
0
0
0
0
0
0
0
0
0
0
0
0
0
0
0
0
0
0
0
0
0
0
0
0
0
0
0
0
0
0
0
0
0
0
0
0
0
0
0
0
0
0
0
0
0
0
0
0
0
0
0
0
0
0
0
0
0
0
0
0
0
0
0
0
0
0
0
0
0
0
0
0
0
0
0
0
0
0
0
0
0
0
0
0
0
0
0
0
0
0
0
0
0
0
0
0
0
0
0
0
0
0
0
0
0
0
0
0
0
0
0
0
0
0
0
0
0
0
0
0
0
0
0
0
0
0
0
0
0
0
0
0
0
0
0
0
0
0
0
0
0
0
0
0
0
0
0
0
0
0
0
0
0
0
0
0
0
0
0
0
0
0
0
0
0
0
0
0
0
0
0
0
0
0
0
0
0
0
0
0
0
0
0
0
0
0
0
0
0
0
0
0
0
0
0
0
0
0
0
0
0
0
0
0
0
0
0
0
0
0
0
0
0
0
0
0
0
0
0
0
0
0
0
0
0
0
0
0
0
0
0
0
0
0
0
0
0
0
0
0
0
0
0
0
0
0
0
0
0
0
0
0
0
0
0
0
0
0
0
0
0
0
0
0
0
0
0
0
0
0
0
0
0
0
0
0
0
0
0
0
0
0
0
0
0
0
0
0
0
0
0
0
0
0
0
0
0
0
0
0
0
0
0
0
0
0
0
0
0
0
0
0
0
0
0
0
0
0
0
0
0
0
0
0
0
0
0
0
0
0
0
0
0
0
0
0
0
0
0
0
0
0
0
0
0
0
0
0
0
0
0
0
0
0
0
0
0
0
0
0
0
0
0
0
0
0
0
0
0
0
0
0
0
0
0
0
0
0
0
0
0
0
0
0
0
0
0
0
0
0
0
0
0
0
0
0
0
0
0
0
0
0
0
0
0
0
0
0
0
0
0
0
0
0
0
0
0
0
0
0
0
0
0
0
0
0
0
0
0
0
0
0
0
0
0
0
0
0
0
0
0
0
0
0
0
0
0
0
0
0
0
0
0
0
0
0
0
0
0
0
0
0
0
0
0
0
0
0
0
0
0
0
0
0
0
0
0
0
0
0
0
0
0
0
0
0
0
0
0
0
0
0
0
0
0
0
0
0
0
0
0
0
0
0
0
0
0
0
0
0
0
0
0
0
0
0
0
0
0
0
0
0
0
0
0
0
0
0
0
0
0
0
0
0
0
0
0
0
0
0
0
0
0
0
0
0
0
0
0
0
0
0
0
0
0
0
0
0
0
0
0
0
0
0
0
0
0
0
0
0
0
0
0
0
0
0
0
0
0
0
0
0
0
0
0
0
0
0
0
0
0
0
0
0
0
0
0
0
0
0
0
0
0
0
0
0
0
0
0
0
0
0
0
0
0
0
0
0
0
0
0
0
0
0
0
0
0
0
0
0
0
0
0
0
0
0
0
0
0
0
0
0
0
0
0
0
0
0
0
0
0
0
0
0
0
0
0
0
0
0
0
0
0
0
0
0
0
0
0
0
0
0
0
0
0
0
0
0
0
0
0
0
0
0
0
0
0
0
0
0
0
0
0
0
0
0
0
0
0
0
0
0
0
0
0
0
0
0
0
0
0
0
0
0
0
0
0
0
0
0
0
0
0
0.00885754
0.00885754
0.0488226
0.0488226
-0.155938
-0.155938
-0.0784604
-0.0784604
-0.00400066
-0.00400066
-0.0735944
-0.0735944
0.00448029
0.00448029
0.0346225
0.0346225
-0.194528
-0.194528
-0.0242604
-0.0242604
-0.0622509
-0.0622509
-0.0953735
-0.0953735
-0.166968
-0.166968
0.0429341
0.0429341
-0.078836
-0.078836
0.11141
0.11141
-0.0661379
-0.0661379
-0.00478593
-0.00478593
0.0649636
0.0649636
-0.0404305
-0.0404305
-0.0233285
-0.0233285
-0.0976172
-0.0976172
-0.383846
-0.383846
-0.0379357
-0.0379357
-0.0489764
-0.0489764
-0.0342405
-0.0342405
-0.0229122
-0.0229122
-0.00633839
-0.00633839
-0.190886
-0.190886
0.0163923
0.0163923
0.0151278
0.0151278
0.0180015
0.0180015
-0.257771
-0.257771
-0.040832
-0.040832
-0.288041
-0.288041
-0.0151756
-0.0151756
-0.0596515
-0.0596515
-0.0223107
-0.0223107
0.0134372
0.0134372
-0.0753916
-0.0753916
-0.0571125
-0.0571125
0.0936757
0.0936757
-0.0867313
-0.0867313
-0.0785326
-0.0785326
-0.275257
-0.275257
-0.0751682
-0.0751682
-0.046204
-0.046204
-0.049038
-0.049038
-0.0304412
-0.0304412
-0.0310185
-0.0310185
0.137315
0.137315
-0.0443575
-0.0443575
0.0251653
0.0251653
-0.226642
-0.226642
-0.00685745
-0.00685745
-0.0230858
-0.0230858
-0.113409
-0.113409
-0.142016
-0.142016
-0.00974547
-0.00974547
-0.0293877
-0.0293877
-0.10974
-0.10974
0.0808353
0.0808353
0.0011828
0.0011828
-0.108496
-0.108496
-0.0805912
-0.0805912
-0.079946
-0.079946
-0.0815627
-0.0815627
0.0763788
0.0763788
0.106556
0.106556
-0.177631
-0.177631
-0.12141
-0.12141
-0.0397781
-0.0397781
-0.294324
-0.294324
0.0716106
0.0716106
-0.148853
-0.148853
-0.000395143
-0.000395143
-0.0445501
-0.0445501
-0.00544526
-0.00544526
-0.111279
-0.111279
-0.0832218
-0.0832218
-0.191012
-0.191012
0.018025
0.018025
-0.101287
-0.101287
-0.269435
-0.269435
-0.168906
-0.168906
-0.136083
-0.136083
-0.0380093
-0.0380093
-0.0129157
-0.0129157
0.0389277
0.0389277
-0.00831724
-0.00831724
-0.0382828
-0.0382828
-0.00148291
-0.00148291
0.0704323
0.0704323
-0.143162
-0.143162
-0.227103
-0.227103
-0.0166773
-0.0166773
0.0105949
0.0105949
-0.0580418
-0.0580418
-0.355356
-0.355356
-0.0776499
-0.0776499
-0.00197412
-0.00197412
-0.0978094
-0.0978094
-0.0397457
-0.0397457
-0.0784653
-0.0784653
-0.0145433
-0.0145433
0.0140378
0.0140378
-0.266623
-0.266623
-0.0654111
-0.0654111
-0.0452597
-0.0452597
-0.0525108
-0.0525108
-0.165523
-0.165523
0.131534
0.131534
0.0860643
0.0860643
0.0195827
0.0195827
0.0655059
0.0655059
-0.0157951
-0.0157951
-0.00740771
-0.00740771
-0.115421
-0.115421
-0.182554
-0.182554
0.0189973
0.0189973
-0.00861843
-0.00861843
-0.0345329
-0.0345329
0.0201702
0.0201702
-0.0600001
-0.0600001
-0.0926894
-0.0926894
-0.213775
-0.213775
-0.00811915
-0.00811915
-0.00895077
-0.00895077
0.00549718
0.00549718
-0.275228
-0.275228
-0.140757
-0.140757
0.0470427
0.0470427
0.00695936
0.00695936
-0.0382996
-0.0382996
0.080075
0.080075
-0.048473
-0.048473
-0.0103351
-0.0103351
-0.104881
-0.104881
-0.120054
-0.120054
-0.0424498
-0.0424498
-0.0127395
-0.0127395
-0.0601426
-0.0601426
-0.0113132
-0.0113132
-0.0283144
-0.0283144
-0.0204709
-0.0204709
-0.0143373
-0.0143373
-0.0396017
-0.0396017
0.022658
0.022658
-0.0358213
-0.0358213
-0.11772
-0.11772
-0.0223923
-0.0223923
-0.0144435
-0.0144435
0.0327289
0.0327289
-0.226878
-0.226878
-0.195496
-0.195496
-0.53985
-0.53985
-0.265976
-0.265976
-0.202184
-0.202184
0.00345618
0.00345618
-0.0350788
-0.0350788
-0.103084
-0.103084
0.0728206
0.0728206
-0.0497388
-0.0497388
0.0517965
0.0517965
-0.0102617
-0.0102617
-0.0671758
-0.0671758
-0.11036
-0.11036
0.0382643
0.0382643
-0.0895028
-0.0895028
-0.0538202
-0.0538202
-0.0408533
-0.0408533
-0.128766
-0.128766
-0.12354
-0.12354
-0.0163462
-0.0163462
0.00779288
0.00779288
-0.0762399
-0.0762399
-0.0198224
-0.0198224
-0.103224
-0.103224
-0.0931386
-0.0931386
-0.125891
-0.125891
-0.0162556
-0.0162556
-0.0229607
-0.0229607
-0.00200349
-0.00200349
-0.240309
-0.240309
-0.135311
-0.135311
-0.27349
-0.27349
-0.0119957
-0.0119957
-0.0141207
-0.0141207
0.0495348
0.0495348
0.0233949
0.0233949
0.0552143
0.0552143
0.0971253
0.0971253
-0.0838483
-0.0838483
-0.0930729
-0.0930729
0.00505494
0.00505494
-0.0287099
-0.0287099
-0.00108197
-0.00108197
-0.0225487
-0.0225487
-0.0589198
-0.0589198
0.0278433
0.0278433
-0.0347479
-0.0347479
-0.183134
-0.183134
-0.0150071
-0.0150071
0.0633313
0.0633313
-0.0283198
-0.0283198
-0.366758
-0.366758
0.0621832
0.0621832
0.0163188
0.0163188
-0.026823
-0.026823
-0.138841
-0.138841
-0.00438851
-0.00438851
-0.0244308
-0.0244308
-0.156618
-0.156618
-0.0732486
-0.0732486
0.0614359
0.0614359
-0.0360594
-0.0360594
-0.0704889
-0.0704889
-0.175228
-0.175228
0.103447
0.103447
0.102822
0.102822
-0.00309101
-0.00309101
-0.214279
-0.214279
0.0238032
0.0238032
-0.0541145
-0.0541145
-0.0837046
-0.0837046
-0.0162579
-0.0162579
0.000646879
0.000646879
-0.0223876
-0.0223876
-0.168707
-0.168707
-0.0525397
-0.0525397
-0.0148418
-0.0148418
-0.0150304
-0.0150304
-0.0556355
-0.0556355
-0.21869
-0.21869
0.00650926
0.00650926
-0.0460249
-0.0460249
-0.066888
-0.066888
-0.276627
-0.276627
-0.194111
-0.194111
-0.16885
-0.16885
-0.049974
-0.049974
-0.0112462
-0.0112462
-0.00967467
-0.00967467
0.112358
0.112358
-0.0047946
-0.0047946
-0.0226334
-0.0226334
-0.0135346
-0.0135346
0.101056
0.101056
-0.198114
-0.198114
-0.0853774
-0.0853774
-0.0145822
-0.0145822
-0.263643
-0.263643
-0.268024
-0.268024
-0.00971806
-0.00971806
-0.297894
-0.297894
-0.00278857
-0.00278857
-0.173383
-0.173383
0.0527145
0.0527145
-0.0262763
-0.0262763
-0.00137867
-0.00137867
-0.0445087
-0.0445087
-0.402011
-0.402011
-0.0520026
-0.0520026
-0.0227338
-0.0227338
-0.0511565
-0.0511565
-0.179691
-0.179691
-0.0832407
-0.0832407
-0.0827975
-0.0827975
0.122535
0.122535
-0.0161988
-0.0161988
-0.203063
-0.203063
-0.0234773
-0.0234773
-0.010508
-0.010508
-0.265173
-0.265173
-0.0367769
-0.0367769
-0.213583
-0.213583
-0.0254678
-0.0254678
-0.00616213
-0.00616213
-0.106995
-0.106995
0.0398314
0.0398314
0.00281022
0.00281022
-0.0629856
-0.0629856
-0.0787725
-0.0787725
-0.0567482
-0.0567482
-0.101892
-0.101892
-0.243929
-0.243929
0.0783703
0.0783703
-0.214573
-0.214573
0.0114866
0.0114866
-0.251825
-0.251825
-0.0735275
-0.0735275
-0.10193
-0.10193
-0.0129607
-0.0129607
0.0442305
0.0442305
-0.289163
-0.289163
0.0583973
0.0583973
0.0223698
0.0223698
0.114159
0.114159
-0.243724
-0.243724
-0.0719929
-0.0719929
-0.00438819
-0.00438819
-0.128424
-0.128424
-0.180601
-0.180601
-0.0487607
-0.0487607
-0.221925
-0.221925
-0.0874173
-0.0874173
-0.0253699
-0.0253699
-0.042238
-0.042238
0.0461933
0.0461933
-0.200393
-0.200393
0.0775913
0.0775913
-0.0642984
-0.0642984
0.00138735
0.00138735
-0.080093
-0.080093
0.0116708
0.0116708
0.042681
0.042681
-0.0738056
-0.0738056
-0.120951
-0.120951
-0.184335
-0.184335
0.0111179
0.0111179
-0.270239
-0.270239
0.0528048
0.0528048
-0.0352997
-0.0352997
-0.107285
-0.107285
-0.172436
-0.172436
-0.237006
-0.237006
-0.21914
-0.21914
-0.0296645
-0.0296645
-0.10477
-0.10477
-0.00138609
-0.00138609
-0.0162806
-0.0162806
-0.296063
-0.296063
-0.0301461
-0.0301461
0.0950706
0.0950706
0.0445236
0.0445236
-0.035007
-0.035007
-0.00249679
-0.00249679
0.002308
0.002308
5.02925e-06
5.02925e-06
-0.0846029
-0.0846029
-0.0810531
-0.0810531
0.0203047
0.0203047
-0.0150486
-0.0150486
-0.12206
-0.12206
0.0278008
0.0278008
-0.066373
-0.066373
-0.0418438
-0.0418438
-0.0505343
-0.0505343
-0.0226262
-0.0226262
-0.020795
-0.020795
-0.151308
-0.151308
-0.0153744
-0.0153744
0.00969806
0.00969806
-0.00819652
-0.00819652
0.106117
0.106117
-0.123413
-0.123413
-0.0989785
-0.0989785
-0.0882668
-0.0882668
-0.100913
-0.100913
-0.0360778
-0.0360778
-0.152816
-0.152816
-0.165744
-0.165744
-0.0785714
-0.0785714
-0.3231
-0.3231
0.0517153
0.0517153
-0.0223762
-0.0223762
-0.0166041
-0.0166041
0.104447
0.104447
0.0534672
0.0534672
-0.0147494
-0.0147494
-0.00107055
-0.00107055
-0.0288206
-0.0288206
-0.0306773
-0.0306773
-0.122254
-0.122254
-0.0808658
-0.0808658
-0.082334
-0.082334
-0.0741582
-0.0741582
-0.109079
-0.109079
-0.0253753
-0.0253753
0.027636
0.027636
0.0783906
0.0783906
-0.051638
-0.051638
-0.0781838
-0.0781838
-0.031944
-0.031944
-0.469526
-0.469526
0.0137322
0.0137322
0.0498794
0.0498794
-0.245344
-0.245344
0.0593667
0.0593667
-0.0380656
-0.0380656
0.0330538
0.0330538
-0.423441
-0.423441
-0.0525202
-0.0525202
0.0466399
0.0466399
-0.306375
-0.306375
-0.142791
-0.142791
-0.0786862
-0.0786862
-0.304005
-0.304005
-0.0295184
-0.0295184
-0.0285418
-0.0285418
-0.0999029
-0.0999029
-0.422402
-0.422402
-0.10442
-0.10442
-0.0134004
-0.0134004
-0.0332033
-0.0332033
0.00774512
0.00774512
-0.209309
-0.209309
-0.110733
-0.110733
0.0176643
0.0176643
-0.0940688
-0.0940688
-0.0366848
-0.0366848
-0.0341536
-0.0341536
-0.159125
-0.159125
-0.172715
-0.172715
-0.246261
-0.246261
-0.00380454
-0.00380454
-0.0555006
-0.0555006
-0.0965938
-0.0965938
-0.0515614
-0.0515614
-0.0604963
-0.0604963
0.00613588
0.00613588
-0.0817477
-0.0817477
0.033307
0.033307
-0.0596432
-0.0596432
-0.0463854
-0.0463854
-0.0190582
-0.0190582
0.0590983
0.0590983
-0.133471
-0.133471
-0.171351
-0.171351
-0.0169346
-0.0169346
-0.194489
-0.194489
-0.0459667
-0.0459667
-0.305072
-0.305072
-0.505268
-0.505268
0.0305263
0.0305263
0.0571233
0.0571233
0.0296825
0.0296825
-0.121085
-0.121085
0.00145509
0.00145509
-0.00683984
-0.00683984
-0.207222
-0.207222
-0.0135573
-0.0135573
-0.0158853
-0.0158853
0.00823464
0.00823464
-0.00997385
-0.00997385
-0.121064
-0.121064
-0.335938
-0.335938
-0.00698349
-0.00698349
-0.000699779
-0.000699779
-0.0354672
-0.0354672
-0.0381722
-0.0381722
-0.252711
-0.252711
-0.0124493
-0.0124493
-0.192349
-0.192349
0.00999951
0.00999951
-0.0894927
-0.0894927
-0.059217
-0.059217
0.0346017
0.0346017
-0.0514437
-0.0514437
0.0204774
0.0204774
0.0173468
0.0173468
-0.0467381
-0.0467381
-0.00967557
-0.00967557
-0.0644271
-0.0644271
-0.0708333
-0.0708333
-0.0220019
-0.0220019
0.0582535
0.0582535
-0.052309
-0.052309
-0.0833092
-0.0833092
0.056714
0.056714
-0.0118642
-0.0118642
-0.148989
-0.148989
-0.00606225
-0.00606225
-0.0962717
-0.0962717
-0.288388
-0.288388
-0.0374882
-0.0374882
-0.0719918
-0.0719918
-0.125325
-0.125325
0.0854183
0.0854183
0.0320527
0.0320527
-0.0692897
-0.0692897
0.0212357
0.0212357
-0.00900949
-0.00900949
-0.0784711
-0.0784711
-0.0661619
-0.0661619
-0.0625906
-0.0625906
-0.0153571
-0.0153571
0.00056984
0.00056984
-0.0561302
-0.0561302
-0.0588896
-0.0588896
-0.0197945
-0.0197945
-0.039352
-0.039352
-0.418583
-0.418583
-0.0139965
-0.0139965
-0.0501624
-0.0501624
-0.0640529
-0.0640529
-0.0277531
-0.0277531
0.0307429
0.0307429
-0.0362779
-0.0362779
-0.060958
-0.060958
0.0283966
0.0283966
0.00994487
0.00994487
-0.0984756
-0.0984756
-0.0741283
-0.0741283
-0.188682
-0.188682
-0.0294342
-0.0294342
0.00753947
0.00753947
-0.0246147
-0.0246147
-0.0199781
-0.0199781
-0.113684
-0.113684
-0.013807
-0.013807
-0.0399168
-0.0399168
-0.037736
-0.037736
-0.213771
-0.213771
-0.0242023
-0.0242023
-0.0239977
-0.0239977
-0.0567723
-0.0567723
-0.178431
-0.178431
-0.00552849
-0.00552849
-0.201169
-0.201169
-0.00616899
-0.00616899
-0.259385
-0.259385
-0.214772
-0.214772
-0.000273652
-0.000273652
0.0539568
0.0539568
0.0170815
0.0170815
-0.158125
-0.158125
-0.0048126
-0.0048126
-0.0488018
-0.0488018
-0.245223
-0.245223
0.0699393
0.0699393
-0.155939
-0.155939
-0.0553488
-0.0553488
-0.14575
-0.14575
-0.204088
-0.204088
0.0888214
0.0888214
-0.0318214
-0.0318214
-0.0812892
-0.0812892
-0.0180168
-0.0180168
-0.0876038
-0.0876038
-0.0200135
-0.0200135
-0.0267916
-0.0267916
-0.0556448
-0.0556448
-0.149183
-0.149183
-0.0973398
-0.0973398
0.00977478
0.00977478
-0.166289
-0.166289
-0.0706148
-0.0706148
-0.0833771
-0.0833771
-0.128521
-0.128521
-0.163243
-0.163243
-0.101911
-0.101911
0.0336513
0.0336513
-0.379245
-0.379245
0.0196951
0.0196951
-0.0953602
-0.0953602
-0.0429512
-0.0429512
-0.237501
-0.237501
-0.138002
-0.138002
0.0716182
0.0716182
-0.122695
-0.122695
-0.180322
-0.180322
-0.0538641
-0.0538641
-0.156581
-0.156581
-0.253367
-0.253367
0.0778091
0.0778091
-0.0579792
-0.0579792
-0.000638173
-0.000638173
-0.0193043
-0.0193043
-0.217897
-0.217897
-0.209211
-0.209211
-0.0106209
-0.0106209
-0.0624898
-0.0624898
0.0397266
0.0397266
-0.151264
-0.151264
-0.0104726
-0.0104726
-0.343416
-0.343416
-0.247687
-0.247687
-0.0375487
-0.0375487
-0.0380601
-0.0380601
-0.206687
-0.206687
-0.0822228
-0.0822228
0.123301
0.123301
-0.174616
-0.174616
0.114954
0.114954
-0.0476096
-0.0476096
-0.0449431
-0.0449431
-0.199956
-0.199956
-0.0266803
-0.0266803
-0.00732021
-0.00732021
-0.0402417
-0.0402417
-0.057793
-0.057793
-0.046993
-0.046993
-0.0473545
-0.0473545
0.00182382
0.00182382
-0.0301017
-0.0301017
-0.125765
-0.125765
-0.0407023
-0.0407023
-0.0524178
-0.0524178
-0.0357903
-0.0357903
-0.0170063
-0.0170063
-0.0627073
-0.0627073
0.0223192
0.0223192
-0.0421033
-0.0421033
0.00714592
0.00714592
-0.0250038
-0.0250038
-0.27539
-0.27539
-0.0508716
-0.0508716
-0.0804351
-0.0804351
0.045506
0.045506
-0.0229979
-0.0229979
0.0163847
0.0163847
-0.0448057
-0.0448057
-0.220052
-0.220052
-0.016009
-0.016009
-0.183567
-0.183567
-0.0399022
-0.0399022
-0.0080038
-0.0080038
-0.0481469
-0.0481469
-0.0468526
-0.0468526
-0.0454655
-0.0454655
-0.0601132
-0.0601132
-0.0948072
-0.0948072
0.0930209
0.0930209
0.00305402
0.00305402
-0.00796472
-0.00796472
-0.0944377
-0.0944377
0.0568095
0.0568095
-0.0260296
-0.0260296
-0.0145514
-0.0145514
-0.0520591
-0.0520591
-0.0442607
-0.0442607
-0.00747558
-0.00747558
-0.0326967
-0.0326967
-0.00112972
-0.00112972
-0.0176139
-0.0176139
-0.0641903
-0.0641903
0.0122305
0.0122305
-0.11842
-0.11842
-0.0583878
-0.0583878
0.119007
0.119007
-0.0155501
-0.0155501
0.0373286
0.0373286
-0.037501
-0.037501
-0.324738
-0.324738
-0.274511
-0.274511
-0.116612
-0.116612
0.0719338
0.0719338
-0.181457
-0.181457
-0.00424116
-0.00424116
-0.0196681
-0.0196681
-0.0216588
-0.0216588
-0.00610874
-0.00610874
-0.0489668
-0.0489668
-0.0616637
-0.0616637
-0.0185424
-0.0185424
-0.0885021
-0.0885021
-0.406381
-0.406381
-0.0305572
-0.0305572
-0.0476892
-0.0476892
-0.0314381
-0.0314381
-0.109649
-0.109649
0.0342419
0.0342419
-0.18143
-0.18143
-0.00881487
-0.00881487
0.0529552
0.0529552
-0.00908172
-0.00908172
-0.0221271
-0.0221271
-0.283182
-0.283182
-0.282798
-0.282798
-0.247122
-0.247122
-0.00427063
-0.00427063
0.011597
0.011597
-0.0536145
-0.0536145
-0.0120543
-0.0120543
-0.0187391
-0.0187391
-0.0220768
-0.0220768
-0.0102171
-0.0102171
0.0674223
0.0674223
-0.303493
-0.303493
-0.018111
-0.018111
-0.00201917
-0.00201917
-0.0101149
-0.0101149
-0.0258692
-0.0258692
-0.0151971
-0.0151971
0.0232629
0.0232629
-0.169653
-0.169653
-0.0358398
-0.0358398
-0.0950071
-0.0950071
-0.183981
-0.183981
-0.0624243
-0.0624243
-0.246472
-0.246472
-0.0823441
-0.0823441
-0.0782602
-0.0782602
-0.0061623
-0.0061623
-0.0290763
-0.0290763
0.0659598
0.0659598
0.0960715
0.0960715
-0.0200608
-0.0200608
-0.0105254
-0.0105254
0.0214262
0.0214262
-0.127686
-0.127686
-0.0120496
-0.0120496
0.0476112
0.0476112
-0.0472457
-0.0472457
-0.000495263
-0.000495263
-0.0179569
-0.0179569
-0.0253401
-0.0253401
-0.235801
-0.235801
0.0946903
0.0946903
-0.0123258
-0.0123258
-0.087324
-0.087324
-0.129401
-0.129401
-0.142762
-0.142762
-0.0183924
-0.0183924
-0.0114365
-0.0114365
-0.175058
-0.175058
0.0244495
0.0244495
-0.233831
-0.233831
-0.306601
-0.306601
0.0241116
0.0241116
-0.0195076
-0.0195076
-0.217106
-0.217106
-0.0414955
-0.0414955
-0.0551148
-0.0551148
-0.0910041
-0.0910041
-0.0290259
-0.0290259
0.0501825
0.0501825
-0.203922
-0.203922
-0.0789102
-0.0789102
0.0315533
0.0315533
-0.177741
-0.177741
-0.0477074
-0.0477074
-0.040919
-0.040919
-0.0180232
-0.0180232
-0.0155671
-0.0155671
-0.0575629
-0.0575629
-0.105302
-0.105302
-0.0202177
-0.0202177
0.0541949
0.0541949
-0.498359
-0.498359
0.00656715
0.00656715
-0.0250024
-0.0250024
-0.071729
-0.071729
0.0312399
0.0312399
-0.0690976
-0.0690976
-0.0334651
-0.0334651
-0.0473652
-0.0473652
-0.00643166
-0.00643166
0.0146788
0.0146788
0.00928902
0.00928902
0.0174255
0.0174255
-0.249859
-0.249859
-0.0683772
-0.0683772
0.00961811
0.00961811
0.0662436
0.0662436
0.013626
0.013626
0.0629203
0.0629203
-0.0302765
-0.0302765
0.0155008
0.0155008
-0.031659
-0.031659
-0.0342403
-0.0342403
-0.426758
-0.426758
0.0235382
0.0235382
-0.35812
-0.35812
0.0604131
0.0604131
0.00403062
0.00403062
-0.0664532
-0.0664532
-0.0358662
-0.0358662
-0.114123
-0.114123
-0.128929
-0.128929
-0.0417592
-0.0417592
-0.00545631
-0.00545631
0.065532
0.065532
-0.150481
-0.150481
-0.0386239
-0.0386239
-0.0323419
-0.0323419
0.0907418
0.0907418
0.00183764
0.00183764
-0.00832021
-0.00832021
0.0013231
0.0013231
-0.0141805
-0.0141805
-0.0945338
-0.0945338
-0.202041
-0.202041
-0.232395
-0.232395
-0.034718
-0.034718
0.0486874
0.0486874
-0.236063
-0.236063
-0.0917043
-0.0917043
0.0882599
0.0882599
-0.0108202
-0.0108202
0.00195554
0.00195554
-0.0654777
-0.0654777
-0.053458
-0.053458
-0.0146109
-0.0146109
-0.225951
-0.225951
0.137637
0.137637
-0.161237
-0.161237
-0.0147084
-0.0147084
-0.0693198
-0.0693198
-0.297174
-0.297174
0.0124987
0.0124987
-0.0570448
-0.0570448
-0.260233
-0.260233
0.0981588
0.0981588
-0.00703895
-0.00703895
0.01397
0.01397
-0.0412113
-0.0412113
0.0554457
0.0554457
-0.00371884
-0.00371884
-0.0108824
-0.0108824
-0.0767336
-0.0767336
-0.124941
-0.124941
-0.382939
-0.382939
-0.297863
-0.297863
0.0355254
0.0355254
-0.282688
-0.282688
-0.0544735
-0.0544735
-0.0270697
-0.0270697
0.00347782
0.00347782
-0.088378
-0.088378
0.0208665
0.0208665
-0.010862
-0.010862
0.0185079
0.0185079
-0.00955671
-0.00955671
0.000511799
0.000511799
-0.0771652
-0.0771652
-0.0467861
-0.0467861
-0.0100603
-0.0100603
-0.151154
-0.151154
0.00710345
0.00710345
-0.0570497
-0.0570497
-0.0660217
-0.0660217
0.0482637
0.0482637
-0.0762327
-0.0762327
-0.0352646
-0.0352646
0.0760373
0.0760373
0.0195758
0.0195758
0.0705416
0.0705416
-0.0915376
-0.0915376
-0.00373345
-0.00373345
-0.190476
-0.190476
-0.0583094
-0.0583094
-0.283698
-0.283698
-0.154767
-0.154767
-0.284047
-0.284047
-0.0224906
-0.0224906
-0.196852
-0.196852
0.00685503
0.00685503
-0.0519468
-0.0519468
-0.249157
-0.249157
-0.284036
-0.284036
0.0422081
0.0422081
-0.056559
-0.056559
0.052224
0.052224
0.0677042
0.0677042
-0.104265
-0.104265
-0.265024
-0.265024
-0.00900973
-0.00900973
0.0227428
0.0227428
0.0170855
0.0170855
0.0510141
0.0510141
-0.140533
-0.140533
-0.0520026
-0.0520026
0.00575316
0.00575316
-0.0525995
-0.0525995
-0.0581961
-0.0581961
-0.0721019
-0.0721019
0.0282962
0.0282962
-0.156547
-0.156547
-0.018824
-0.018824
-0.0166706
-0.0166706
-0.0348088
-0.0348088
-0.0508776
-0.0508776
-0.0145691
-0.0145691
-0.171802
-0.171802
-0.244767
-0.244767
-0.0371756
-0.0371756
-0.00853663
-0.00853663
-0.0551908
-0.0551908
0.011329
0.011329
-0.253331
-0.253331
-0.00339394
-0.00339394
0.071531
0.071531
-0.308022
-0.308022
-0.00623873
-0.00623873
-0.0785098
-0.0785098
-0.0867211
-0.0867211
-0.189119
-0.189119
-0.0436642
-0.0436642
-0.0476031
-0.0476031
-0.00603738
-0.00603738
-0.217226
-0.217226
-0.0550172
-0.0550172
-0.146127
-0.146127
0.00583228
0.00583228
-0.0212714
-0.0212714
0.0252153
0.0252153
0.0362031
0.0362031
-0.103909
-0.103909
0.00705621
0.00705621
0.00810675
0.00810675
0.00554563
0.00554563
0.00168622
0.00168622
-0.00934652
-0.00934652
-0.0602325
-0.0602325
-0.0608451
-0.0608451
-0.127287
-0.127287
-0.0192821
-0.0192821
0.0587132
0.0587132
-0.0667401
-0.0667401
-0.19801
-0.19801
0.0447523
0.0447523
-0.0653452
-0.0653452
-0.0217064
-0.0217064
-0.0603289
-0.0603289
-0.0443597
-0.0443597
-0.0355578
-0.0355578
-0.0190954
-0.0190954
-0.165149
-0.165149
-0.0218722
-0.0218722
-0.0357309
-0.0357309
-0.0348731
-0.0348731
-0.206074
-0.206074
-0.335714
-0.335714
-0.0429866
-0.0429866
-0.0221578
-0.0221578
-0.212525
-0.212525
-0.0484744
-0.0484744
-0.0214057
-0.0214057
-0.138076
-0.138076
-0.1483
-0.1483
-0.0616802
-0.0616802
-0.0140649
-0.0140649
-0.116512
-0.116512
0.0195991
0.0195991
0.04007
0.04007
0.00384733
0.00384733
-0.012273
-0.012273
-0.0411015
-0.0411015
0.0399064
0.0399064
0.105169
0.105169
-0.213258
-0.213258
-0.0295893
-0.0295893
-0.0414941
-0.0414941
-0.0907879
-0.0907879
-0.065167
-0.065167
0.024184
0.024184
-0.0753981
-0.0753981
0.0403793
0.0403793
-0.174231
-0.174231
-0.247234
-0.247234
0.117742
0.117742
-0.198964
-0.198964
-0.240208
-0.240208
-0.158277
-0.158277
-0.0839723
-0.0839723
-0.0305815
-0.0305815
-0.0312948
-0.0312948
-0.12051
-0.12051
-0.0839624
-0.0839624
0.00244734
0.00244734
-0.0286362
-0.0286362
-0.0127014
-0.0127014
0.0268277
0.0268277
-0.0792451
-0.0792451
-0.174477
-0.174477
-0.365642
-0.365642
-0.252062
-0.252062
-0.141952
-0.141952
-0.0975509
-0.0975509
-0.432776
-0.432776
-0.0202535
-0.0202535
-0.186991
-0.186991
0.0442392
0.0442392
-0.00615343
-0.00615343
-0.251715
-0.251715
-0.0833881
-0.0833881
-0.0721002
-0.0721002
-0.192906
-0.192906
-0.0156163
-0.0156163
-0.0269202
-0.0269202
-0.0159202
-0.0159202
-0.0375129
-0.0375129
-0.189625
-0.189625
-0.0237352
-0.0237352
-0.018719
-0.018719
-0.0168508
-0.0168508
-0.00366975
-0.00366975
-0.142046
-0.142046
-0.00831416
-0.00831416
-0.259981
-0.259981
-0.428604
-0.428604
-0.0438999
-0.0438999
0.0366719
0.0366719
-0.0787868
-0.0787868
-0.0816654
-0.0816654
-0.0299492
-0.0299492
-0.107782
-0.107782
0.0204496
0.0204496
-0.0195597
-0.0195597
-0.0147535
-0.0147535
-0.0119688
-0.0119688
-0.0103982
-0.0103982
-0.00812764
-0.00812764
-0.00638631
-0.00638631
-0.00471462
-0.00471462
-0.00320082
-0.00320082
-0.00194216
-0.00194216
-0.000674789
-0.000674789
0.00038943
0.00038943
0.00133456
0.00133456
0.00225402
0.00225402
0.00282389
0.00282389
0.00334414
0.00334414
0.00382824
0.00382824
0.00400941
0.00400941
0.00417541
0.00417541
0.00407588
0.00407588
0.00404893
0.00404893
0.00368577
0.00368577
0.00313946
0.00313946
0.00273135
0.00273135
0.00198077
0.00198077
0.00115546
0.00115546
6.97737e-06
6.97737e-06
-0.00095855
-0.00095855
-0.00200336
-0.00200336
-0.00366533
-0.00366533
-0.0050078
-0.0050078
-0.00743445
-0.00743445
-0.00881653
-0.00881653
-0.0103166
-0.0103166
-0.0138878
-0.0138878
-0.0165838
-0.0165838
-0.0175307
-0.0175307
-0.020792
-0.020792
-0.0269766
-0.0269766
-0.0296546
-0.0296546
-0.0327467
-0.0327467
-0.0405714
-0.0405714
-0.0479845
-0.0479845
-0.0565131
-0.0565131
-0.0686126
-0.0686126
-0.0896216
-0.0896216
-0.10997
-0.10997
-0.152342
-0.152342
-0.180481
-0.180481
-0.0873963
-0.0873963
0.0117489
0.0117489
-0.0261304
-0.0261304
-0.0389671
-0.0389671
-0.0314947
-0.0314947
-0.0316094
-0.0316094
-0.0295928
-0.0295928
-0.0397974
-0.0397974
-0.0566602
-0.0566602
-0.066734
-0.066734
-0.0773986
-0.0773986
-0.0875367
-0.0875367
-0.0945943
-0.0945943
-0.0961731
-0.0961731
-0.0934939
-0.0934939
-0.0885727
-0.0885727
-0.08116
-0.08116
-0.0721617
-0.0721617
-0.0620093
-0.0620093
-0.0526554
-0.0526554
-0.0436149
-0.0436149
-0.036605
-0.036605
-0.0335836
-0.0335836
-0.0305863
-0.0305863
-0.017448
-0.017448
-0.0162149
-0.0162149
-0.0140215
-0.0140215
-0.0106461
-0.0106461
-0.00883289
-0.00883289
-0.00760218
-0.00760218
-0.00499266
-0.00499266
-0.00385821
-0.00385821
-0.00198901
-0.00198901
-0.000934357
-0.000934357
1.23461e-05
1.23461e-05
0.00120047
0.00120047
0.00197702
0.00197702
0.00271373
0.00271373
0.00309683
0.00309683
0.00376592
0.00376592
0.00392702
0.00392702
0.00406346
0.00406346
0.00397457
0.00397457
0.00410466
0.00410466
0.00377321
0.00377321
0.00330947
0.00330947
0.00290081
0.00290081
0.00211805
0.00211805
0.00136826
0.00136826
0.000420622
0.000420622
-0.000713257
-0.000713257
-0.00186654
-0.00186654
-0.00328475
-0.00328475
-0.00478593
-0.00478593
-0.00654691
-0.00654691
-0.00820907
-0.00820907
-0.0101652
-0.0101652
-0.0122122
-0.0122122
-0.0149835
-0.0149835
-0.0198995
-0.0198995
-0.0300168
-0.0300168
-0.0336922
-0.0336922
-0.0366488
-0.0366488
-0.0437817
-0.0437817
-0.0526356
-0.0526356
-0.0626172
-0.0626172
-0.0731777
-0.0731777
-0.0821001
-0.0821001
-0.0896446
-0.0896446
-0.0945408
-0.0945408
-0.0963927
-0.0963927
-0.0945554
-0.0945554
-0.0890146
-0.0890146
-0.0764671
-0.0764671
-0.0635596
-0.0635596
-0.050392
-0.050392
-0.0408919
-0.0408919
-0.0355695
-0.0355695
-0.0278751
-0.0278751
-0.0287996
-0.0287996
-0.0308742
-0.0308742
-0.0248674
-0.0248674
-0.00717424
-0.00717424
-0.0728579
-0.0728579
-0.168012
-0.168012
-0.16526
-0.16526
-0.120356
-0.120356
-0.0849137
-0.0849137
-0.0721999
-0.0721999
-0.0540045
-0.0540045
-0.0470146
-0.0470146
-0.0424706
-0.0424706
-0.0337322
-0.0337322
-0.0283679
-0.0283679
-0.0265887
-0.0265887
-0.0223306
-0.0223306
      </DataArray> 
    </PointData>
    <CellData>
    </CellData>
  </Piece>
  </UnstructuredGrid>
</VTKFile>
