<?xml version="1.0"?>
<VTKFile type="UnstructuredGrid">
  <UnstructuredGrid>
  <Piece NumberOfPoints="3487"  NumberOfCells="1698">
    <Points>
      <DataArray type="Float64" NumberOfComponents="3" format="ascii">
39.9731 48.6387 0
60.0274 48.6378 0
40.6341 48.7696 0
41.2965 48.8916 0
41.9603 49.0046 0
42.6254 49.1086 0
43.2917 49.2036 0
43.9593 49.2895 0
44.6279 49.3665 0
45.2974 49.4343 0
45.9677 49.4932 0
46.6388 49.543 0
47.3104 49.5837 0
47.9825 49.6154 0
48.655 49.638 0
49.3277 49.6516 0
50.0005 49.6561 0
50.6733 49.6515 0
51.346 49.6379 0
52.0184 49.6152 0
52.6905 49.5835 0
53.3621 49.5427 0
54.0332 49.4928 0
54.7035 49.4339 0
55.373 49.366 0
56.0415 49.289 0
56.709 49.203 0
57.3753 49.1079 0
58.0404 49.0039 0
58.7041 48.8909 0
59.3665 48.7688 0
39.9939 49.6549 0
39.9935 49.4008 0
39.9898 49.1468 0
39.9829 48.8928 0
19.901 69.5624 0
39.9911 49.9165 0
39.9848 50.1781 0
39.9697 50.5564 0
39.9474 50.9344 0
39.9025 51.4806 0
39.8426 52.0252 0
39.7294 52.8101 0
39.5851 53.5898 0
39.3218 54.7066 0
38.9947 55.8066 0
38.7189 56.5897 0
38.4107 57.3608 0
38.0708 58.1185 0
37.6997 58.8614 0
37.1087 59.9076 0
36.456 60.9165 0
35.7438 61.8844 0
-0.0513563 49.5146 0
17.2913 69.3825 0
14.7273 68.8643 0
12.2527 68.0166 0
9.9095 66.8536 0
7.73789 65.3954 0
11.5616 31.5947 0
0.157034 46.6961 0
0.762545 43.9359 0
1.7534 41.2895 0
0 0 0
0.115108 3.70739 0
0.52219 7.40151 0
1.21337 11.057 0
2.18345 14.6479 0
3.09205 17.2913 0
49.9997 -0.329493 0
5.1116 0 0
10.2232 0 0
15.3348 0 0
100 0 0
57.4076 -0.319231 0
64.8154 -0.281751 0
72.2159 -0.203105 0
88.4391 31.5939 0
99.885 3.70739 0
99.478 7.40132 0
98.7868 11.0567 0
97.8167 14.6476 0
96.9081 17.2911 0
100.052 49.5142 0
99.8431 46.6958 0
99.2377 43.9356 0
98.2468 41.2891 0
80.0989 69.5618 0
99.8873 52.1246 0
99.3828 54.6912 0
98.5472 57.1698 0
97.3949 59.5181 0
95.946 61.6958 0
60.0064 49.654 0
77.5879 69.4128 0
75.1152 68.9505 0
72.72 68.1821 0
70.4399 67.1196 0
68.9507 66.2223 0
67.5448 65.1991 0
66.233 64.0578 0
65.0252 62.807 0
64.2562 61.8836 0
63.5441 60.9157 0
62.8914 59.9068 0
62.3004 58.8606 0
61.5894 57.3601 0
61.0055 55.8058 0
60.6784 54.7058 0
60.4151 53.589 0
60.2708 52.8092 0
60.0069 49.3999 0
60.0107 49.1459 0
60.0175 48.8919 0
52.8157 29.9137 0
26.5438 36.7372 0
40.3446 24.0459 0
24.9562 22.3451 0
71.9141 22.3646 0
72.7022 43.7823 0
54.797 23.8659 0
15.2875 47.2213 0
38.358 49.2648 0
23.5567 65.0437 0
7.68306 7.71811 0
91.9584 7.69606 0
29.141 56.7046 0
37.1752 51.7339 0
28.0859 47.0238 0
29.7239 47.9853 0
71.5168 46.5092 0
30.9811 48.8839 0
70.5187 47.9864 0
31.6378 45.4747 0
30.886 46.9282 0
70.0649 46.4987 0
68.9808 44.8249 0
31.2832 49.9784 0
30.8929 51.2 0
28.1807 48.9786 0
45.3107 41.1152 0
53.8419 40.7362 0
56.0243 40.2851 0
73.1317 47.2621 0
70.1211 49.2262 0
68.3261 42.257 0
32.3172 42.5874 0
26.1357 45.5067 0
27.6787 44.5133 0
30.3093 43.1443 0
70.4074 42.4552 0
72.6776 45.7752 0
44.8511 42.9074 0
51.4301 41.8139 0
55.4077 42.4001 0
32.4455 48.9212 0
68.5615 49.4634 0
39.4818 41.8983 0
35.4443 43.2129 0
32.895 46.3729 0
33.5746 48.1201 0
67.1067 48.0642 0
67.9825 46.3024 0
65.0679 42.8759 0
60.4144 41.5357 0
32.3573 51.238 0
28.2047 50.8355 0
41.784 37.1223 0
46.8257 37.5264 0
52.048 39.6988 0
58.673 39.0685 0
26.5905 51.7297 0
24.287 50.1632 0
74.2382 49.7716 0
71.1758 50.4757 0
69.1554 52.0566 0
67.9299 52.1913 0
59.7554 36.1894 0
66.4954 40.5047 0
34.1148 40.8812 0
36.0356 35.6222 0
23.1768 46.9967 0
21.6469 43.1053 0
28.3597 41.6287 0
74.3169 44.5356 0
76.6466 48.3778 0
43.0566 43.4952 0
46.2701 42.7812 0
49.9682 42.829 0
48.4335 42.6119 0
51.7627 43.8664 0
54.0872 43.9821 0
52.9054 44.2777 0
56.2707 43.5307 0
33.8769 49.215 0
33.7744 50.7276 0
66.5472 51.5419 0
66.6014 49.5519 0
41.8346 43.7326 0
40.7059 43.4701 0
38.4646 43.0769 0
37.146 43.6814 0
35.3484 45.3878 0
34.3263 46.666 0
66.0229 46.3896 0
65.0163 45.1175 0
63.1858 43.3649 0
61.7002 42.9162 0
58.8757 43.3302 0
57.5368 43.6466 0
33.3841 51.9498 0
29.1491 53.5548 0
40.8429 30.8478 0
50.8847 35.8406 0
55.6629 34.1233 0
23.5396 53.2717 0
76.9361 51.7412 0
70.2546 53.162 0
66.4208 52.7827 0
65.4611 35.0073 0
30.9667 34.4273 0
19.4355 47.1141 0
26.1371 39.8676 0
71.9872 33.9498 0
72.0461 41.2166 0
77.488 45.1358 0
43.1689 44.9372 0
45.8106 44.5735 0
48.7652 44.6644 0
51.4432 45.2928 0
53.7682 45.4085 0
56.2167 45.2288 0
34.9038 49.9267 0
65.0921 50.1426 0
40.8176 44.9119 0
38.37 45.2535 0
36.0288 47.1359 0
64.1398 46.8803 0
61.6472 45.1598 0
58.8224 45.0281 0
36.0568 52.2013 0
34.9036 52.9626 0
33.4866 53.4725 0
31.881 55.2617 0
26.0612 58.7205 0
22.9664 57.1218 0
32.4147 22.5653 0
47.0402 26.5334 0
63.124 22.9021 0
19.9617 54.8291 0
80.2149 54.0948 0
75.827 55.6068 0
71.9626 55.9636 0
69.1125 55.2884 0
65.7905 53.7917 0
64.1137 53.6384 0
68.1359 28.857 0
26.7967 29.9491 0
17.2153 51.5606 0
14.5944 42.272 0
22.4212 33.922 0
84.9108 46.6832 0
84.7467 51.829 0
75.1571 37.782 0
81.2172 43.7707 0
42.4578 46.2676 0
41.4174 46.0758 0
44.9665 46.1132 0
43.6804 46.0301 0
47.7368 46.0544 0
46.3863 45.987 0
50.62 46.3676 0
49.2723 46.2716 0
53.0504 46.7626 0
51.763 46.7789 0
55.5125 46.3749 0
54.2327 46.467 0
58.0605 46.3284 0
56.7792 46.4908 0
36.3711 48.4579 0
36.0222 49.4587 0
35.9196 50.972 0
63.3959 51.906 0
63.8371 50.893 0
63.8915 48.902 0
63.8387 47.9997 0
40.2884 45.8129 0
39.3726 45.9921 0
38.0533 46.596 0
37.3937 47.1795 0
62.8319 46.7273 0
62.0157 46.4034 0
60.5294 45.9554 0
59.4 46.0117 0
38.0481 52.4055 0
36.159 53.7249 0
34.0484 56.5819 0
29.5619 59.6422 0
22.8297 61.1781 0
21.7509 15.3263 0
39.9751 16.0753 0
48.9017 11.3501 0
56.9356 16.8015 0
76.6306 15.557 0
15.5969 56.868 0
84.5629 57.3023 0
73.4485 59.3022 0
66.5429 55.45 0
62.4716 53.4118 0
82.9412 7.79969 0
79.7239 22.4998 0
16.306 7.88285 0
18.364 22.2212 0
10.6976 46.5733 0
16.5961 35.8535 0
15.5502 30.276 0
89.4347 49.4449 0
83.2835 31.1159 0
81.5681 39.1398 0
41.9287 47.169 0
44.2559 47.4437 0
46.8931 47.5942 0
49.5918 47.7577 0
52.2273 47.8375 0
54.7947 47.7292 0
57.3564 47.4748 0
37.3873 49.5032 0
37.9111 51.1754 0
62.195 50.6654 0
62.5832 48.7496 0
39.9722 47.1564 0
38.3963 47.9188 0
38.5101 48.6886 0
61.7665 48.3865 0
61.714 47.5234 0
59.7679 47.2563 0
38.8816 50.9377 0
61.3556 50.8713 0
39.1846 52.7184 0
38.4487 53.2765 0
38.1536 54.3848 0
37.0005 55.1456 0
36.4914 56.9174 0
34.8389 58.4358 0
33.3263 60.2891 0
30.7039 62.3928 0
27.9379 64.5376 0
27.1786 7.73642 0
38.6597 8.21544 0
59.8733 8.43651 0
71.7578 7.80988 0
19.1824 64.4806 0
14.8877 62.7403 0
10.6913 59.9472 0
6.2468 56.8982 0
5.96428 50.9687 0
94.2712 52.0644 0
93.3627 57.1171 0
89.3819 60.466 0
84.6321 62.9844 0
79.5266 64.6643 0
74.6246 63.7072 0
70.3125 62.4354 0
66.8712 60.99 0
65.2492 58.3225 0
62.7448 57.0022 0
62.0975 55.4749 0
61.8022 54.3666 0
61.0844 52.6338 0
93.504 14.5084 0
89.7937 20.65 0
86.0941 24.965 0
6.24229 14.5021 0
13.0228 24.4357 0
9.79074 20.6414 0
5.73669 45.4052 0
5.64378 40.4659 0
12.3194 34.5783 0
94.2557 46.9497 0
88.1134 36.9126 0
93.374 42.2287 0
41.092 47.9344 0
40.4309 47.8079 0
42.133 48.1262 0
43.4642 48.325 0
42.7973 48.2346 0
44.7508 48.4081 0
46.0904 48.5348 0
45.4198 48.4805 0
47.4413 48.6023 0
48.7857 48.6566 0
48.1131 48.6385 0
50.1337 48.7527 0
51.4791 48.7345 0
50.8065 48.7526 0
52.7667 48.7182 0
54.1091 48.6275 0
53.4385 48.6819 0
55.3892 48.5354 0
56.7251 48.3725 0
56.0582 48.463 0
58.007 48.2101 0
59.3325 47.9752 0
58.6713 48.1016 0
39.3657 51.3908 0
39.3132 51.9362 0
60.9558 51.8515 0
60.9033 51.3062 0
38.0086 50.2661 0
39.1315 49.4517 0
61.7967 49.8577 0
61.8195 49.2893 0
60.9799 49.4949 0
39.5145 47.9868 0
39.1702 48.1052 0
60.9498 48.0629 0
60.4626 47.9186 0
39.4633 50.4812 0
60.5051 50.4984 0
39.4866 49.8414 0
39.482 50.103 0
60.4864 50.1203 0
60.4818 49.8587 0
39.639 49.2649 0
39.6284 48.757 0
39.6369 49.0109 0
60.5044 49.2899 0
60.5065 49.0359 0
60.5151 48.7821 0
61.0026 48.9263 0
39.2839 48.8753 0
60.9573 50.0635 0
38.9792 50.0281 0
60.8977 47.1995 0
39.056 47.3351 0
62.6363 49.6522 0
37.038 50.5043 0
61.7539 51.679 0
38.7839 51.8472 0
58.6381 47.3123 0
56.0748 47.6371 0
53.5148 47.8212 0
50.9398 47.8538 0
48.2438 47.6617 0
45.5423 47.5267 0
42.9694 47.3606 0
40.8881 46.9771 0
89.1701 44.607 0
10.9176 40.7433 0
13.2803 16.119 0
85.8802 16.3238 0
63.1896 55.1444 0
68.9482 58.3014 0
78.9833 59.681 0
89.3275 54.7224 0
11.7383 52.6744 0
19.1941 59.5054 0
66.6983 15.6376 0
30.7739 15.3654 0
26.3148 61.9568 0
32.1332 57.8187 0
35.0057 54.4859 0
37.3122 52.9638 0
62.5305 47.8471 0
37.7363 48.5021 0
75.9209 28.5589 0
20.5334 28.4717 0
47.9169 19.1528 0
60.1615 44.7112 0
63.1336 45.6077 0
37.0507 45.8572 0
39.6888 44.649 0
65.1469 48.1523 0
65.0382 52.1334 0
34.8011 51.4397 0
35.006 48.4139 0
57.4831 45.3446 0
54.9503 45.1128 0
52.5861 45.7041 0
50.3004 44.8815 0
47.2301 44.4473 0
44.3911 44.6997 0
41.9465 45.1746 0
74.3412 42.5436 0
80.2789 48.7132 0
17.9931 43.1785 0
21.2949 50.6235 0
34.4564 29.5731 0
59.9756 30.1204 0
67.8034 53.4319 0
73.4184 52.8632 0
54.459 38.6212 0
46.5117 32.7791 0
26.2118 55.2301 0
31.9669 52.4599 0
69.7529 39.888 0
30.9883 40.2577 0
57.5905 41.9487 0
63.2386 41.1224 0
66.8991 44.6278 0
33.6461 44.9187 0
37.2407 41.5057 0
41.7226 42.2908 0
68.0564 50.951 0
32.7476 50.016 0
53.2245 42.8513 0
49.6362 40.7766 0
74.2927 46.528 0
25.7288 42.9977 0
71.9708 47.9964 0
26.5425 48.0168 0
69.0668 47.9763 0
32.1432 47.8267 0
71.0631 45.0219 0
29.6287 46.0302 0
29.8187 49.9409 0
88.1404 34.2634 0
96.89 38.811 0
91.2932 35.6001 0
92.2313 38.4547 0
96.0825 37.6509 0
88.5016 40.6372 0
3.11016 38.8113 0
11.8915 33.0429 0
10.0138 34.89 0
3.91779 37.6512 0
8.31909 37.3774 0
11.6968 36.9064 0
11.4062 22.5398 0
10.9985 26.3854 0
9.38218 24.4931 0
11.8834 28.8548 0
4.15018 19.8768 0
5.35449 22.3957 0
8.24329 22.7372 0
11.5345 18.3785 0
13.1496 20.2783 0
8.01522 17.5747 0
6.96924 20.26 0
5.19446 17.1873 0
6.70053 24.8392 0
7.80259 26.6204 0
4.21225 14.5753 0
9.75979 15.3125 0
87.9444 22.8085 0
90.4102 24.4964 0
88.5601 26.6477 0
91.5491 22.7409 0
95.85 19.8765 0
94.6456 22.3953 0
87.6971 29.1656 0
85.9892 20.6454 0
87.8379 18.4852 0
91.6502 17.5823 0
94.6789 17.19 0
92.8233 20.2641 0
95.6611 14.5783 0
93.2995 24.8387 0
92.1975 26.6198 0
89.6938 15.4183 0
65.8167 8.10972 0
62.3365 4.07448 0
68.2851 3.758 0
54.9438 4.04689 0
79.5536 0 0
84.6652 0 0
75.6553 3.88282 0
69.2263 11.7197 0
63.2853 12.0365 0
32.9183 7.962 0
31.183 3.71983 0
36.9289 3.96524 0
23.8131 3.8503 0
20.4464 0 0
27.7848 -0.202387 0
44.3214 3.93457 0
34.7182 11.79 0
28.9774 11.5482 0
81.6404 34.9646 0
85.4111 34.4602 0
85.0484 38.0301 0
86.2703 31.5248 0
85.0313 42.0957 0
77.2767 33.9012 0
80.0138 31.0863 0
16.0812 32.7859 0
14.1188 35.1829 0
13.9382 32.7374 0
14.1646 38.3962 0
13.554 30.9398 0
17.6378 29.9251 0
18.767 32.8836 0
16.5409 27.2542 0
14.124 28.2143 0
15.6933 23.3266 0
15.822 19.1693 0
19.4508 25.3439 0
81.5988 27.1851 0
82.9088 23.731 0
84.8339 28.597 0
82.8013 19.4096 0
77.8196 25.5262 0
79.7845 11.6749 0
74.19 11.6917 0
77.3417 7.81745 0
71.6603 15.5949 0
81.2507 3.89494 0
84.4118 12.0602 0
81.2538 15.9417 0
52.92 14.0734 0
54.3857 9.88682 0
58.402 12.6183 0
49.4499 5.50888 0
61.8161 16.2143 0
52.4256 17.9738 0
48.4093 15.2518 0
44.4373 13.7098 0
39.3195 12.1453 0
43.7825 9.77683 0
35.3756 15.7154 0
43.9469 17.611 0
19.0288 11.603 0
21.7483 7.8245 0
24.4685 11.5401 0
18.3731 3.93613 0
26.2662 15.3451 0
17.5163 15.7237 0
14.792 11.9993 0
74.6318 33.9255 0
78.7508 37.3316 0
78.0947 40.915 0
74.749 40.1624 0
21.4799 31.1957 0
19.3815 36.605 0
17.0711 39.4118 0
19.745 40.2162 0
73.9527 31.2528 0
73.5711 35.8666 0
72.455 38.8344 0
70.8696 36.9178 0
68.7237 34.4779 0
66.7978 31.9309 0
70.0603 31.4046 0
62.7173 32.5645 0
64.055 29.4872 0
72.0276 28.7081 0
67.6056 37.4488 0
32.7124 32.0009 0
35.2465 32.5969 0
33.5013 35.0243 0
33.5135 37.9412 0
36.6384 38.5634 0
30.9782 37.3423 0
59.8651 33.1546 0
62.6081 35.5979 0
64.3497 38.0639 0
61.4961 38.6565 0
57.8192 32.121 0
57.7088 35.1565 0
57.1074 37.405 0
55.0609 36.3721 0
46.6687 35.1526 0
48.698 34.3095 0
48.8554 36.6835 0
50.2606 38.3085 0
52.6715 37.2308 0
48.2307 39.1514 0
38.9099 36.3719 0
38.4401 33.2355 0
41.3136 33.9846 0
37.65 30.2096 0
43.6773 31.8129 0
44.1485 34.9508 0
39.5134 39.3147 0
44.3048 37.3243 0
46.0684 39.3208 0
43.5168 41.7031 0
47.4735 40.9459 0
43.5471 39.1184 0
41.7535 39.7063 0
90.871 3.84759 0
87.4514 7.7517 0
86.3698 3.90972 0
88.9238 12.0161 0
89.7768 0 0
94.8884 0 0
95.9862 3.85225 0
96.495 10.9615 0
92.7332 11.1009 0
95.7185 7.55153 0
91.0201 28.3485 0
90.4019 29.1913 0
4.10229 7.5625 0
6.96055 11.1089 0
3.37829 10.9582 0
10.4774 11.9242 0
8.98008 28.3494 0
9.59812 29.1925 0
3.83461 3.86291 0
13.2544 3.95003 0
11.993 7.80377 0
8.94981 3.8584 0
35.1843 -0.281316 0
42.592 -0.318908 0
58.9599 23.3817 0
55.8656 20.3335 0
60.0293 19.8522 0
51.3572 21.5082 0
64.9101 19.2681 0
61.549 26.5103 0
57.3856 26.9938 0
67.5173 22.6315 0
70.0234 25.6087 0
65.629 25.8812 0
73.9171 25.4636 0
69.3052 19.0044 0
78.1782 19.0297 0
75.8171 22.4319 0
74.2703 18.9562 0
23.3548 18.8323 0
21.6616 22.2825 0
20.0563 18.7748 0
22.7445 25.4103 0
27.8659 18.8597 0
29.6068 26.2599 0
25.8787 26.1452 0
28.687 22.4545 0
23.6657 29.2101 0
31.595 18.9646 0
33.4366 26.0684 0
30.6273 29.7609 0
40.5943 27.4471 0
43.6927 25.2882 0
43.9422 28.6909 0
44.1309 21.5986 0
47.4788 22.8436 0
46.7761 29.6566 0
37.4014 26.8107 0
36.1959 19.3214 0
40.1608 20.0609 0
36.3806 23.3032 0
26.6722 33.3429 0
24.4825 35.3289 0
24.6102 31.9368 0
22.6005 38.8807 0
28.8823 32.1867 0
28.756 35.5828 0
28.7659 38.4964 0
51.8504 32.8769 0
54.239 32.0185 0
53.2739 34.9817 0
56.3954 30.0162 0
49.664 31.3459 0
50.9186 25.1981 0
53.8062 26.8898 0
49.9277 28.2231 0
6.56232 36.9637 0
6.98091 38.9199 0
5.22351 38.5098 0
9.61705 39.0624 0
8.27946 40.6046 0
4.37661 39.6385 0
4.80618 36.5521 0
5.77135 35.5199 0
7.56187 35.9699 0
10.8543 35.9001 0
10.007 37.1419 0
9.1657 36.1319 0
11.3063 38.8234 0
8.41045 34.7229 0
11.1656 34.7351 0
12.0074 35.7412 0
11.7212 30.2314 0
10.2345 30.0192 0
11.0571 29.4333 0
12.4516 26.6457 0
10.4305 28.6014 0
10.8876 30.8246 0
89.7656 30.0179 0
88.0684 30.3848 0
88.7335 29.5872 0
89.3601 28.7558 0
86.8971 27.0658 0
89.1134 30.8233 0
85.8399 32.992 0
87.2009 32.8994 0
86.7751 34.3656 0
87.3545 31.5616 0
88.2918 32.9262 0
88.1275 35.587 0
86.7623 35.6884 0
84.3437 32.7903 0
84.7773 31.3209 0
86.7757 39.3341 0
86.7666 41.3679 0
85.0406 40.0619 0
88.8364 42.6212 0
87.1014 43.3513 0
83.2997 40.6188 0
83.308 38.5859 0
86.5809 37.4736 0
88.3083 38.7738 0
79.458 34.4337 0
78.6448 32.4932 0
80.8249 33.0261 0
76.5971 31.2302 0
77.9672 29.8233 0
81.6488 31.1013 0
82.4605 33.0397 0
81.6043 37.0519 0
80.1959 36.1477 0
14.1409 36.7886 0
12.9305 37.6528 0
12.9075 36.0458 0
12.5403 39.5698 0
13.2192 34.8819 0
15.3577 35.5189 0
15.3807 37.1261 0
12.916 32.8933 0
12.7291 31.9966 0
13.7479 31.8384 0
11.7262 32.3182 0
12.5584 31.27 0
14.5519 30.6083 0
14.7469 31.5079 0
13.1301 33.6604 0
12.1051 33.81 0
16.8613 31.3561 0
18.2037 31.4039 0
17.424 32.835 0
19.0854 29.1988 0
19.6521 30.678 0
17.6832 34.3698 0
16.3391 34.3196 0
15.8176 31.5307 0
16.5939 30.1008 0
13.8395 29.5775 0
12.7212 29.8929 0
13.0039 28.532 0
13.5729 26.3252 0
14.8387 29.2437 0
16.046 28.7653 0
17.0906 28.5889 0
18.5382 27.862 0
17.4517 24.7383 0
86.2649 28.8785 0
86.9793 30.3409 0
85.551 30.0616 0
84.0567 29.8552 0
85.4639 26.7802 0
82.44 29.1508 0
80.8041 29.1347 0
80.6618 24.8428 0
78.7587 27.8711 0
80.1589 38.2365 0
79.8314 40.0274 0
78.4228 39.123 0
76.6252 39.3493 0
76.2179 41.7291 0
76.9538 37.5569 0
15.6179 38.9049 0
15.8325 40.8422 0
14.3789 40.3333 0
17.5317 41.2945 0
16.2939 42.7261 0
12.7558 41.5092 0
16.8331 37.6321 0
19.5631 38.4103 0
18.4081 39.8143 0
18.2268 38.0093 0
18.869 41.6975 0
17.9889 36.2295 0
20.9025 35.2644 0
20.9908 37.7425 0
20.6958 41.6604 0
21.1731 39.549 0
24.5729 37.8098 0
22.5117 36.4012 0
19.8203 43.1426 0
22.1239 40.9931 0
24.1644 40.9383 0
23.6882 43.0519 0
79.6557 42.3436 0
79.3524 44.4535 0
77.7916 43.0249 0
80.7483 46.2411 0
78.8835 46.9247 0
75.9142 43.8403 0
81.3932 41.4545 0
90.3676 39.548 0
92.8033 40.3411 0
90.9388 41.4319 0
94.5609 38.6305 0
95.1332 40.5203 0
91.2729 43.4191 0
90.1736 37.6824 0
93.2437 36.0727 0
93.7134 37.5032 0
91.763 37.0269 0
95.194 36.5519 0
89.7049 36.2589 0
92.2431 35.0796 0
94.2291 35.5195 0
89.5359 33.5774 0
91.1111 34.2414 0
89.7181 34.9297 0
93.1921 34.5598 0
92.0881 33.6784 0
93.8154 44.5887 0
96.3063 43.0793 0
96.7474 45.4425 0
90.9222 32.8814 0
89.705 32.1803 0
97.1542 48.2297 0
91.7137 45.777 0
10.4811 32.9619 0
10.9508 33.9625 0
9.5426 33.8877 0
6.80797 34.5602 0
7.91199 33.6786 0
5.6892 42.9357 0
3.24911 44.6698 0
3.2026 42.1982 0
2.84187 47.4569 0
9.07694 32.8814 0
10.2962 32.1798 0
8.3257 43.0705 0
66.0602 59.6562 0
65.2075 60.9526 0
64.3965 59.6188 0
65.9481 61.8983 0
60.1577 52.0244 0
60.0978 51.4797 0
63.7747 58.5912 0
67.0986 58.3117 0
67.9095 59.6453 0
68.5919 61.7126 0
68.9284 63.8168 0
67.208 63.0943 0
70.3762 64.7771 0
60.0529 50.9336 0
60.0306 50.5556 0
69.6304 60.3682 0
77.0757 64.1855 0
77.3204 66.8066 0
74.87 66.3283 0
79.8129 67.1125 0
60.0155 50.1772 0
60.0093 49.9156 0
72.5318 65.4127 0
76.8034 61.6934 0
79.255 62.1721 0
82.0792 63.8241 0
84.9524 65.9233 0
82.4003 66.7631 0
87.362 64.9177 0
94.2251 63.666 0
92.2621 65.3949 0
81.8082 61.3322 0
91.3722 58.7916 0
93.7942 60.3907 0
91.8041 62.0649 0
95.3792 58.3167 0
90.0905 66.8531 0
87.7473 68.016 0
89.7363 63.6587 0
89.3548 57.5935 0
91.3455 55.919 0
93.8171 54.5906 0
96.8275 53.3763 0
96.3731 55.9037 0
97.1619 50.7889 0
85.2726 68.8637 0
82.7086 69.382 0
91.7996 53.3936 0
6.10529 53.933 0
3.43174 55.7944 0
3.29007 52.8281 0
4.42564 58.2075 0
5.77487 63.6664 0
4.05407 61.6962 0
2.95592 50.2408 0
8.85085 51.8218 0
8.99165 54.7846 0
8.46909 58.4227 0
8.23246 61.8056 0
6.01064 60.2815 0
10.3002 63.3994 0
2.60514 59.5185 0
1.45281 57.1702 0
11.2144 56.3094 0
17.0352 63.6103 0
16.9543 66.6717 0
14.8075 65.8015 0
19.5418 67.021 0
0.617243 54.6916 0
0.112825 52.125 0
12.3979 64.7959 0
17.0405 61.1224 0
19.1882 61.9924 0
29.3208 63.4651 0
31.5797 63.796 0
30.1968 64.8683 0
32.8395 62.5999 0
34.9748 62.8078 0
33.767 64.0586 0
28.7491 65.8287 0
27.1265 63.2469 0
28.5095 62.1745 0
34.0826 59.3625 0
35.6476 59.6759 0
34.8913 60.6026 0
36.2694 58.6484 0
32.4552 65.1999 0
31.0493 66.223 0
34.1507 61.5482 0
32.7298 59.0537 0
33.4862 58.1271 0
29.5601 67.1203 0
37.0956 57.8892 0
37.4511 57.139 0
37.7431 56.3619 0
35.7487 55.7014 0
27.2799 68.1828 0
83.5255 34.7134 0
85.2307 36.2443 0
83.3429 36.4999 0
91.8536 50.7535 0
91.8456 48.198 0
94.2638 49.5068 0
89.3028 47.0252 0
89.3813 52.083 0
15.1019 33.9864 0
14.0284 33.96 0
15.0097 32.762 0
8.33004 48.769 0
5.84994 48.1868 0
8.21651 45.9896 0
10.8068 43.6571 0
11.2177 49.6233 0
15.3325 27.734 0
14.7829 25.8425 0
83.2165 27.8912 0
83.8444 26.0718 0
67.7456 56.8758 0
65.8959 56.8859 0
64.2193 56.7335 0
64.8661 55.297 0
74.0366 61.5043 0
72.4686 63.0711 0
71.8802 60.8682 0
71.1983 58.8017 0
76.2158 59.4915 0
86.9729 58.8834 0
87.0068 61.7251 0
84.5975 60.1426 0
81.7728 58.4916 0
86.9451 56.0125 0
15.2421 59.8032 0
12.7897 61.3436 0
13.1435 58.4069 0
13.6678 54.7712 0
17.3957 58.1866 0
31.4443 59.9654 0
32.015 61.3409 0
30.133 61.0173 0
27.9382 60.7995 0
30.8475 58.7305 0
35.27 56.7495 0
35.6652 57.6766 0
34.4437 57.5087 0
33.0908 57.2003 0
34.5271 55.5339 0
78.0129 35.6169 0
76.2168 35.841 0
84.829 49.2553 0
87.1734 48.0637 0
87.0907 50.6375 0
87.0406 45.6462 0
87.0377 53.2751 0
82.5132 50.2711 0
82.5947 47.6988 0
19.0749 34.7441 0
20.594 33.4026 0
69.0303 56.7947 0
67.8276 55.3691 0
67.1731 54.4408 0
68.4579 54.3602 0
73.8947 55.7852 0
74.6375 57.454 0
72.7056 57.6328 0
77.4054 57.6437 0
70.4552 57.1321 0
72.6903 54.4131 0
74.6227 54.235 0
82.4806 52.9621 0
84.6549 54.5649 0
82.3893 55.6982 0
79.599 56.8871 0
80.2471 51.4031 0
18.5887 53.1947 0
17.779 55.8484 0
16.4058 54.2134 0
19.5778 57.1667 0
14.4764 52.1176 0
19.2551 51.0924 0
20.6282 52.7259 0
24.514 57.921 0
24.4453 59.9492 0
22.898 59.1496 0
26.188 60.3384 0
24.5724 61.5673 0
21.0121 60.3416 0
21.0801 58.3135 0
24.5891 56.176 0
26.1366 56.975 0
32.0071 56.54 0
32.9648 55.9216 0
33.4434 54.8738 0
31.924 53.8607 0
84.9715 44.3886 0
83.0642 45.2273 0
83.1241 42.934 0
71.1086 54.5628 0
70.5375 55.626 0
69.6834 54.225 0
69.0289 53.2969 0
71.8364 53.0126 0
78.5756 52.918 0
78.0208 54.8508 0
76.3815 53.6736 0
75.1771 52.3022 0
78.6073 50.227 0
23.2529 55.1964 0
21.4643 55.9753 0
21.7506 54.0505 0
22.4173 51.9474 0
24.8758 54.2507 0
78.4626 48.5458 0
77.0674 46.7565 0
75.8903 45.8319 0
75.4696 47.4531 0
22.4117 45.0505 0
21.3063 47.0558 0
20.5412 45.1098 0
22.2358 48.81 0
20.3652 48.8684 0
18.7141 45.1458 0
24.4531 44.9975 0
72.297 51.6695 0
70.7151 51.8186 0
69.616 50.7132 0
71.5732 49.2359 0
75.4423 49.0746 0
76.7914 50.0593 0
75.5871 50.7565 0
73.8282 51.3171 0
74.2654 48.1496 0
25.4388 50.9463 0
25.0651 52.5009 0
23.9132 51.7173 0
26.4012 53.4797 0
22.791 50.3935 0
25.4148 49.0902 0
26.5666 49.873 0
27.6805 54.3926 0
27.8699 52.6421 0
29.484 51.7477 0
30.5581 53.0075 0
23.7319 48.5796 0
24.8598 47.5067 0
72.7069 50.1236 0
73.1044 48.8842 0
27.6011 57.7125 0
29.3515 58.1732 0
27.8117 59.1812 0
30.6373 57.2614 0
27.6766 55.9671 0
30.5152 54.408 0
30.511 55.9832 0
29.1451 55.1295 0
23.1933 63.1106 0
21.3696 64.762 0
21.0057 62.829 0
21.7284 67.3025 0
24.9355 63.5001 0
26.411 66.744 0
24.2208 66.9971 0
25.7473 64.7904 0
24.8847 68.9512 0
22.4121 69.4135 0
14.9405 44.7458 0
12.9923 46.8981 0
12.645 44.4215 0
13.512 49.9464 0
16.6399 45.1996 0
18.3251 49.3369 0
16.2514 49.3906 0
17.3616 47.1683 0
58.4019 8.13629 0
60.0033 10.057 0
79.528 20.1915 0
77.0313 20.3788 0
69.2383 13.8804 0
67.585 15.7397 0
37.1946 13.2486 0
34.849 12.4011 0
72.2293 44.4084 0
70.393 42.7124 0
36.7172 21.9779 0
37.3152 24.3994 0
46.0454 8.11615 0
45.1594 10.4542 0
1.83215 10.4024 0
4.03857 9.2213 0
16.1373 3.98329 0
14.3579 2.24849 0
37.812 13.3181 0
37.776 10.8202 0
72.2884 1.09653 0
69.8229 1.48004 0
65.3591 24.9731 0
65.8159 22.5226 0
17.081 0.162502 0
19.0973 1.61877 0
30.7435 0.30852 0
29.0124 2.11673 0
20.1804 28.8811 0
18.0539 27.578 0
87.2201 22.8311 0
89.7004 23.2064 0
80.4414 11.833 0
79.0268 9.77781 0
53.4942 14.2614 0
52.9678 16.705 0
79.8632 20.5988 0
77.3589 20.5411 0
95.4324 2.4642 0
96.8437 4.52392 0
40.4135 38.3169 0
38.2064 39.4872 0
34.3831 26.9892 0
35.0434 29.3926 0
88.3529 30.394 0
87.7393 28.0007 0
42.4505 31.8457 0
44.3291 30.2006 0
26.0819 12.813 0
26.9155 10.46 0
40.5606 37.3925 0
42.7896 36.2662 0
65.9103 38.5651 0
67.4399 40.5404 0
21.6728 36.4453 0
24.1644 36.6448 0
87.2997 17.9569 0
88.9295 16.0805 0
31.3105 9.88862 0
28.8797 10.4779 0
60.2755 8.19852 0
61.5748 10.3357 0
62.4155 9.2769 0
60.9651 7.23893 0
18.7631 6.9536 0
18.1841 9.36538 0
63.0416 43.7178 0
62.3497 46.1169 0
84.2758 25.7657 0
83.5846 28.1454 0
47.3536 44.1639 0
49.2167 42.4986 0
30.7333 4.72041 0
33.1073 5.48923 0
37.1862 2.21251 0
36.8865 -0.267765 0
39.5127 0.451248 0
37.8453 2.31537 0
66.8457 34.4248 0
64.5896 35.4885 0
25.251 21.2687 0
23.6792 23.2072 0
89.2068 30.1409 0
86.946 29.0573 0
74.2779 10.0084 0
76.6579 9.26503 0
80.3457 12.7581 0
81.7493 14.8196 0
81.0904 16.8882 0
80.1755 19.1921 0
78.4066 10.7054 0
79.7519 12.8057 0
67.658 27.3941 0
65.164 27.2812 0
62.4216 24.8016 0
59.9947 24.2173 0
61.7129 24.6254 0
62.4828 27.0015 0
69.5038 32.7799 0
67.0187 32.5298 0
82.5773 12.4609 0
85.0233 13.0259 0
51.4572 18.0637 0
53.5352 19.4476 0
66.9782 15.9139 0
65.1561 14.1994 0
20.0347 22.3378 0
20.4874 19.8968 0
53.0609 23.9585 0
52.9528 21.4614 0
62.0708 33.8489 0
64.0355 35.3921 0
67.9341 28.1561 0
69.8986 26.6239 0
27.368 19.3031 0
25.4386 17.7305 0
43.3816 3.87923 0
43.912 1.4369 0
90.2305 10.2678 0
88.4317 8.53487 0
67.9552 36.694 0
68.6354 34.2971 0
9.51963 8.1861 0
11.9778 7.69827 0
49.9622 6.47278 0
52.337 7.25412 0
81.125 29.1151 0
83.0686 27.556 0
43.1462 19.9197 0
45.5371 20.629 0
73.0053 25.4686 0
75.2292 24.3399 0
59.3028 18.4749 0
57.0589 19.563 0
94.8366 14.8781 0
92.4152 14.2332 0
8.74576 19.4416 0
11.2081 18.9646 0
17.464 22.6959 0
15.8002 20.8483 0
16.952 36.3862 0
18.1641 34.2103 0
59.779 41.8797 0
57.5875 43.0766 0
84.6072 20.3639 0
84.6532 22.841 0
9.90285 20.052 0
7.80163 21.4166 0
16.8555 29.9688 0
15.2301 31.8534 0
46.6511 3.34883 0
48.1054 5.38229 0
57.7818 40.2938 0
55.7447 41.7371 0
67.5111 36.9862 0
69.5846 38.382 0
68.3586 7.48608 0
70.2474 5.86138 0
24.8057 8.51428 0
27.2323 9.08821 0
16.1246 15.4842 0
15.2213 17.7996 0
96.9877 4.64239 0
94.5162 5.02774 0
25.2382 33.7888 0
26.057 31.4349 0
16.8161 15.6813 0
17.944 17.8893 0
86.8949 15.6628 0
88.6048 13.8567 0
26.9865 36.3527 0
28.2601 38.4919 0
45.06 37.0142 0
42.7651 37.9987 0
25.993 33.6394 0
28.47 33.3087 0
70.5411 15.9237 0
72.5112 17.4677 0
49.8258 47.6176 0
50.9704 45.3957 0
82.762 18.329 0
81.0815 16.482 0
12.4073 5.59482 0
9.98131 4.99164 0
18.2979 2.65635 0
20.5317 1.522 0
98.907 4.26407 0
97.7131 6.44806 0
80.2911 37.3674 0
80.8798 34.9555 0
48.5359 3.54396 0
48.4426 1.04695 0
46.0834 5.21026 0
43.928 6.47848 0
61.1043 38 0
59.0184 39.3701 0
81.2028 11.0913 0
81.7884 8.68882 0
79.3131 30.4105 0
76.987 31.3104 0
52.3966 8.06575 0
50.9321 6.03987 0
25.9066 29.9302 0
23.7732 28.6412 0
94.57 17.4416 0
96.8516 16.4272 0
29.5785 32.0631 0
31.885 33.012 0
65.831 4.3521 0
65.8061 6.85087 0
53.2589 1.84804 0
51.4519 3.57717 0
14.572 9.05467 0
15.1014 6.63222 0
7.21575 18.8305 0
5.01844 17.6487 0
61.2117 40.2834 0
59.8945 42.4042 0
74.2064 7.2726 0
73.798 4.81023 0
23.5875 30.252 0
23.8282 27.7764 0
78.8025 6.8929 0
76.6437 5.61243 0
79.039 11.2789 0
81.1568 12.6195 0
7.63368 2.53126 0
5.1332 2.60282 0
76.4456 15.9412 0
74.4623 14.411 0
47.9019 9.28192 0
49.6884 11.029 0
80.0444 2.03467 0
82.5029 1.58437 0
29.1813 29.895 0
27.2279 28.349 0
70.9688 16.3299 0
71.5222 13.9063 0
4.51363 13.5585 0
6.47166 12.0017 0
40.554 0.147892 0
39.518 2.42241 0
60.4081 12.3219 0
59.8363 14.7529 0
41.2051 3.4881 0
39.1689 4.94127 0
33.6584 29.4008 0
36.1472 29.5836 0
33.1995 20.9177 0
32.9803 18.4345 0
79.5977 15.5296 0
80.1521 17.9506 0
72.6556 34.6569 0
70.5205 33.3576 0
56.7293 8.21137 0
54.3222 7.53865 0
44.537 8.8383 0
43.2083 10.9565 0
82.5684 16.4981 0
83.6826 14.2837 0
11.5875 0.312046 0
10.6901 2.63386 0
78.0126 16.1059 0
80.0456 17.567 0
59.4315 2.94929 0
60.7536 5.07169 0
72.2997 1.22441 0
72.2005 3.71958 0
66.8182 2.63348 0
68.1115 0.486917 0
13.3278 3.76099 0
15.1493 2.05406 0
71.9624 26.4935 0
74.4185 26.9558 0
16.8449 17.4647 0
15.434 19.5188 0
72.2089 38.258 0
72.132 35.7684 0
43.4838 20.7057 0
41.2227 21.7645 0
57.2559 19.1766 0
57.5212 21.6615 0
64.6771 28.7248 0
67.1583 28.4586 0
24.6633 31.8335 0
27.0686 31.155 0
50.1166 28.708 0
49.1087 30.9934 0
59.8056 37.1058 0
58.5406 34.9513 0
22.4558 29.0126 0
24.8704 28.3686 0
39.7017 35.8233 0
37.2526 36.3099 0
5.89503 10.0497 0
3.86539 11.5123 0
54.7996 20.7071 0
56.8305 22.1604 0
68.5061 19.5841 0
68.8151 17.1124 0
42.016 42.6057 0
42.7799 44.9844 0
19.0927 24.5063 0
16.9431 25.7806 0
69.2675 4.10044 0
66.9226 3.22675 0
18.733 12.7976 0
19.4356 10.4164 0
97.8443 0.547835 0
97.0334 2.89682 0
21.3127 0.595279 0
21.7827 3.00854 0
13.4375 5.96446 0
14.5764 8.16705 0
94.829 5.79703 0
95.3557 3.36899 0
58.6703 11.5305 0
59.4694 13.8996 0
26.737 39.8614 0
25.2374 41.8584 0
62.4226 18.6694 0
64.5286 17.3369 0
9.51749 7.73406 0
11.9332 7.06914 0
44.2842 18.0019 0
41.8995 18.7396 0
89.0282 10.7976 0
91.4939 10.3616 0
65.4912 41.5215 0
63.0667 40.9148 0
51.27 34.3075 0
53.679 33.6585 0
12.7449 8.56116 0
14.7377 10.0567 0
75.0471 18.3758 0
72.5519 18.1792 0
69.1596 26.3466 0
69.6137 28.798 0
19.5784 11.7714 0
21.841 12.8248 0
36.8968 39.9462 0
34.4911 39.2775 0
29.3229 28.2033 0
30.9384 30.0983 0
12.381 19.5436 0
13.5814 17.3614 0
42.038 43.0503 0
39.645 43.7695 0
34.2175 5.07244 0
33.7282 7.5247 0
94.9634 17.0375 0
93.8788 14.7915 0
53.7737 26.1811 0
54.353 28.6114 0
68.2873 36.2089 0
67.5144 38.5781 0
71.2403 36.9266 0
69.3004 38.4922 0
30.4747 15.4779 0
32.6306 16.7244 0
62.7506 7.97492 0
65.2332 8.25827 0
52.3928 17.2275 0
51.1245 19.3798 0
68.8542 3.56548 0
68.9116 6.06466 0
24.0136 7.70197 0
26.0518 9.11759 0
31.78 14.5832 0
33.4965 16.3865 0
72.4489 5.95499 0
74.721 4.96343 0
47.2244 15.1434 0
45.6838 17.1111 0
36.6671 41.7266 0
38.6992 40.2722 0
22.8192 10.397 0
24.4599 8.50571 0
22.9721 37.6525 0
25.3543 36.8884 0
79.5478 20.432 0
81.8016 21.5236 0
80.4393 16.0669 0
78.1618 15.0182 0
68.1736 34.1147 0
68.4213 36.5959 0
32.7868 26.8674 0
35.0151 27.9852 0
49.0963 3.4956 0
47.4566 5.38325 0
34.1866 40.5193 0
32.8235 42.6124 0
47.6806 12.4782 0
48.2015 14.9232 0
50.2583 18.6951 0
51.6302 16.6072 0
33.8342 30.5368 0
34.52 28.1374 0
2.34582 13.7988 0
4.83307 14.0713 0
40.0886 40.1256 0
40.8316 42.5098 0
10.1213 16.1247 0
9.50622 18.5334 0
32.9383 16.015 0
31.8962 18.2862 0
43.2515 0.852485 0
45.6708 0.203451 0
37.129 36.7304 0
39.3701 35.6272 0
81.2539 10.058 0
81.7508 7.63653 0
30.4421 3.57226 0
28.2954 4.86283 0
49.4059 1.25425 0
47.6081 2.99319 0
60.7665 31.1464 0
62.541 32.9045 0
26.1797 37.1489 0
24.5065 35.3056 0
33.9206 3.12409 0
36.4098 3.35181 0
46.8693 28.9621 0
45.8469 31.2414 0
19.4862 36.0748 0
21.2079 37.871 0
56.116 28.1591 0
58.6102 28.1952 0
92.8355 9.4483 0
95.2545 10.0977 0
22.0915 28.9428 0
24.5623 29.3063 0
48.2798 17.5992 0
50.7278 18.0796 0
28.8149 21.5921 0
27.7609 19.3399 0
88.6633 17.9883 0
91.0204 18.8445 0
85.3192 15.4767 0
82.8149 15.6079 0
59.5434 45.0921 0
60.8277 47.2366 0
89.532 2.51934 0
89.7436 4.99391 0
95.4709 9.78182 0
93.3755 8.41498 0
64.4577 41.3398 0
62.9733 43.3463 0
56.0141 25.9505 0
58.333 25.0335 0
71.0348 1.82175 0
71.0314 4.32054 0
51.4182 11.7016 0
50.5038 9.3748 0
58.3275 27.7269 0
57.6533 25.3213 0
9.31987 7.83777 0
7.7737 5.8897 0
51.6892 13.3108 0
49.2108 13.0151 0
49.7139 24.2456 0
50.1424 26.7074 0
72.5929 28.2947 0
70.1914 27.6038 0
81.2875 36.237 0
78.9755 37.1769 0
80.761 18.2217 0
81.4137 20.6176 0
63.0481 6.21356 0
60.7634 5.19741 0
49.6094 11.678 0
47.1187 11.5083 0
44.4786 28.3839 0
42.0266 28.8445 0
88.6429 7.79707 0
88.1115 10.2183 0
72.3056 6.3108 0
71.012 8.43268 0
87.697 13.8822 0
88.6421 16.1827 0
36.5661 40.7622 0
38.2856 42.5717 0
62.5596 3.51 0
63.7413 1.30792 0
39.9539 14.9932 0
40.0981 12.4982 0
19.3817 6.41366 0
21.5262 5.1122 0
36.3629 45.7305 0
38.7262 46.5448 0
34.5828 31.2244 0
32.3509 32.3468 0
58.9079 19.4385 0
60.6977 21.1825 0
78.2481 16.1349 0
75.8201 15.5079 0
15.8737 28.8468 0
17.233 26.7666 0
80.5545 1.66021 0
78.148 2.31258 0
37.6469 41.5649 0
35.1651 41.8562 0
84.0689 21.3344 0
84.5582 23.7655 0
86.5702 7.30842 0
86.2269 4.85279 0
44.7631 5.90679 0
46.562 7.64176 0
84.1564 19.6883 0
84.0211 22.1618 0
71.9513 17.4792 0
74.4358 17.2032 0
77.1078 24.9144 0
76.4979 22.5036 0
97.1591 15.261 0
94.694 14.8212 0
38.3499 23.4995 0
40.4327 22.1203 0
40.9129 1.63215 0
39.8516 3.89559 0
60.1677 22.3947 0
57.8364 21.5011 0
23.1232 0.921611 0
24.595 2.90422 0
71.9 32.1071 0
69.436 32.5064 0
44.208 38.0841 0
42.2625 39.6514 0
34.1375 4.27563 0
35.5938 6.30284 0
19.9576 15.5222 0
21.7107 17.2851 0
1.47678 8.34801 0
3.16721 10.1812 0
85.6024 24.9206 0
87.7278 23.6163 0
82.6832 14.8211 0
80.2512 14.2031 0
60.7691 3.14286 0
60.1669 5.56796 0
17.3001 24.2053 0
15.8041 22.2216 0
51.8047 38.7675 0
50.5934 36.5827 0
59.7301 46.7294 0
62.0317 45.7556 0
81.6887 19.1418 0
81.9823 21.6041 0
60.0542 14.9927 0
57.6464 14.3305 0
21.6093 24.3932 0
21.5021 26.8745 0
50.5582 36.5491 0
51.501 34.2359 0
68.8208 24.0291 0
66.7577 22.6179 0
85.3948 31.94 0
83.051 32.7865 0
10.0171 12.6922 0
7.95258 14.1075 0
90.6817 3.18008 0
88.5819 1.82285 0
85.561 8.43758 0
87.7217 7.18956 0
32.9672 40.3368 0
33.1299 42.8255 0
16.5723 0.841869 0
18.9331 1.6511 0
80.4073 27.4536 0
82.3515 25.8945 0
21.4182 11.0088 0
19.7336 9.18699 0
93.5338 17.0801 0
91.2348 16.0829 0
19.4138 35.5661 0
19.2743 33.0865 0
17.9908 35.1976 0
20.2437 34.1118 0
76.6202 12.0392 0
75.05 13.9597 0
20.8977 4.70777 0
18.5488 3.86858 0
26.3365 33.7063 0
24.1825 32.4527 0
55.3269 6.93683 0
57.4763 5.66198 0
69.3495 3.75717 0
70.4254 6.01756 0
22.421 16.9876 0
21.7252 14.6095 0
89.5011 6.14092 0
86.9967 6.12132 0
60.1598 4.12946 0
57.671 3.87648 0
86.6827 11.3156 0
84.2734 10.6167 0
80.9161 22.4772 0
82.0949 20.2938 0
69.7684 32.3693 0
68.9681 30.0067 0
42.4537 48.8144 0
40.5301 47.2181 0
30.6623 29.2872 0
31.5859 31.5997 0
19.9437 37.3968 0
20.2558 34.9303 0
64.2207 5.52119 0
62.4851 7.31528 0
91.4389 1.97052 0
90.984 4.41151 0
85.762 10.1053 0
87.2425 12.1115 0
16.1092 1.27267 0
14.0678 2.71238 0
71.9377 36.5052 0
74.3604 35.9013 0
14.8995 16.2136 0
17.3302 16.813 0
85.8405 30.7756 0
87.5299 32.5976 0
8.1186 22.0115 0
10.6203 21.867 0
49.9336 35.4526 0
52.4218 35.2659 0
9.11131 20.4977 0
10.8328 18.6847 0
62.5224 31.8185 0
60.2571 32.8617 0
37.5413 6.68335 0
39.026 4.67084 0
9.75722 9.18368 0
11.9373 7.9534 0
60.1379 25.8453 0
57.6448 25.927 0
32.8556 17.0763 0
33.8025 19.38 0
92.6303 11.4548 0
92.9578 13.919 0
50.0439 4.26402 0
52.1274 5.6472 0
21.774 11.781 0
23.2423 13.7787 0
16.4403 4.89774 0
18.7585 3.9512 0
38.9559 33.6316 0
41.0901 32.3348 0
2.03625 4.97983 0
2.94919 2.66133 0
17.4328 17.0513 0
16.4058 19.3162 0
81.4531 37.4373 0
82.47 35.1732 0
72.8974 12.463 0
74.7332 10.7908 0
66.3101 41.3013 0
63.92 42.0266 0
63.732 26.3105 0
65.7162 24.8029 0
49.8632 5.91442 0
48.325 7.88509 0
60.175 40.5726 0
62.3969 41.716 0
23.3976 10.8151 0
24.5033 13.032 0
60.0776 31.085 0
61.0237 33.3965 0
85.0458 22.3371 0
87.5524 22.2795 0
74.5636 19.7032 0
72.1365 19.0898 0
56.0452 12.2321 0
58.4854 12.7636 0
61.6852 4.09916 0
60.6432 1.82684 0
60.7161 47.3364 0
58.2179 47.435 0
50.6457 16.6509 0
50.9615 19.1308 0
26.1582 33.0704 0
27.1489 30.7821 0
43.7023 22.4384 0
41.652 21.0188 0
70.2322 18.4289 0
72.7052 18.806 0
72.559 1.44825 0
72.7253 3.94163 0
33.4269 16.925 0
35.0623 18.8034 0
55.2455 3.35642 0
57.6892 3.89377 0
62.7222 26.8203 0
60.2273 26.8406 0
59.5575 35.3329 0
59.7018 32.8403 0
41.7457 31.1737 0
39.3663 31.9281 0
65.6966 33.6749 0
63.6748 32.2073 0
41.2839 35.9922 0
39.9807 38.1237 0
73.2171 29.5995 0
72.7863 32.0503 0
50.7628 39.9878 0
51.8557 42.235 0
59.8154 9.89477 0
58.3202 7.89027 0
82.5519 19.8971 0
84.857 18.9309 0
66.2702 0.576531 0
68.7681 0.353009 0
72.7622 32.4939 0
74.6363 30.8536 0
66.5121 33.3684 0
65.2377 35.5104 0
67.802 46.0693 0
68.5223 43.6823 0
63.7135 22.8542 0
64.8109 20.6166 0
80.4269 11.2155 0
82.0362 13.125 0
31.0098 20.3083 0
30.0598 18.0085 0
25.3222 20.5602 0
26.8958 22.4864 0
53.9824 28.5228 0
56.4634 28.2676 0
85.709 28.1856 0
85.1861 25.7661 0
37.8961 1.65508 0
40.3795 1.97478 0
42.1089 29.3678 0
43.093 27.0716 0
19.9706 35.2166 0
22.4566 35.4686 0
84.4668 11.4798 0
86.9742 11.4321 0
30.5078 1.15158 0
32.9747 0.722633 0
61.9878 42.2836 0
59.8234 41.0349 0
40.0323 13.2897 0
38.041 14.8012 0
71.8974 29.003 0
70.0523 27.3192 0
60.3526 30.1131 0
59.5913 27.7344 0
6.58905 10.6405 0
5.71944 12.9744 0
33.6212 6.69559 0
32.0008 4.80003 0
57.2851 24.5831 0
59.7175 24.0332 0
61.7373 27.8769 0
59.2545 28.1176 0
12.983 2.02911 0
15.1383 3.27937 0
72.4136 4.87343 0
69.9298 4.60696 0
30.5157 6.11641 0
28.123 6.84827 0
80.7948 3.71999 0
78.2904 3.80555 0
54.3809 35.7978 0
52.3722 37.2795 0
30.6024 14.1611 0
33.0235 14.76 0
80.5777 9.14487 0
82.8686 8.15014 0
12.0309 31.4329 0
13.011 29.1719 0
46.3775 5.19249 0
48.8278 5.69362 0
2.72541 5.31192 0
5.22727 5.21304 0
10.2084 9.53204 0
11.2125 11.801 0
4.33458 17.8296 0
6.58392 16.7282 0
29.3903 8.36479 0
26.8933 8.34243 0
43.6877 1.87163 0
45.9977 2.8339 0
77.3457 2.7682 0
75.5731 4.48476 0
55.2078 26.6074 0
57.4542 27.6954 0
24.8208 19.227 0
27.008 18.0088 0
12.8143 30.7661 0
14.0595 28.6252 0
13.7572 17.794 0
15.6204 19.4445 0
31.5538 35.8975 0
33.6555 37.2403 0
85.1085 18.8753 0
85.4404 16.4209 0
54.9587 42.2197 0
56.1326 40.015 0
56.859 42.8744 0
54.3716 42.6469 0
69.3506 40.9461 0
68.4315 43.2628 0
81.6161 5.19751 0
81.1823 7.62676 0
67.296 28.6113 0
69.3866 27.2549 0
23.3924 28.1304 0
20.8992 28.3013 0
76.5558 32.9576 0
74.6615 31.33 0
40.3942 1.67735 0
41.9424 -0.28635 0
21.4845 3.45098 0
19.2754 2.31543 0
32.7297 27.8844 0
34.5336 29.603 0
39.7536 2.12562 0
37.969 3.87828 0
68.5839 6.14633 0
66.5189 7.54257 0
7.18206 2.10513 0
8.72579 0.142298 0
59.0718 33.2727 0
57.1164 31.7192 0
22.6658 35.2609 0
24.1951 37.2232 0
76.6906 24.8151 0
76.1395 22.3901 0
8.87053 16.6777 0
9.71664 19.0101 0
27.0362 16.5661 0
28.4599 14.5115 0
31.9515 36.8249 0
32.7827 34.4717 0
22.2161 34.7776 0
19.9789 33.6784 0
73.3165 36.9419 0
71.989 34.8282 0
15.0308 2.08044 0
16.9727 0.513389 0
52.2276 12.0163 0
52.0956 9.51936 0
33.829 8.63017 0
32.6887 6.41242 0
24.9762 41.6317 0
27.3685 40.8973 0
57.5726 12.3906 0
59.7938 11.2533 0
84.1783 35.0144 0
82.3699 33.2935 0
40.3992 46.9903 0
38.8889 44.9999 0
18.078 12.1083 0
20.5398 12.5683 0
92.714 8.15387 0
94.3967 6.31882 0
81.3496 32.8638 0
80.6333 30.4823 0
38.8378 14.7072 0
38.7031 17.2022 0
28.5924 11.4689 0
29.9792 13.531 0
51.9099 39.3783 0
54.3976 39.5875 0
86.5383 27.9615 0
85.8756 25.575 0
22.1634 2.31011 0
23.5677 4.33136 0
49.3544 3.04588 0
47.2329 1.71892 0
18.8677 19.6089 0
21.3528 19.9186 0
2.0926 9.01151 0
4.2774 7.79167 0
20.2607 3.57182 0
18.8558 5.62856 0
62.9383 44.2659 0
65.1592 45.4138 0
34.5017 21.066 0
36.587 19.6878 0
94.5963 1.03155 0
93.9605 3.43294 0
49.7447 42.251 0
49.359 39.782 0
58.6732 10.6694 0
56.3236 9.81884 0
36.616 10.5928 0
34.3332 11.6136 0
56.8232 43.7107 0
56.7502 46.2089 0
2.42821 12.5915 0
1.76567 10.1905 0
82.4259 4.94523 0
83.3193 2.63787 0
37.6748 47.1528 0
35.4181 46.0783 0
65.9672 39.3836 0
68.2965 40.2915 0
24.6667 33.9383 0
27.1418 34.2709 0
68.456 39.294 0
70.8564 38.6059 0
13.8338 30.4975 0
12.2104 28.6218 0
58.8601 44.2776 0
61.2944 44.8428 0
24.3306 5.57088 0
24.2013 8.05282 0
81.1146 20.8119 0
78.7307 21.5671 0
29.8806 39.5852 0
29.5155 42.0514 0
23.7218 16.9494 0
21.4609 15.8932 0
2.72878 8.21222 0
4.95555 7.06997 0
48.0286 30.7111 0
49.9852 29.1613 0
87.0484 23.0591 0
84.6606 23.8048 0
34.6707 10.8042 0
32.3379 11.7068 0
47.5603 25.8891 0
46.105 23.8608 0
67.4155 24.1704 0
65.4257 22.6581 0
58.206 30.0116 0
56.8643 32.1152 0
32.3348 34.7558 0
34.6247 35.7456 0
57.4064 36.2128 0
56.0463 34.1173 0
26.6803 3.29458 0
28.7829 1.934 0
11.1875 26.5514 0
12.7218 24.5827 0
63.5017 32.9608 0
61.9071 34.878 0
28.4991 11.3053 0
26.0518 11.8369 0
44.5057 45.6486 0
42.0076 45.7151 0
30.8528 14.3601 0
31.9825 16.5775 0
13.2042 1.8218 0
15.3318 0.510013 0
76.1185 14.9223 0
73.8593 15.9755 0
12.6715 6.5094 0
13.3204 8.90084 0
35.4806 4.82739 0
36.3474 7.16924 0
53.9927 17.5592 0
51.5373 17.9991 0
31.3201 8.39152 0
29.0163 7.44569 0
24.294 6.57496 0
21.7984 6.80804 0
48.6117 3.49967 0
51.0493 4.06565 0
32.1714 13.6805 0
32.1034 11.1867 0
1.57671 3.45317 0
4.05745 3.7758 0
62.8113 44.1565 0
60.4931 43.2225 0
42.6456 24.3329 0
40.1568 24.1722 0
48.3474 30.6457 0
50.523 31.8671 0
58.8715 35.1894 0
56.3856 35.4052 0
50.0161 46.465 0
52.0703 45.0422 0
26.9531 5.62304 0
26.3281 8.04368 0
43.5193 35.93 0
42.1023 33.8755 0
52.874 27.8408 0
50.9801 29.4658 0
60.9467 39.8455 0
62.0837 42.0703 0
46.937 23.5438 0
45.6723 21.3909 0
19.2534 2.93821 0
18.5401 0.575578 0
48.2301 41.7861 0
49.1919 39.4797 0
47.8201 39.376 0
45.3701 38.8979 0
73.2079 11.4543 0
72.6807 9.01547 0
52.5229 17.7226 0
50.7819 15.9315 0
25.015 41.6826 0
27.5006 41.3933 0
51.9676 23.9815 0
50.5565 26.0418 0
25.86 30.2182 0
28.2851 30.8061 0
5.35307 7.99264 0
2.87037 7.68106 0
20.8928 35.1325 0
18.7711 36.4561 0
31.9066 19.0815 0
34.1798 20.1036 0
30.117 19.1707 0
27.7676 18.3327 0
78.7188 17.4429 0
79.455 19.817 0
41.9228 32.0302 0
42.469 29.5929 0
44.7946 12.4342 0
45.2526 9.97594 0
44.2035 19.9725 0
46.0494 18.2893 0
36.1206 2.34905 0
35.7785 4.82403 0
94.4835 4.85238 0
95.2974 7.20697 0
41.9192 21.6837 0
40.3707 23.6451 0
57.7713 26.0541 0
55.7335 24.6112 0
62.6851 26.851 0
65.0915 27.5182 0
8.54934 15.6078 0
8.47182 18.0902 0
70.8092 30.8346 0
68.3668 30.3093 0
45.8855 35.5703 0
46.1317 33.0844 0
87.0792 2.73799 0
88.7716 4.5722 0
22.5225 38.379 0
22.8875 40.8385 0
66.2378 43.0352 0
64.2049 41.5807 0
77.3353 11.9059 0
77.8711 14.332 0
50.845 46.8853 0
49.1603 48.7319 0
14.9013 13.344 0
15.4066 10.9158 0
75.6013 18.8698 0
75.3903 21.3443 0
59.0473 45.4727 0
61.0999 46.8997 0
83.7415 9.41576 0
86.1927 8.90373 0
6.96287 1.79786 0
4.46332 1.89169 0
80.7315 18.8983 0
82.5385 17.1882 0
13.604 0.198681 0
11.1062 0.105201 0
14.9286 32.0445 0
17.3055 31.2817 0
14.2038 12.8067 0
15.5775 14.873 0
66.7285 0.837448 0
64.2593 1.26037 0
72.2417 24.3507 0
71.2852 26.6476 0
52.0173 31.2999 0
50.0645 29.7458 0
29.3349 29.0535 0
28.0686 26.911 0
76.0428 25.2547 0
76.2791 22.7816 0
88.1045 17.1894 0
90.3472 18.3093 0
56.5875 8.92249 0
54.2985 9.92156 0
30.6071 42.1768 0
32.0904 44.1815 0
49.5613 38.1176 0
50.1525 35.69 0
33.5895 30.5094 0
35.8227 31.6183 0
51.2939 20.0511 0
50.162 22.2784 0
48.0092 20.0571 0
46.7647 17.8913 0
56.3052 36.603 0
54.2153 37.9672 0
27.9397 27.8958 0
28.5196 30.3158 0
32.5836 34.3442 0
33.2148 36.7555 0
91.7465 14.6758 0
93.5799 16.3765 0
6.68096 6.15256 0
6.35487 8.61836 0
30.6038 35.663 0
31.2741 33.2602 0
65.1928 34.7662 0
64.2597 37.0786 0
70.9012 2.12943 0
72.5019 0.221889 0
72.1887 24.9487 0
72.6679 22.5079 0
12.9596 14.5783 0
14.9634 16.0602 0
48.3604 3.31564 0
50.7929 3.90362 0
17.3666 5.838 0
17.5675 8.30082 0
6.48 18.5437 0
3.99138 18.2902 0
31.8498 33.7734 0
32.0304 36.2595 0
59.3161 32.7397 0
59.0204 35.2188 0
80.569 24.3514 0
80.9508 26.8037 0
96.0418 18.3664 0
96.4593 15.9122 0
81.6369 13.1017 0
84.1084 12.691 0
31.4254 34.3007 0
30.3483 32.0551 0
95.0669 8.63342 0
94.1953 10.9618 0
92.6788 17.8588 0
94.8996 16.7199 0
25.3313 37.7777 0
25.044 35.3064 0
11.1273 27.1036 0
12.9424 28.7945 0
25.2159 17.0103 0
22.7537 17.4766 0
33.0641 22.1346 0
35.5531 22.3158 0
75.0805 22.9558 0
72.5808 22.9936 0
50.0606 27.4587 0
49.6802 29.928 0
20.9979 18.5989 0
20.4866 21.0291 0
93.0804 7.21066 0
92.2571 9.55421 0
49.1253 47.9841 0
47.6826 45.9434 0
60.2938 38.9306 0
62.1705 37.2861 0
68.4933 12.5124 0
66.4368 11.0855 0
74.7463 11.4155 0
72.5763 12.6335 0
59.6071 41.7662 0
61.2428 43.6558 0
83.0183 11.9848 0
83.7016 9.60729 0
12.3089 9.7345 0
11.2245 7.50294 0
46.2381 42.9048 0
44.236 41.4123 0
78.0936 4.16229 0
75.6288 4.56215 0
79.2312 34.4977 0
79.6897 32.0562 0
50.3181 26.1779 0
47.858 25.7693 0
15.9012 14.8808 0
18.379 14.4844 0
24.6491 1.77963 0
27.1294 1.95558 0
21.7868 5.88803 0
23.7442 4.31898 0
38.4514 26.6401 0
36.0098 27.1603 0
39.6061 37.8245 0
37.1137 37.6799 0
20.455 23.1666 0
19.0543 21.1144 0
55.8206 8.54759 0
53.543 9.57338 0
30.8059 38.6032 0
33.253 38.0943 0
56.7791 41.652 0
59.2481 41.2793 0
59.0518 12.2748 0
61.5003 11.7926 0
84.7903 1.94112 0
82.4319 2.75964 0
54.6831 35.5827 0
52.9157 37.3457 0
27.9131 39.2358 0
30.4079 39.0716 0
56.9065 32.4673 0
56.6185 29.9863 0
77.6044 21.179 0
75.721 22.8084 0
36.6891 36.425 0
36.0517 38.8391 0
70.6549 32.2688 0
68.1895 32.6585 0
48.9438 32.2945 0
50.282 30.1861 0
64.3694 19.264 0
65.3756 21.5511 0
36.9298 30.4397 0
39.4247 30.4834 0
52.1011 2.91052 0
54.2102 4.25591 0
16.1266 26.846 0
13.9155 25.6863 0
28.8372 37.5389 0
26.3679 37.933 0
66.3003 34.6844 0
64.7111 32.757 0
86.8453 13.7262 0
85.7545 15.9523 0
79.8938 37.3331 0
77.5938 38.3031 0
1.07012 9.63408 0
2.75743 11.4704 0
22.3166 6.97478 0
19.8253 6.72831 0
28.028 24.0712 0
25.5537 23.7258 0
48.7817 5.34417 0
46.4104 4.54852 0
39.4155 8.26127 0
37.1213 7.27677 0
13.1966 16.1337 0
11.7601 14.1081 0
35.2057 37.7442 0
33.3903 39.4612 0
76.1275 7.95007 0
78.1978 6.57397 0
38.8933 43.7324 0
38.0812 41.3712 0
46.1946 9.37976 0
48.2304 7.92982 0
39.9078 30.8493 0
37.487 31.4588 0
37.3329 29.0928 0
36.6661 31.4985 0
36.7237 26.8282 0
34.2509 27.1724 0
30.6676 4.40208 0
33.0167 5.24379 0
71.8254 31.8242 0
74.0004 30.6062 0
24.173 12.3185 0
26.5639 11.5641 0
33.2214 43.5512 0
35.5094 42.543 0
26.0961 22.3834 0
24.0753 23.8542 0
5.63057 2.5585 0
6.55612 0.243949 0
94.3946 5.88161 0
96.8057 6.55857 0
53.4068 18.8335 0
51.7025 17.0071 0
53.804 45.3224 0
52.3225 47.3348 0
94.7377 5.22707 0
93.3327 3.16407 0
30.2425 21.0613 0
27.7959 20.5638 0
57.5044 2.04692 0
58.1145 4.47075 0
94.6193 11.4608 0
92.9775 9.57873 0
43.7258 7.11449 0
46.1876 6.67947 0
49.3932 42.2608 0
47.4353 43.8131 0
42.428 27.2074 0
44.8374 26.559 0
24.2586 22.5381 0
21.7845 22.1727 0
69.9837 34.0572 0
70.1507 31.5719 0
18.385 13.4568 0
20.6081 14.5906 0
9.40881 28.6819 0
11.6926 27.6429 0
62.0238 24.4129 0
60.7935 22.238 0
81.7249 25.0742 0
79.2231 25.0021 0
22.8433 29.1823 0
20.7239 30.5029 0
14.2438 29.5357 0
14.3566 32.0083 0
12.6281 12.9773 0
13.6597 15.2314 0
67.3599 22.7072 0
67.8068 20.2565 0
79.3198 21.7716 0
81.7323 22.4478 0
15.2696 21.6263 0
14.2006 23.8709 0
21.2588 13.5197 0
18.9048 12.679 0
44.9073 44.912 0
42.4114 44.7974 0
62.2305 37.9697 0
60.8127 35.9127 0
59.6102 47.1674 0
61.9409 46.2643 0
39.9771 37.6969 0
42.4729 37.6476 0
55.7248 30.193 0
53.3871 29.3203 0
67.6188 40.6693 0
65.1327 40.9196 0
71.0755 5.60717 0
73.5681 5.66316 0
80.9147 3.27528 0
80.8437 0.807411 0
59.6885 7.01416 0
57.9466 8.8041 0
32.38 19.4612 0
31.5777 21.8251 0
43.9533 32.3869 0
44.0648 34.882 0
97.8164 14.116 0
97.9688 11.6291 0
74.1056 18.4999 0
72.1545 16.9326 0
77.0651 31.47 0
76.3544 33.8524 0
55.9599 48.5658 0
56.3196 46.0924 0
40.1759 1.14912 0
37.7585 1.80201 0
72.0347 19.9967 0
74.5105 19.6548 0
41.8364 44.6186 0
44.3153 44.9294 0
87.0947 2.74523 0
86.5229 5.1567 0
19.3779 21.9029 0
18.9337 19.4646 0
17.53 36.212 0
16.2964 34.0592 0
26.0781 37.9565 0
24.1938 39.599 0
61.6705 6.25783 0
59.7001 4.71768 0
39.7348 30.0268 0
40.0502 32.5026 0
63.2624 5.48189 0
60.792 5.85861 0
60.5816 6.60811 0
61.4335 4.25929 0
79.3131 36.8575 0
76.8771 37.4123 0
46.8265 23.3399 0
47.7833 21.0311 0
81.9577 12.3139 0
79.4766 12.6595 0
17.6957 12.9435 0
18.5138 15.2812 0
48.2096 40.5631 0
46.3966 42.2824 0
65.3681 19.7514 0
64.1406 17.5737 0
42.9279 39.9746 0
41.751 42.1794 0
54.5047 16.9137 0
53.4331 19.1702 0
22.9244 29.3279 0
25.3146 28.5989 0
23.2441 14.8883 0
20.8017 14.3464 0
92.337 7.78714 0
90.8176 9.75606 0
32.1476 32.0235 0
33.6128 30.0012 0
68.7161 28.5077 0
68.9512 30.9892 0
97.6776 2.41351 0
96.1919 4.40658 0
67.356 14.9717 0
69.8174 14.5621 0
78.3472 23.2998 0
78.8077 20.8617 0
37.5755 15.9878 0
35.1962 15.2411 0
68.9062 9.28995 0
69.4619 6.85867 0
32.9489 20.2042 0
34.294 18.0974 0
33.2817 31.5915 0
34.9311 29.7158 0
87.8877 25.937 0
89.8614 27.4796 0
84.2635 23.6204 0
86.6884 24.2576 0
38.521 11.1737 0
36.0942 11.7679 0
65.6815 40.3146 0
63.5118 39.0742 0
37.704 1.54909 0
35.5288 2.7847 0
75.473 39.8831 0
75.9021 42.3361 0
67.3502 2.17328 0
67.1283 4.66249 0
71.9808 15.1653 0
70.137 13.4716 0
63.3649 31.8668 0
65.8564 32.0232 0
39.5843 3.1525 0
38.8501 5.54222 0
46.2267 18.6747 0
47.7939 16.7287 0
37.5196 38.7017 0
36.3109 40.8878 0
90.1804 7.30689 0
90.9048 4.933 0
92.5943 20.0302 0
90.1891 19.3226 0
55.8923 19.1974 0
56.1448 16.7112 0
22.8704 18.768 0
21.4902 20.8445 0
32.7405 16.0147 0
34.5225 17.754 0
72.9685 38.3063 0
73.3261 35.8431 0
61.7406 40.6809 0
63.1718 42.7289 0
27.4629 32.8281 0
29.7573 31.8374 0
27.6479 16.5849 0
25.8048 14.9158 0
39.4933 2.35611 0
37.4652 3.82106 0
18.6252 28.4164 0
17.7954 26.0771 0
73.4904 2.6438 0
75.2218 0.873132 0
75.7693 41.9891 0
73.2711 42.1255 0
57.3529 43.848 0
54.9323 43.2289 0
27.2536 9.01083 0
28.8838 10.8841 0
24.2074 7.78568 0
23.0444 9.99509 0
76.612 41.4752 0
74.5021 42.8084 0
30.3825 38.4895 0
32.0669 40.3274 0
47.7309 27.4065 0
48.513 29.7786 0
78.4321 6.9606 0
80.9144 6.63312 0
76.0078 10.3539 0
76.2735 12.824 0
69.5258 34.0133 0
68.9131 31.5958 0
77.7227 17.0433 0
79.7075 18.5673 0
84.4778 32.457 0
85.6457 34.652 0
64.9006 34.3588 0
64.2175 31.9578 0
32.4124 10.1205 0
29.9159 10.0748 0
29.5293 44.3419 0
31.8232 45.3323 0
20.0688 28.9746 0
22.5302 28.5435 0
45.1511 28.2491 0
47.3604 27.0885 0
19.2934 33.7481 0
20.5674 31.6065 0
66.1275 9.29959 0
66.1527 6.80127 0
61.7047 1.60324 0
64.0601 0.753407 0
80.9519 1.38891 0
79.8131 3.57147 0
40.5928 47.4139 0
38.0955 47.2884 0
58.7988 25.9702 0
59.6168 28.3306 0
14.8134 23.3497 0
16.9134 24.696 0
4.0998 14.416 0
6.14806 12.9784 0
84.2701 21.606 0
82.6421 19.7157 0
8.1821 0.606143 0
5.72111 0.180907 0
75.4341 20.0122 0
73.0839 20.8537 0
52.4322 9.77557 0
50.7794 7.90048 0
43.3128 5.66906 0
45.7112 4.95991 0
39.27 2.6991 0
37.8586 4.76346 0
3.32227 8.63565 0
0.884023 8.07741 0
87.8942 12.0833 0
88.2187 14.5429 0
39.7007 11.2326 0
37.4358 10.1865 0
57.943 7.221 0
56.0203 5.62196 0
16.2646 26.7472 0
13.7763 27.0363 0
52.5473 5.24134 0
55.0207 5.6123 0
89.8369 6.95349 0
92.2201 7.72434 0
93.5045 4.63757 0
91.8554 2.76175 0
95.0972 0.409048 0
96.8625 2.1809 0
16.0564 29.2552 0
18.4239 28.4593 0
62.4858 9.45509 0
61.7779 11.85 0
18.5815 7.14472 0
17.9419 4.76173 0
70.1849 44.9737 0
67.8051 44.2019 0
79.6816 8.32332 0
80.5723 6.01668 0
91.8995 15.6298 0
89.7409 14.3597 0
59.5368 8.638 0
59.3379 6.1456 0
21.4025 28.4057 0
23.7057 29.3649 0
24.8656 41.885 0
26.3678 39.8901 0
22.3782 13.1978 0
24.5778 14.3676 0
9.85701 12.0531 0
11.0372 9.8604 0
33.5172 45.2468 0
34.4768 42.9418 0
67.6172 35.7129 0
69.8808 36.7731 0
25.3418 10.6167 0
26.8553 8.62066 0
84.0178 24.4178 0
82.6779 22.3208 0
87.5762 2.03572 0
89.3585 3.78453 0
51.1089 40.7991 0
53.4441 41.685 0
82.2007 9.38168 0
80.1123 7.99497 0
65.1105 14.4246 0
66.1149 16.7141 0
42.9474 6.60478 0
42.7632 4.1122 0
53.512 5.32343 0
55.4262 3.71526 0
44.3457 38.7149 0
42.8783 40.7375 0
90.5866 10.8117 0
92.5615 9.29069 0
23.2644 16.7918 0
24.7988 18.7458 0
23.773 10.0003 0
23.8133 7.51837 0
60.712 35.5404 0
60.9507 38.0263 0
44.6469 1.03171 0
42.291 1.87906 0
78.2895 24.1502 0
79.0242 21.7795 0
68.8609 37.7159 0
68.7561 35.2251 0
27.5541 6.36646 0
29.4603 4.73857 0
58.9284 13.0771 0
59.0205 15.5745 0
57.7181 9.3511 0
59.6477 10.9409 0
51.759 19.3391 0
54.1697 19.9822 0
50.6768 37.9921 0
48.1809 37.9907 0
47.4661 22.6491 0
46.4162 24.9167 0
22.6326 20.993 0
22.8398 23.467 0
81.0261 2.10304 0
78.5676 1.59498 0
95.2737 4.85971 0
95.4226 7.34288 0
48.3794 40.9469 0
46.7843 42.8703 0
26.3749 16.54 0
25.2354 18.7593 0
89.3206 21.4125 0
88.3552 23.6939 0
43.8443 3.4083 0
46.1152 4.45599 0
53.2821 27.6625 0
55.5167 28.7738 0
78.2818 8.28135 0
79.9481 6.44439 0
13.6833 13.9571 0
16.182 14.1661 0
54.0794 47.3087 0
53.9836 44.8111 0
52.4096 5.81932 0
49.9861 5.20151 0
54.1072 40.3623 0
51.811 41.343 0
8.3278 21.8585 0
6.37428 23.4254 0
11.1282 27.5428 0
8.63532 27.3584 0
49.7343 46.9927 0
47.2353 47.0208 0
43.5642 18.1852 0
45.9088 19.0361 0
28.4283 43.2567 0
27.743 40.8624 0
87.126 31.321 0
86.4107 28.956 0
85.7925 22.3498 0
86.6575 20.0285 0
85.9772 0.787824 0
88.4124 1.36515 0
83.5056 35.4862 0
84.5333 33.2309 0
24.1613 32.4792 0
25.727 30.5356 0
45.6018 42.0684 0
47.1181 44.0535 0
21.4085 34.7546 0
23.687 33.7251 0
6.26813 12.0587 0
4.35414 10.461 0
34.5466 14.5277 0
36.1595 12.6154 0
31.2792 45.7247 0
33.0065 43.9186 0
18.2909 22.8489 0
20.7094 23.4872 0
10.2903 22.4455 0
11.9916 20.6148 0
50.2245 7.41529 0
47.8896 6.52187 0
47.499 30.5898 0
45.1688 29.7004 0
38.8718 20.8069 0
41.2805 20.1506 0
43.5979 9.76012 0
41.393 10.9368 0
77.4822 36.7394 0
79.2527 34.9907 0
39.9119 8.73547 0
39.0833 11.0948 0
74.8621 40.1653 0
73.6074 38.008 0
60.7826 11.6533 0
58.9122 13.3045 0
96.2604 12.4921 0
94.0358 11.3433 0
43.7722 25.1504 0
41.278 25.1657 0
54.2773 42.6626 0
56.7503 42.3145 0
84.5697 23.4096 0
82.068 23.5517 0
2.50403 9.58213 0
4.57009 8.17184 0
82.1243 4.91143 0
84.614 5.19078 0
36.5687 16.2535 0
38.6885 17.5656 0
44.0129 9.19629 0
42.0266 10.7139 0
21.2137 26.3251 0
22.2166 28.5992 0
43.0627 27.0202 0
45.3753 26.0822 0
15.0545 19.5228 0
14.8822 21.9951 0
20.1604 8.52237 0
21.0256 6.18948 0
12.2439 24.7054 0
10.9795 22.574 0
49.8771 41.312 0
48.6864 39.1158 0
9.60164 24.3342 0
9.41044 26.8117 0
35.0983 43.8304 0
32.8862 44.9963 0
13.4091 18.2206 0
11.2186 17.024 0
12.2722 23.6847 0
12.706 21.242 0
84.2138 17.3293 0
84.0554 14.8561 0
97.1161 15.4091 0
94.9107 14.2248 0
76.1717 36.5359 0
77.5615 38.6088 0
4.71721 2.93425 0
2.26051 3.41857 0
13.9152 26.6657 0
11.4244 26.3988 0
9.9012 5.16407 0
8.632 7.30868 0
87.0131 9.93405 0
86.705 7.47354 0
50.8085 18.7595 0
49.8851 16.4371 0
22.8291 2.91687 0
23.5033 0.507596 0
24.0643 40.225 0
21.5835 39.9056 0
4.29768 10.4904 0
1.88723 11.1681 0
73.9878 27.9446 0
72.4192 29.8774 0
51.6076 16.4078 0
49.4404 17.6461 0
94.6936 5.50181 0
96.5711 7.15328 0
92.4076 0.897157 0
90.0091 1.58805 0
54.678 27.8616 0
57.0027 28.7692 0
3.92699 2.10441 0
2.80211 4.33085 0
25.6228 41.8719 0
28.1079 41.5806 0
24.3184 33.0367 0
25.7855 35.0462 0
64.8552 37.6813 0
63.0415 35.9627 0
45.7862 38.8106 0
46.3324 36.3723 0
59.137 39.2472 0
58.3345 41.612 0
42.8458 19.2792 0
41.6459 17.0904 0
48.5266 16.7552 0
47.4684 14.4914 0
92.8785 4.84737 0
91.3563 6.81392 0
17.6596 6.57543 0
16.0838 4.6587 0
31.572 30.5614 0
33.087 28.5763 0
49.5584 45.0002 0
50.5155 47.309 0
51.6922 13.6787 0
49.2485 14.1856 0
35.2073 5.4335 0
34.5572 7.84842 0
90.6982 7.72958 0
90.2651 10.1721 0
55.2536 45.6243 0
54.0036 43.4595 0
16.7283 18.1219 0
18.917 16.9025 0
14.6132 7.03693 0
14.2741 4.58382 0
24.3116 34.2208 0
21.8195 34.4146 0
62.6096 33.4657 0
60.6439 35.0006 0
11.5579 19.6118 0
13.6656 20.9439 0
76.8297 0.366745 0
74.3472 0.247923 0
59.9066 25.9356 0
57.6559 24.8549 0
70.4447 26.9327 0
67.9598 27.1725 0
46.2337 22.6961 0
46.9787 20.3103 0
76.575 3.81473 0
74.1791 4.46792 0
47.8518 15.0083 0
50.1329 16.021 0
88.1798 13.5335 0
89.9563 11.7904 0
71.0258 0.0365253 0
73.3323 1.0017 0
56.2764 45.5576 0
57.2058 43.2385 0
68.1751 3.21119 0
65.9533 2.06109 0
22.8643 17.5928 0
24.7834 15.9862 0
81.1748 38.5711 0
83.1518 37.0539 0
49.4122 2.86623 0
51.1129 4.69936 0
66.0233 3.27132 0
63.6919 2.36715 0
53.2968 12.0563 0
53.0638 9.56678 0
12.6026 15.3741 0
10.7832 17.0888 0
43.1748 4.5723 0
43.6217 7.03131 0
56.153 20.482 0
58.5994 20.9742 0
60.8251 22.2864 0
58.349 21.9771 0
28.8443 27.0981 0
27.028 25.3944 0
40.7081 6.8497 0
38.2328 7.18904 0
17.3992 2.34174 0
19.882 2.01302 0
42.8506 25.7462 0
40.3777 26.0774 0
7.01796 17.6639 0
8.34892 19.7622 0
20.3067 11.9416 0
22.1515 10.2494 0
67.3838 39.9297 0
65.4765 41.5382 0
45.1303 41.4164 0
45.985 43.764 0
70.7852 17.1693 0
73.1677 16.4273 0
88.2903 4.86135 0
90.0319 6.65011 0
49.8863 20.0804 0
48.1655 21.8902 0
56.348 37.6069 0
56.3497 40.1054 0
82.3432 25.945 0
80.8201 27.9115 0
39.5759 4.35093 0
41.5654 5.86197 0
55.161 43.4749 0
57.0016 41.787 0
55.3745 43.3598 0
57.0544 41.5119 0
25.0694 15.325 0
23.2489 13.6348 0
14.3838 27.7319 0
13.5534 30.0628 0
52.997 16.9529 0
51.195 18.681 0
32.5402 42.7307 0
34.8909 43.5765 0
19.7186 10.8245 0
21.4782 12.5774 0
61.5089 41.0396 0
63.7432 39.9262 0
32.9835 27.3723 0
31.0374 28.939 0
31.0323 21.126 0
32.0042 23.4179 0
72.0348 27.3667 0
71.204 29.7126 0
38.0975 13.0208 0
40.5689 13.3651 0
47.3036 47.8722 0
45.4842 46.1592 0
70.5974 11.4685 0
70.46 13.9558 0
98.6754 10.1817 0
96.6119 8.76776 0
96.478 15.8989 0
93.9757 15.9585 0
58.9424 10.1453 0
59.6763 12.5354 0
54.988 18.2963 0
56.4673 20.3105 0
53.9046 41.5566 0
56.3667 41.1414 0
5.03646 4.42347 0
7.51841 4.0992 0
84.4964 18.763 0
86.8234 19.6985 0
19.3145 30.1587 0
19.541 32.632 0
64.3943 35.7339 0
63.1467 33.5701 0
66.4583 23.433 0
68.9539 23.3542 0
60.3714 25.3866 0
62.6642 24.4076 0
55.9071 21.0841 0
57.5975 19.249 0
21.5976 36.275 0
19.1035 36.4709 0
55.9401 32.247 0
58.3696 31.6823 0
67.9494 1.63724 0
70.1349 2.8574 0
16.2177 6.24871 0
17.615 4.1917 0
91.8077 24.1913 0
91.13 26.578 0
89.1995 19.1117 0
86.7267 18.6878 0
88.0924 12.5655 0
86.5301 14.4977 0
76.3916 18.8209 0
77.5869 16.6461 0
70.9847 20.936 0
70.0731 23.2508 0
26.6508 25.4394 0
25.4333 27.6156 0
55.7934 26.2702 0
55.5465 28.7556 0
59.1597 43.0091 0
57.5187 44.892 0
66.2009 18.7037 0
68.2442 17.2794 0
81.2381 33.5013 0
79.7011 31.5377 0
50.4279 8.93772 0
49.7704 11.3499 0
26.0926 27.442 0
24.0606 28.8947 0
49.6502 27.2311 0
49.8899 24.7437 0
89.2912 25.439 0
91.7923 25.3696 0
78.9485 32.0382 0
76.6184 32.9274 0
76.1795 37.3516 0
76.6173 34.9038 0
22.6825 1.45649 0
23.5185 3.78292 0
17.2429 11.9266 0
15.7615 9.93668 0
76.5123 35.7052 0
78.3744 34.0533 0
25.5426 42.713 0
23.7598 40.9709 0
24.9574 3.52637 0
23.1371 1.86164 0
86.8844 24.4065 0
85.0288 22.7334 0
84.0456 33.418 0
83.1582 31.0961 0
67.9929 9.10318 0
65.8938 7.73916 0
6.41953 3.78377 0
4.64665 5.54573 0
88.488 7.25309 0
89.3711 4.93483 0
68.0693 40.7657 0
69.9043 39.0772 0
33.6057 18.8035 0
33.5071 21.296 0
18.4078 18.324 0
20.0111 20.2229 0
51.005 20.5924 0
51.9926 18.2971 0
81.1787 27.1754 0
78.9812 25.9875 0
33.6696 33.6169 0
31.4899 34.8389 0
42.0877 36.5924 0
44.275 35.3878 0
9.48213 8.08272 0
8.10912 6.0109 0
46.3966 8.98584 0
43.9217 9.32553 0
38.9248 45.7349 0
36.7425 44.5182 0
56.6685 44.7137 0
57.0804 42.2492 0
50.8192 7.72234 0
52.1407 9.84422 0
69.2973 9.54159 0
68.1844 11.7681 0
52.7852 10.6046 0
53.9923 8.41611 0
87.9575 0.589695 0
87.4409 3.0154 0
87.5526 29.6256 0
88.4822 27.3402 0
27.8003 27.7647 0
29.3546 25.8109 0
41.1411 3.14348 0
43.5638 2.51547 0
47.3871 29.2119 0
44.8943 29.1342 0
44.9079 23.1049 0
42.4364 22.7725 0
57.545 36.1318 0
55.6842 34.4657 0
79.9237 4.75962 0
81.3138 6.82766 0
32.9838 1.45003 0
31.326 3.32343 0
37.9935 49.6479 0
37.9184 51.2154 0
37.9184 51.2154 0
37.7065 52.7706 0
37.7065 52.7706 0
37.3595 54.3015 0
37.3595 54.3015 0
36.8802 55.7963 0
36.8802 55.7963 0
36.2722 57.2436 0
36.2722 57.2436 0
35.5402 58.6325 0
35.5402 58.6325 0
34.6899 59.9524 0
34.6899 59.9524 0
33.7277 61.1932 0
33.7277 61.1932 0
32.6611 62.3455 0
32.6611 62.3455 0
31.4981 63.4006 0
31.4981 63.4006 0
30.2477 64.3505 0
30.2477 64.3505 0
28.9193 65.188 0
28.9193 65.188 0
27.523 65.9067 0
27.523 65.9067 0
26.0695 66.5013 0
26.0695 66.5013 0
24.5698 66.9672 0
24.5698 66.9672 0
23.0352 67.3009 0
23.0352 67.3009 0
21.4773 67.4999 0
21.4773 67.4999 0
19.9081 67.5627 0
19.9081 67.5627 0
18.3393 67.4888 0
18.3393 67.4888 0
16.783 67.2788 0
16.783 67.2788 0
15.2508 66.9343 0
15.2508 66.9343 0
13.7543 66.4578 0
13.7543 66.4578 0
12.305 65.853 0
12.305 65.853 0
10.9139 65.1244 0
10.9139 65.1244 0
9.59146 64.2775 0
9.59146 64.2775 0
8.34777 63.3189 0
8.34777 63.3189 0
7.19228 62.2556 0
7.19228 62.2556 0
6.13382 61.0958 0
6.13382 61.0958 0
5.18046 59.8482 0
5.18046 59.8482 0
4.33944 58.5224 0
4.33944 58.5224 0
3.61723 57.1285 0
3.61723 57.1285 0
3.0194 55.6769 0
3.0194 55.6769 0
2.55052 54.1788 0
2.55052 54.1788 0
2.2142 52.6456 0
2.2142 52.6456 0
2.01314 51.089 0
2.01314 51.089 0
1.9489 49.5209 0
1.9489 49.5209 0
2.02202 47.9533 0
2.02202 47.9533 0
2.23204 46.3985 0
2.23204 46.3985 0
2.57744 44.8681 0
2.57744 44.8681 0
3.0556 43.3741 0
3.0556 43.3741 0
3.66299 41.9281 0
3.66299 41.9281 0
4.39495 40.5415 0
4.39495 40.5415 0
5.24593 39.225 0
5.24593 39.225 0
6.20959 37.9894 0
6.20959 37.9894 0
7.27827 36.8448 0
7.27827 36.8448 0
8.44403 35.8007 0
8.44403 35.8007 0
9.69792 34.8677 0
9.69792 34.8677 0
11.0307 34.0539 0
11.0307 34.0539 0
12.4353 33.3612 0
12.4353 33.3612 0
13.893 32.776 0
13.893 32.776 0
15.3911 32.3094 0
15.3911 32.3094 0
16.9228 31.9717 0
16.9228 31.9717 0
18.4782 31.7668 0
18.4782 31.7668 0
20.0455 31.6969 0
20.0455 31.6969 0
21.6131 31.7631 0
21.6131 31.7631 0
23.1685 31.9648 0
23.1685 31.9648 0
24.6997 32.3008 0
24.6997 32.3008 0
26.1954 32.7686 0
26.1954 32.7686 0
27.6441 33.3649 0
27.6441 33.3649 0
29.0345 34.0857 0
29.0345 34.0857 0
30.3561 34.9254 0
30.3561 34.9254 0
31.5989 35.8776 0
31.5989 35.8776 0
32.7536 36.9352 0
32.7536 36.9352 0
33.8114 38.09 0
33.8114 38.09 0
34.7641 39.3333 0
34.7641 39.3333 0
35.6047 40.6556 0
35.6047 40.6556 0
36.3266 42.0468 0
36.3266 42.0468 0
36.9243 43.4961 0
36.9243 43.4961 0
37.3933 44.9925 0
37.3933 44.9925 0
37.7297 46.5246 0
37.7297 46.5246 0
37.9305 48.0803 0
37.9305 48.0803 0
37.9935 49.6479 0
98.0512 49.5205 0
97.987 51.0886 0
97.987 51.0886 0
97.7859 52.6452 0
97.7859 52.6452 0
97.4496 54.1784 0
97.4496 54.1784 0
96.9807 55.6765 0
96.9807 55.6765 0
96.3828 57.1281 0
96.3828 57.1281 0
95.6606 58.522 0
95.6606 58.522 0
94.8196 59.8478 0
94.8196 59.8478 0
93.8662 61.0953 0
93.8662 61.0953 0
92.8077 62.2551 0
92.8077 62.2551 0
91.6522 63.3184 0
91.6522 63.3184 0
90.4085 64.277 0
90.4085 64.277 0
89.0861 65.1239 0
89.0861 65.1239 0
87.6949 65.8524 0
87.6949 65.8524 0
86.2456 66.4572 0
86.2456 66.4572 0
84.7492 66.9337 0
84.7492 66.9337 0
83.217 67.2783 0
83.217 67.2783 0
81.6606 67.4882 0
81.6606 67.4882 0
80.0919 67.5621 0
80.0919 67.5621 0
78.5227 67.4993 0
78.5227 67.4993 0
76.9648 67.3003 0
76.9648 67.3003 0
75.4302 66.9665 0
75.4302 66.9665 0
73.9305 66.5006 0
73.9305 66.5006 0
72.477 65.906 0
72.477 65.906 0
71.0807 65.1873 0
71.0807 65.1873 0
69.7523 64.3498 0
69.7523 64.3498 0
68.5019 63.3999 0
68.5019 63.3999 0
67.339 62.3447 0
67.339 62.3447 0
66.2724 61.1924 0
66.2724 61.1924 0
65.3102 59.9516 0
65.3102 59.9516 0
64.4599 58.6317 0
64.4599 58.6317 0
63.728 57.2428 0
63.728 57.2428 0
63.12 55.7954 0
63.12 55.7954 0
62.6407 54.3006 0
62.6407 54.3006 0
62.2937 52.7698 0
62.2937 52.7698 0
62.0819 51.2146 0
62.0819 51.2146 0
62.0069 49.6471 0
62.0069 49.6471 0
62.0699 48.0795 0
62.0699 48.0795 0
62.2707 46.5237 0
62.2707 46.5237 0
62.6071 44.9917 0
62.6071 44.9917 0
63.076 43.4953 0
63.076 43.4953 0
63.6737 42.0459 0
63.6737 42.0459 0
64.3955 40.6548 0
64.3955 40.6548 0
65.236 39.3325 0
65.236 39.3325 0
66.1888 38.0892 0
66.1888 38.0892 0
67.2465 36.9344 0
67.2465 36.9344 0
68.4012 35.8769 0
68.4012 35.8769 0
69.6441 34.9248 0
69.6441 34.9248 0
70.9658 34.0853 0
70.9658 34.0853 0
72.3562 33.3646 0
72.3562 33.3646 0
73.8047 32.7678 0
73.8047 32.7678 0
75.3005 32.2996 0
75.3005 32.2996 0
76.8319 31.9635 0
76.8319 31.9635 0
78.3873 31.7619 0
78.3873 31.7619 0
79.9546 31.696 0
79.9546 31.696 0
81.522 31.7659 0
81.522 31.7659 0
83.0776 31.971 0
83.0776 31.971 0
84.6097 32.3087 0
84.6097 32.3087 0
86.1078 32.7755 0
86.1078 32.7755 0
87.5644 33.3611 0
87.5644 33.3611 0
88.9698 34.0536 0
88.9698 34.0536 0
90.3029 34.8681 0
90.3029 34.8681 0
91.5562 35.8008 0
91.5562 35.8008 0
92.7219 36.8443 0
92.7219 36.8443 0
93.7907 37.989 0
93.7907 37.989 0
94.7542 39.2246 0
94.7542 39.2246 0
95.6052 40.5411 0
95.6052 40.5411 0
96.3373 41.9278 0
96.3373 41.9278 0
96.9446 43.3737 0
96.9446 43.3737 0
97.4227 44.8677 0
97.4227 44.8677 0
97.7681 46.3981 0
97.7681 46.3981 0
97.9781 47.953 0
97.9781 47.953 0
98.0512 49.5205 0
      </DataArray>
    </Points>
    <Cells>
      <DataArray type="Int32" Name="connectivity" format="ascii">
247 120 114 753 754 755 
213 114 214 748 749 750 
487 220 257 647 745 730 
257 115 260 741 742 743 
246 300 116 738 739 740 
212 116 247 731 732 733 
246 257 117 724 725 726 
299 117 312 719 720 721 
303 310 118 716 717 718 
248 118 256 711 712 713 
513 495 483 150 224 119 
507 513 483 151 119 184 
248 120 302 704 705 706 
221 258 121 1196 1197 1198 
259 121 313 1191 1192 1193 
464 430 432 332 409 122 
436 464 432 326 122 408 
346 1189 123 1186 1187 1188 
298 123 351 1181 1182 1183 
71 311 124 699 700 701 
65 124 372 692 693 694 
79 369 125 687 688 689 
684 125 309 680 681 682 
211 243 126 1178 1179 1180 
244 126 297 1173 1174 1175 
462 474 436 240 281 127 
438 462 436 294 127 327 
512 515 514 131 129 134 
513 509 511 130 132 135 
514 515 510 129 139 128 
508 514 510 148 128 147 
496 500 514 146 133 149 
513 499 495 136 145 150 
507 509 513 143 130 151 
505 491 497 141 142 154 
504 515 512 137 131 155 
174 503 511 1151 156 144 
512 514 500 134 133 159 
499 513 511 136 135 162 
494 515 504 138 137 165 
171 510 515 1164 139 166 
140 167 168 678 674 675 
167 492 168 672 661 674 
491 505 506 141 153 169 
177 498 497 656 164 170 
173 490 174 1156 1149 1171 
217 489 503 1126 176 175 
495 499 498 145 163 178 
501 500 496 158 146 179 
172 486 181 1162 1145 1169 
496 514 508 149 148 183 
480 481 140 227 152 187 
479 506 505 188 153 190 
477 505 497 191 154 193 
504 512 475 155 160 194 
472 511 503 161 156 197 
501 502 471 157 199 200 
500 501 470 158 201 202 
475 512 500 160 159 203 
499 511 472 162 161 204 
498 499 469 163 205 206 
497 498 468 164 207 208 
494 504 474 165 195 210 
211 493 171 1165 1161 1166 
167 180 212 667 668 669 
168 492 213 661 662 663 
214 488 177 657 653 658 
172 171 215 1158 1159 1160 
173 185 216 1153 1154 1155 
174 490 217 1149 1127 1150 
473 503 489 196 176 218 
177 488 219 653 643 654 
220 487 180 647 648 649 
182 181 221 1142 1143 1144 
496 508 115 183 222 747 
225 484 185 886 1138 1139 
482 502 481 198 186 226 
506 480 140 189 187 677 
480 506 479 189 188 228 
479 505 478 190 192 229 
478 505 477 192 191 230 
477 497 476 193 209 231 
474 504 475 195 194 232 
472 503 473 197 196 233 
471 502 482 199 198 234 
470 501 471 201 200 235 
475 500 470 203 202 236 
469 499 472 205 204 237 
468 498 469 207 206 238 
476 497 468 209 208 239 
494 474 461 210 241 242 
215 245 249 1133 1134 1135 
216 250 251 1128 1129 1130 
217 252 253 1123 1124 1125 
307 451 473 1047 255 254 
223 219 256 640 641 642 
583 263 223 1074 637 628 
582 261 264 1120 1121 1122 
445 482 481 265 226 268 
444 481 480 267 227 270 
443 480 479 269 228 272 
442 479 478 271 229 274 
441 478 477 273 230 276 
440 477 476 275 231 278 
474 475 436 232 280 281 
472 473 435 233 283 284 
471 482 446 234 266 286 
470 471 434 235 287 288 
464 475 470 279 236 289 
469 472 463 237 285 290 
468 469 433 238 291 292 
439 476 468 277 239 293 
461 474 462 241 240 295 
296 460 243 1071 1116 1117 
245 244 298 1107 1108 1109 
258 249 304 1100 1101 1102 
250 262 305 1095 1096 1097 
252 251 306 1088 1089 1090 
253 452 307 1084 1044 1085 
437 473 451 282 255 308 
633 314 591 871 832 1082 
262 261 316 1075 1076 1077 
318 629 578 854 810 809 
446 482 445 266 265 319 
445 481 444 268 267 320 
444 480 443 270 269 321 
443 479 442 272 271 322 
442 478 441 274 273 323 
441 477 440 276 275 324 
440 476 439 278 277 325 
436 475 464 280 279 326 
435 473 437 283 282 328 
463 472 435 285 284 329 
434 471 446 287 286 330 
464 470 434 289 288 331 
433 469 463 291 290 334 
439 468 433 293 292 335 
462 438 43 294 338 339 
461 462 45 295 340 341 
296 342 343 1068 1069 1070 
297 344 345 1063 1064 1065 
299 311 347 621 622 623 
301 300 348 616 617 618 
302 301 349 609 610 611 
309 303 350 602 603 604 
304 352 353 1058 1059 1060 
305 358 359 1053 1054 1055 
306 361 362 1048 1049 1050 
307 452 364 1044 934 1045 
437 451 109 308 367 368 
599 317 597 848 850 1042 
592 315 593 841 840 1040 
313 355 375 1035 1036 1037 
585 586 587 1032 1033 1034 
356 316 378 1027 1028 1029 
578 579 580 1024 1025 1026 
3 446 445 381 319 383 
7 445 444 384 320 386 
11 444 443 387 321 389 
15 443 442 390 322 392 
19 442 441 393 323 395 
23 441 440 396 324 398 
27 440 439 399 325 401 
432 438 436 336 327 408 
435 437 431 328 337 410 
429 463 435 333 329 411 
434 446 0 330 382 413 
430 464 434 332 331 414 
433 463 429 334 333 415 
1 439 433 402 335 416 
39 438 432 404 336 417 
431 437 940 337 407 418 
43 438 41 338 405 42 
45 462 43 340 339 44 
47 49 342 48 1019 1020 
344 343 51 1009 1010 1011 
346 345 1013 1000 1001 1002 
348 347 702 569 570 571 
350 349 75 560 561 562 
352 351 55 991 992 993 
354 353 979 984 985 986 
355 354 995 975 976 977 
357 356 89 968 969 970 
358 357 956 959 960 961 
360 359 972 952 953 954 
361 360 95 943 944 945 
363 362 99 936 937 938 
364 363 103 927 928 929 
107 451 105 366 365 106 
109 451 107 367 366 108 
931 437 109 406 368 110 
370 369 548 553 554 555 
371 370 690 544 545 546 
372 374 532 537 538 539 
374 373 696 528 529 530 
376 375 61 920 921 922 
924 523 524 915 916 917 
378 380 85 908 909 910 
516 911 518 903 904 905 
0 446 3 382 381 2 
3 445 5 383 385 4 
5 445 7 385 384 6 
7 444 9 386 388 8 
9 444 11 388 387 10 
11 443 13 389 391 12 
13 443 15 391 390 14 
15 442 17 392 394 16 
17 442 19 394 393 18 
19 441 21 395 397 20 
21 441 23 397 396 22 
23 440 25 398 400 24 
25 440 27 400 399 26 
27 439 29 401 403 28 
29 439 1 403 402 30 
41 438 39 405 404 40 
940 437 931 407 406 932 
432 430 31 409 423 419 
429 435 431 411 410 412 
93 429 431 426 412 422 
430 434 0 414 413 424 
1 433 429 416 415 428 
39 432 37 417 420 38 
947 431 940 421 418 941 
37 432 31 420 419 36 
93 431 947 422 421 948 
31 430 33 423 425 32 
33 430 0 425 424 34 
112 429 93 427 426 111 
1 429 112 428 427 113 
220 115 257 746 741 745 
518 899 519 896 897 898 
521 519 380 889 890 891 
630 264 225 882 883 884 
491 177 497 659 170 142 
481 502 140 186 676 152 
744 182 635 879 874 875 
120 247 467 753 735 707 
247 114 492 755 752 736 
114 120 488 754 710 751 
114 213 492 748 662 752 
213 214 491 750 660 665 
214 114 488 749 751 657 
115 220 496 746 652 747 
257 260 466 743 632 727 
182 485 635 878 870 874 
300 246 458 738 728 619 
246 116 487 740 737 729 
116 300 467 739 620 734 
116 212 487 731 670 737 
212 247 492 733 736 671 
247 116 467 732 734 735 
257 246 487 724 729 730 
246 117 458 726 723 728 
117 257 466 725 727 722 
117 299 458 719 625 723 
299 312 449 721 595 626 
312 117 466 720 722 596 
310 303 450 716 608 600 
303 118 457 718 715 605 
118 310 465 717 601 714 
118 248 457 711 708 715 
248 256 488 713 644 709 
256 118 465 712 714 645 
120 248 488 704 709 710 
248 302 457 706 613 708 
302 120 467 705 707 614 
311 71 573 699 72 624 
71 124 63 701 698 70 
124 311 449 700 627 695 
124 65 63 692 64 698 
65 372 67 694 542 66 
372 124 449 693 695 543 
369 79 81 687 80 556 
79 125 73 689 686 78 
125 369 450 688 559 683 
125 684 73 680 685 686 
684 309 564 682 606 565 
309 125 450 681 683 607 
167 140 502 678 676 679 
501 167 502 673 679 157 
140 168 506 675 666 677 
180 167 501 667 673 651 
167 212 492 669 671 672 
212 180 487 668 648 670 
506 168 213 666 663 664 
491 506 213 169 664 665 
491 214 177 660 658 659 
498 177 219 656 654 655 
495 498 219 178 655 646 
496 220 180 652 649 650 
501 496 180 179 650 651 
219 223 495 640 639 646 
223 256 465 642 645 636 
256 219 488 641 643 644 
495 223 263 639 637 638 
483 495 263 224 638 631 
633 635 634 867 868 869 
588 634 259 860 861 862 
629 318 630 854 855 856 
311 299 449 621 626 627 
299 347 458 623 577 625 
347 311 573 622 624 572 
300 301 467 616 615 620 
301 348 69 618 575 612 
348 300 458 617 619 576 
301 302 467 609 614 615 
302 349 457 611 568 613 
349 301 69 610 612 563 
303 309 450 602 607 608 
309 350 564 604 566 606 
350 303 457 603 605 567 
597 317 584 850 807 851 
599 550 581 845 846 847 
371 310 450 598 600 551 
590 315 592 835 841 842 
312 373 449 594 536 595 
593 589 531 836 837 838 
585 590 591 827 828 829 
587 523 589 818 819 820 
586 588 527 811 812 813 
578 583 584 802 803 804 
580 521 582 793 794 795 
579 581 516 784 785 786 
347 348 458 569 576 577 
348 702 69 571 703 575 
702 347 573 570 572 574 
349 350 457 560 567 568 
350 75 564 562 76 566 
75 349 69 561 563 74 
369 370 450 553 552 559 
370 548 557 555 549 547 
548 369 81 554 556 82 
370 371 450 544 551 552 
778 77 550 783 779 780 
690 370 557 545 547 558 
374 372 449 537 543 535 
372 532 67 539 68 542 
532 374 540 538 534 533 
373 374 449 528 535 536 
374 696 540 530 541 534 
531 59 773 772 777 774 
524 527 526 765 766 767 
762 526 376 756 757 758 
744 635 633 875 867 873 
260 744 633 877 873 872 
211 171 515 1166 166 1167 
494 211 515 1168 1167 138 
509 174 511 1152 144 132 
174 217 503 1150 175 1151 
629 583 578 1073 802 810 
465 583 223 805 628 636 
489 307 473 1086 254 218 
258 221 486 1196 1146 1105 
221 121 485 1198 1195 1147 
121 258 455 1197 1104 1194 
121 259 485 1191 864 1195 
259 313 448 1193 1038 865 
313 121 455 1192 1194 1039 
1189 346 1018 1186 1006 1023 
346 123 459 1188 1185 1007 
123 1189 35 1187 1190 1184 
123 298 459 1181 1111 1185 
298 351 456 1183 999 1112 
351 123 35 1182 1184 994 
243 211 494 1178 1168 1119 
211 126 493 1180 1177 1165 
126 243 460 1179 1116 1176 
126 244 493 1173 1115 1177 
244 297 459 1175 1066 1110 
297 126 460 1174 1176 1067 
173 174 509 1171 1152 1172 
507 173 509 1157 1172 143 
510 172 181 1163 1169 1170 
508 510 181 147 1170 1148 
171 172 510 1158 1163 1164 
172 215 486 1160 1136 1162 
215 171 493 1159 1161 1137 
185 173 507 1153 1157 1141 
173 216 490 1155 1131 1156 
216 185 484 1154 1138 1132 
181 182 508 1142 881 1148 
182 221 485 1144 1147 878 
221 181 486 1143 1145 1146 
225 185 507 1139 1141 1140 
483 225 507 887 1140 184 
245 215 493 1133 1137 1114 
215 249 486 1135 1106 1136 
249 245 456 1134 1113 1103 
250 216 484 1128 1132 1099 
216 251 490 1130 1094 1131 
251 250 453 1129 1098 1091 
252 217 490 1123 1127 1093 
217 253 489 1125 1087 1126 
253 252 452 1124 1092 1084 
261 582 447 1120 797 1078 
582 264 318 1122 888 798 
264 261 484 1121 1081 885 
461 296 243 1072 1117 1118 
494 461 243 242 1118 1119 
244 245 493 1107 1114 1115 
245 298 456 1109 1112 1113 
298 244 459 1108 1110 1111 
249 258 486 1100 1105 1106 
258 304 455 1102 1061 1104 
304 249 456 1101 1103 1062 
262 250 484 1095 1099 1080 
250 305 453 1097 1056 1098 
305 262 454 1096 1079 1057 
251 252 490 1088 1093 1094 
252 306 452 1090 1051 1092 
306 251 453 1089 1091 1052 
489 253 307 1087 1085 1086 
260 633 591 872 1082 1083 
466 260 591 632 1083 831 
261 262 484 1075 1080 1081 
262 316 454 1077 1031 1079 
316 261 447 1076 1078 1030 
583 629 263 1073 859 1074 
342 296 461 1068 1072 1022 
296 343 460 1070 1017 1071 
343 342 49 1069 1019 1012 
344 297 460 1063 1067 1016 
297 345 459 1065 1008 1066 
345 344 1004 1064 1015 1003 
352 304 456 1058 1062 998 
304 353 455 1060 990 1061 
353 352 57 1059 997 987 
358 305 454 1053 1057 966 
305 359 453 1055 958 1056 
359 358 963 1054 965 955 
361 306 453 1048 1052 950 
306 362 452 1050 942 1051 
362 361 97 1049 949 939 
451 307 364 1047 1045 1046 
105 451 364 365 1046 933 
371 599 597 849 1042 1043 
310 371 597 598 1043 852 
592 593 373 1040 839 1041 
312 592 373 844 1041 594 
355 313 455 1035 1039 982 
313 375 448 1037 926 1038 
375 355 53 1036 981 923 
586 585 314 1032 833 816 
585 587 315 1034 824 834 
587 586 377 1033 815 825 
316 356 454 1027 974 1031 
356 378 83 1029 913 971 
378 316 447 1028 1030 914 
579 578 317 1024 808 791 
578 580 318 1026 799 809 
580 579 379 1025 790 800 
45 47 342 46 1020 1021 
461 45 342 341 1021 1022 
343 344 460 1009 1016 1017 
344 51 1004 1011 52 1015 
51 343 49 1010 1012 50 
345 346 459 1000 1007 1008 
346 1013 1018 1002 1014 1006 
1013 345 1004 1001 1003 1005 
351 352 456 991 998 999 
352 55 57 993 56 997 
55 351 35 992 994 54 
353 354 455 984 983 990 
354 979 988 986 980 978 
979 353 57 985 987 58 
354 355 455 975 982 983 
355 995 53 977 996 981 
995 354 988 976 978 989 
356 357 454 968 967 974 
357 89 91 970 90 962 
89 356 83 969 971 88 
357 358 454 959 966 967 
358 956 963 961 957 965 
956 357 91 960 962 92 
359 360 453 952 951 958 
360 972 87 954 973 946 
972 359 963 953 955 964 
360 361 453 943 950 951 
361 95 97 945 96 949 
95 360 87 944 946 94 
362 363 452 936 935 942 
363 99 101 938 100 930 
99 362 97 937 939 98 
363 364 452 927 934 935 
364 103 105 929 104 933 
103 363 101 928 930 102 
375 376 448 920 760 926 
376 61 522 922 62 761 
61 375 53 921 923 60 
523 924 59 915 925 821 
924 524 918 917 769 919 
524 523 377 916 826 770 
380 378 447 908 914 894 
378 85 83 910 84 913 
85 380 517 909 893 86 
911 516 77 903 788 912 
516 518 379 905 900 789 
518 911 906 904 907 901 
899 518 906 896 901 902 
518 519 379 898 895 900 
519 899 517 897 520 892 
519 521 379 889 801 895 
521 380 447 891 894 796 
380 519 517 890 892 893 
264 630 318 882 855 888 
630 225 483 884 887 858 
225 264 484 883 885 886 
508 182 744 881 879 880 
115 508 744 222 880 876 
115 744 260 876 877 742 
633 634 314 869 866 871 
634 635 485 868 870 863 
634 588 314 860 817 866 
588 259 448 862 865 814 
259 634 485 861 863 864 
263 629 630 859 856 857 
483 263 630 631 857 858 
597 584 465 851 806 853 
310 597 465 852 853 601 
550 599 371 845 849 782 
599 581 317 847 792 848 
581 550 77 846 779 787 
466 590 592 830 842 843 
312 466 592 596 843 844 
589 593 315 836 840 823 
593 531 373 838 775 839 
531 589 59 837 822 772 
590 585 315 827 834 835 
585 591 314 829 832 833 
591 590 466 828 830 831 
523 587 377 818 825 826 
587 589 315 820 823 824 
589 523 59 819 821 822 
588 586 314 811 816 817 
586 527 377 813 771 815 
527 588 448 812 814 768 
578 584 317 804 807 808 
584 583 465 803 805 806 
521 580 379 793 800 801 
580 582 318 795 798 799 
582 521 447 794 796 797 
581 579 317 784 791 792 
579 516 379 786 789 790 
516 581 77 785 787 788 
690 778 550 691 780 781 
371 690 550 546 781 782 
531 773 696 774 697 776 
373 531 696 775 776 529 
527 524 377 765 770 771 
524 526 918 767 764 769 
526 527 448 766 768 759 
526 762 918 756 763 764 
762 376 522 758 761 525 
376 526 448 757 759 760 
1199 1200
1201 1202
1203 1204
1205 1206
1207 1208
1209 1210
1211 1212
1213 1214
1215 1216
1217 1218
1219 1220
1221 1222
1223 1224
1225 1226
1227 1228
1229 1230
1231 1232
1233 1234
1235 1236
1237 1238
1239 1240
1241 1242
1243 1244
1245 1246
1247 1248
1249 1250
1251 1252
1253 1254
1255 1256
1257 1258
1259 1260
1261 1262
1263 1264
1265 1266
1267 1268
1269 1270
1271 1272
1273 1274
1275 1276
1277 1278
1279 1280
1281 1282
1283 1284
1285 1286
1287 1288
1289 1290
1291 1292
1293 1294
1295 1296
1297 1298
1299 1300
1301 1302
1303 1304
1305 1306
1307 1308
1309 1310
1311 1312
1313 1314
1315 1316
1317 1318
1319 1320
1321 1322
1323 1324
1325 1326
1327 1328
1329 1330
1331 1332
1333 1334
1335 1336
1337 1338
1339 1340
1341 1342
1343 1344
1345 1346
1347 1348
1349 1350
1351 1352
1353 1354
1355 1356
1357 1358
1359 1360
1361 1362
1363 1364
1365 1366
1367 1368
1369 1370
1371 1372
1373 1374
1375 1376
1377 1378
1379 1380
1381 1382
1383 1384
1385 1386
1387 1388
1389 1390
1391 1392
1393 1394
1395 1396
1397 1398
1399 1400
1401 1402
1403 1404
1405 1406
1407 1408
1409 1410
1411 1412
1413 1414
1415 1416
1417 1418
1419 1420
1421 1422
1423 1424
1425 1426
1427 1428
1429 1430
1431 1432
1433 1434
1435 1436
1437 1438
1439 1440
1441 1442
1443 1444
1445 1446
1447 1448
1449 1450
1451 1452
1453 1454
1455 1456
1457 1458
1459 1460
1461 1462
1463 1464
1465 1466
1467 1468
1469 1470
1471 1472
1473 1474
1475 1476
1477 1478
1479 1480
1481 1482
1483 1484
1485 1486
1487 1488
1489 1490
1491 1492
1493 1494
1495 1496
1497 1498
1499 1500
1501 1502
1503 1504
1505 1506
1507 1508
1509 1510
1511 1512
1513 1514
1515 1516
1517 1518
1519 1520
1521 1522
1523 1524
1525 1526
1527 1528
1529 1530
1531 1532
1533 1534
1535 1536
1537 1538
1539 1540
1541 1542
1543 1544
1545 1546
1547 1548
1549 1550
1551 1552
1553 1554
1555 1556
1557 1558
1559 1560
1561 1562
1563 1564
1565 1566
1567 1568
1569 1570
1571 1572
1573 1574
1575 1576
1577 1578
1579 1580
1581 1582
1583 1584
1585 1586
1587 1588
1589 1590
1591 1592
1593 1594
1595 1596
1597 1598
1599 1600
1601 1602
1603 1604
1605 1606
1607 1608
1609 1610
1611 1612
1613 1614
1615 1616
1617 1618
1619 1620
1621 1622
1623 1624
1625 1626
1627 1628
1629 1630
1631 1632
1633 1634
1635 1636
1637 1638
1639 1640
1641 1642
1643 1644
1645 1646
1647 1648
1649 1650
1651 1652
1653 1654
1655 1656
1657 1658
1659 1660
1661 1662
1663 1664
1665 1666
1667 1668
1669 1670
1671 1672
1673 1674
1675 1676
1677 1678
1679 1680
1681 1682
1683 1684
1685 1686
1687 1688
1689 1690
1691 1692
1693 1694
1695 1696
1697 1698
1699 1700
1701 1702
1703 1704
1705 1706
1707 1708
1709 1710
1711 1712
1713 1714
1715 1716
1717 1718
1719 1720
1721 1722
1723 1724
1725 1726
1727 1728
1729 1730
1731 1732
1733 1734
1735 1736
1737 1738
1739 1740
1741 1742
1743 1744
1745 1746
1747 1748
1749 1750
1751 1752
1753 1754
1755 1756
1757 1758
1759 1760
1761 1762
1763 1764
1765 1766
1767 1768
1769 1770
1771 1772
1773 1774
1775 1776
1777 1778
1779 1780
1781 1782
1783 1784
1785 1786
1787 1788
1789 1790
1791 1792
1793 1794
1795 1796
1797 1798
1799 1800
1801 1802
1803 1804
1805 1806
1807 1808
1809 1810
1811 1812
1813 1814
1815 1816
1817 1818
1819 1820
1821 1822
1823 1824
1825 1826
1827 1828
1829 1830
1831 1832
1833 1834
1835 1836
1837 1838
1839 1840
1841 1842
1843 1844
1845 1846
1847 1848
1849 1850
1851 1852
1853 1854
1855 1856
1857 1858
1859 1860
1861 1862
1863 1864
1865 1866
1867 1868
1869 1870
1871 1872
1873 1874
1875 1876
1877 1878
1879 1880
1881 1882
1883 1884
1885 1886
1887 1888
1889 1890
1891 1892
1893 1894
1895 1896
1897 1898
1899 1900
1901 1902
1903 1904
1905 1906
1907 1908
1909 1910
1911 1912
1913 1914
1915 1916
1917 1918
1919 1920
1921 1922
1923 1924
1925 1926
1927 1928
1929 1930
1931 1932
1933 1934
1935 1936
1937 1938
1939 1940
1941 1942
1943 1944
1945 1946
1947 1948
1949 1950
1951 1952
1953 1954
1955 1956
1957 1958
1959 1960
1961 1962
1963 1964
1965 1966
1967 1968
1969 1970
1971 1972
1973 1974
1975 1976
1977 1978
1979 1980
1981 1982
1983 1984
1985 1986
1987 1988
1989 1990
1991 1992
1993 1994
1995 1996
1997 1998
1999 2000
2001 2002
2003 2004
2005 2006
2007 2008
2009 2010
2011 2012
2013 2014
2015 2016
2017 2018
2019 2020
2021 2022
2023 2024
2025 2026
2027 2028
2029 2030
2031 2032
2033 2034
2035 2036
2037 2038
2039 2040
2041 2042
2043 2044
2045 2046
2047 2048
2049 2050
2051 2052
2053 2054
2055 2056
2057 2058
2059 2060
2061 2062
2063 2064
2065 2066
2067 2068
2069 2070
2071 2072
2073 2074
2075 2076
2077 2078
2079 2080
2081 2082
2083 2084
2085 2086
2087 2088
2089 2090
2091 2092
2093 2094
2095 2096
2097 2098
2099 2100
2101 2102
2103 2104
2105 2106
2107 2108
2109 2110
2111 2112
2113 2114
2115 2116
2117 2118
2119 2120
2121 2122
2123 2124
2125 2126
2127 2128
2129 2130
2131 2132
2133 2134
2135 2136
2137 2138
2139 2140
2141 2142
2143 2144
2145 2146
2147 2148
2149 2150
2151 2152
2153 2154
2155 2156
2157 2158
2159 2160
2161 2162
2163 2164
2165 2166
2167 2168
2169 2170
2171 2172
2173 2174
2175 2176
2177 2178
2179 2180
2181 2182
2183 2184
2185 2186
2187 2188
2189 2190
2191 2192
2193 2194
2195 2196
2197 2198
2199 2200
2201 2202
2203 2204
2205 2206
2207 2208
2209 2210
2211 2212
2213 2214
2215 2216
2217 2218
2219 2220
2221 2222
2223 2224
2225 2226
2227 2228
2229 2230
2231 2232
2233 2234
2235 2236
2237 2238
2239 2240
2241 2242
2243 2244
2245 2246
2247 2248
2249 2250
2251 2252
2253 2254
2255 2256
2257 2258
2259 2260
2261 2262
2263 2264
2265 2266
2267 2268
2269 2270
2271 2272
2273 2274
2275 2276
2277 2278
2279 2280
2281 2282
2283 2284
2285 2286
2287 2288
2289 2290
2291 2292
2293 2294
2295 2296
2297 2298
2299 2300
2301 2302
2303 2304
2305 2306
2307 2308
2309 2310
2311 2312
2313 2314
2315 2316
2317 2318
2319 2320
2321 2322
2323 2324
2325 2326
2327 2328
2329 2330
2331 2332
2333 2334
2335 2336
2337 2338
2339 2340
2341 2342
2343 2344
2345 2346
2347 2348
2349 2350
2351 2352
2353 2354
2355 2356
2357 2358
2359 2360
2361 2362
2363 2364
2365 2366
2367 2368
2369 2370
2371 2372
2373 2374
2375 2376
2377 2378
2379 2380
2381 2382
2383 2384
2385 2386
2387 2388
2389 2390
2391 2392
2393 2394
2395 2396
2397 2398
2399 2400
2401 2402
2403 2404
2405 2406
2407 2408
2409 2410
2411 2412
2413 2414
2415 2416
2417 2418
2419 2420
2421 2422
2423 2424
2425 2426
2427 2428
2429 2430
2431 2432
2433 2434
2435 2436
2437 2438
2439 2440
2441 2442
2443 2444
2445 2446
2447 2448
2449 2450
2451 2452
2453 2454
2455 2456
2457 2458
2459 2460
2461 2462
2463 2464
2465 2466
2467 2468
2469 2470
2471 2472
2473 2474
2475 2476
2477 2478
2479 2480
2481 2482
2483 2484
2485 2486
2487 2488
2489 2490
2491 2492
2493 2494
2495 2496
2497 2498
2499 2500
2501 2502
2503 2504
2505 2506
2507 2508
2509 2510
2511 2512
2513 2514
2515 2516
2517 2518
2519 2520
2521 2522
2523 2524
2525 2526
2527 2528
2529 2530
2531 2532
2533 2534
2535 2536
2537 2538
2539 2540
2541 2542
2543 2544
2545 2546
2547 2548
2549 2550
2551 2552
2553 2554
2555 2556
2557 2558
2559 2560
2561 2562
2563 2564
2565 2566
2567 2568
2569 2570
2571 2572
2573 2574
2575 2576
2577 2578
2579 2580
2581 2582
2583 2584
2585 2586
2587 2588
2589 2590
2591 2592
2593 2594
2595 2596
2597 2598
2599 2600
2601 2602
2603 2604
2605 2606
2607 2608
2609 2610
2611 2612
2613 2614
2615 2616
2617 2618
2619 2620
2621 2622
2623 2624
2625 2626
2627 2628
2629 2630
2631 2632
2633 2634
2635 2636
2637 2638
2639 2640
2641 2642
2643 2644
2645 2646
2647 2648
2649 2650
2651 2652
2653 2654
2655 2656
2657 2658
2659 2660
2661 2662
2663 2664
2665 2666
2667 2668
2669 2670
2671 2672
2673 2674
2675 2676
2677 2678
2679 2680
2681 2682
2683 2684
2685 2686
2687 2688
2689 2690
2691 2692
2693 2694
2695 2696
2697 2698
2699 2700
2701 2702
2703 2704
2705 2706
2707 2708
2709 2710
2711 2712
2713 2714
2715 2716
2717 2718
2719 2720
2721 2722
2723 2724
2725 2726
2727 2728
2729 2730
2731 2732
2733 2734
2735 2736
2737 2738
2739 2740
2741 2742
2743 2744
2745 2746
2747 2748
2749 2750
2751 2752
2753 2754
2755 2756
2757 2758
2759 2760
2761 2762
2763 2764
2765 2766
2767 2768
2769 2770
2771 2772
2773 2774
2775 2776
2777 2778
2779 2780
2781 2782
2783 2784
2785 2786
2787 2788
2789 2790
2791 2792
2793 2794
2795 2796
2797 2798
2799 2800
2801 2802
2803 2804
2805 2806
2807 2808
2809 2810
2811 2812
2813 2814
2815 2816
2817 2818
2819 2820
2821 2822
2823 2824
2825 2826
2827 2828
2829 2830
2831 2832
2833 2834
2835 2836
2837 2838
2839 2840
2841 2842
2843 2844
2845 2846
2847 2848
2849 2850
2851 2852
2853 2854
2855 2856
2857 2858
2859 2860
2861 2862
2863 2864
2865 2866
2867 2868
2869 2870
2871 2872
2873 2874
2875 2876
2877 2878
2879 2880
2881 2882
2883 2884
2885 2886
2887 2888
2889 2890
2891 2892
2893 2894
2895 2896
2897 2898
2899 2900
2901 2902
2903 2904
2905 2906
2907 2908
2909 2910
2911 2912
2913 2914
2915 2916
2917 2918
2919 2920
2921 2922
2923 2924
2925 2926
2927 2928
2929 2930
2931 2932
2933 2934
2935 2936
2937 2938
2939 2940
2941 2942
2943 2944
2945 2946
2947 2948
2949 2950
2951 2952
2953 2954
2955 2956
2957 2958
2959 2960
2961 2962
2963 2964
2965 2966
2967 2968
2969 2970
2971 2972
2973 2974
2975 2976
2977 2978
2979 2980
2981 2982
2983 2984
2985 2986
2987 2988
2989 2990
2991 2992
2993 2994
2995 2996
2997 2998
2999 3000
3001 3002
3003 3004
3005 3006
3007 3008
3009 3010
3011 3012
3013 3014
3015 3016
3017 3018
3019 3020
3021 3022
3023 3024
3025 3026
3027 3028
3029 3030
3031 3032
3033 3034
3035 3036
3037 3038
3039 3040
3041 3042
3043 3044
3045 3046
3047 3048
3049 3050
3051 3052
3053 3054
3055 3056
3057 3058
3059 3060
3061 3062
3063 3064
3065 3066
3067 3068
3069 3070
3071 3072
3073 3074
3075 3076
3077 3078
3079 3080
3081 3082
3083 3084
3085 3086
3087 3088
3089 3090
3091 3092
3093 3094
3095 3096
3097 3098
3099 3100
3101 3102
3103 3104
3105 3106
3107 3108
3109 3110
3111 3112
3113 3114
3115 3116
3117 3118
3119 3120
3121 3122
3123 3124
3125 3126
3127 3128
3129 3130
3131 3132
3133 3134
3135 3136
3137 3138
3139 3140
3141 3142
3143 3144
3145 3146
3147 3148
3149 3150
3151 3152
3153 3154
3155 3156
3157 3158
3159 3160
3161 3162
3163 3164
3165 3166
3167 3168
3169 3170
3171 3172
3173 3174
3175 3176
3177 3178
3179 3180
3181 3182
3183 3184
3185 3186
3187 3188
3189 3190
3191 3192
3193 3194
3195 3196
3197 3198
3199 3200
3201 3202
3203 3204
3205 3206
3207 3208
3209 3210
3211 3212
3213 3214
3215 3216
3217 3218
3219 3220
3221 3222
3223 3224
3225 3226
3227 3228
3229 3230
3231 3232
3233 3234
3235 3236
3237 3238
3239 3240
3241 3242
3243 3244
3245 3246
3247 3248
3249 3250
3251 3252
3253 3254
3255 3256
3257 3258
3259 3260
3261 3262
3263 3264
3265 3266
3267 3268
3269 3270
3271 3272
3273 3274
3275 3276
3277 3278
3279 3280
3281 3282
3283 3284
3285 3286
3287 3288
3289 3290
3291 3292
3293 3294
3295 3296
3297 3298
3299 3300
3301 3302
3303 3304
3305 3306
3307 3308
3309 3310
3311 3312
3313 3314
3315 3316
3317 3318
3319 3320
3321 3322
3323 3324
3325 3326
3327 3328
3329 3330
3331 3332
3333 3334
3335 3336
3337 3338
3339 3340
3341 3342
3343 3344
3345 3346
3347 3348
3349 3350
3351 3352
3353 3354
3355 3356
3357 3358
3359 3360
3361 3362
3363 3364
3365 3366
3367 3368
3369 3370
3371 3372
3373 3374
3375 3376
3377 3378
3379 3380
3381 3382
3383 3384
3385 3386
3387 3388
3389 3390
3391 3392
3393 3394
3395 3396
3397 3398
3399 3400
3401 3402
3403 3404
3405 3406
3407 3408
3409 3410
3411 3412
3413 3414
3415 3416
3417 3418
3419 3420
3421 3422
3423 3424
3425 3426
3427 3428
3429 3430
3431 3432
3433 3434
3435 3436
3437 3438
3439 3440
3441 3442
3443 3444
3445 3446
3447 3448
3449 3450
3451 3452
3453 3454
3455 3456
3457 3458
3459 3460
3461 3462
3463 3464
3465 3466
3467 3468
3469 3470
3471 3472
3473 3474
3475 3476
3477 3478
3479 3480
3481 3482
3483 3484
3485 3486
      </DataArray>
      <DataArray type="Int32" Name="offsets" format="ascii">
6
12
18
24
30
36
42
48
54
60
66
72
78
84
90
96
102
108
114
120
126
132
138
144
150
156
162
168
174
180
186
192
198
204
210
216
222
228
234
240
246
252
258
264
270
276
282
288
294
300
306
312
318
324
330
336
342
348
354
360
366
372
378
384
390
396
402
408
414
420
426
432
438
444
450
456
462
468
474
480
486
492
498
504
510
516
522
528
534
540
546
552
558
564
570
576
582
588
594
600
606
612
618
624
630
636
642
648
654
660
666
672
678
684
690
696
702
708
714
720
726
732
738
744
750
756
762
768
774
780
786
792
798
804
810
816
822
828
834
840
846
852
858
864
870
876
882
888
894
900
906
912
918
924
930
936
942
948
954
960
966
972
978
984
990
996
1002
1008
1014
1020
1026
1032
1038
1044
1050
1056
1062
1068
1074
1080
1086
1092
1098
1104
1110
1116
1122
1128
1134
1140
1146
1152
1158
1164
1170
1176
1182
1188
1194
1200
1206
1212
1218
1224
1230
1236
1242
1248
1254
1260
1266
1272
1278
1284
1290
1296
1302
1308
1314
1320
1326
1332
1338
1344
1350
1356
1362
1368
1374
1380
1386
1392
1398
1404
1410
1416
1422
1428
1434
1440
1446
1452
1458
1464
1470
1476
1482
1488
1494
1500
1506
1512
1518
1524
1530
1536
1542
1548
1554
1560
1566
1572
1578
1584
1590
1596
1602
1608
1614
1620
1626
1632
1638
1644
1650
1656
1662
1668
1674
1680
1686
1692
1698
1704
1710
1716
1722
1728
1734
1740
1746
1752
1758
1764
1770
1776
1782
1788
1794
1800
1806
1812
1818
1824
1830
1836
1842
1848
1854
1860
1866
1872
1878
1884
1890
1896
1902
1908
1914
1920
1926
1932
1938
1944
1950
1956
1962
1968
1974
1980
1986
1992
1998
2004
2010
2016
2022
2028
2034
2040
2046
2052
2058
2064
2070
2076
2082
2088
2094
2100
2106
2112
2118
2124
2130
2136
2142
2148
2154
2160
2166
2172
2178
2184
2190
2196
2202
2208
2214
2220
2226
2232
2238
2244
2250
2256
2262
2268
2274
2280
2286
2292
2298
2304
2310
2316
2322
2328
2334
2340
2346
2352
2358
2364
2370
2376
2382
2388
2394
2400
2406
2412
2418
2424
2430
2436
2442
2448
2454
2460
2466
2472
2478
2484
2490
2496
2502
2508
2514
2520
2526
2532
2538
2544
2550
2556
2562
2568
2574
2580
2586
2592
2598
2604
2610
2616
2622
2628
2634
2640
2646
2652
2658
2664
2670
2676
2682
2688
2694
2700
2706
2712
2718
2724
2730
2736
2742
2748
2754
2760
2766
2772
2778
2784
2790
2796
2802
2808
2814
2820
2826
2832
2838
2844
2850
2856
2862
2868
2874
2880
2886
2892
2898
2904
2910
2916
2922
2928
2934
2940
2946
2952
2958
2964
2970
2976
2982
2988
2994
3000
3006
3012
3018
3024
3030
3036
3042
3048
3054
3060
3066
3072
3078
3084
3090
3096
3102
3108
3114
3120
3126
3132
3138
3144
3150
3156
3162
3168
3174
3180
3186
3192
3198
3204
3210
3216
3222
3228
3234
3240
3246
3252
3258
3264
3270
3276
3282
3288
3294
3300
3306
3312
3318
3324
3326
3328
3330
3332
3334
3336
3338
3340
3342
3344
3346
3348
3350
3352
3354
3356
3358
3360
3362
3364
3366
3368
3370
3372
3374
3376
3378
3380
3382
3384
3386
3388
3390
3392
3394
3396
3398
3400
3402
3404
3406
3408
3410
3412
3414
3416
3418
3420
3422
3424
3426
3428
3430
3432
3434
3436
3438
3440
3442
3444
3446
3448
3450
3452
3454
3456
3458
3460
3462
3464
3466
3468
3470
3472
3474
3476
3478
3480
3482
3484
3486
3488
3490
3492
3494
3496
3498
3500
3502
3504
3506
3508
3510
3512
3514
3516
3518
3520
3522
3524
3526
3528
3530
3532
3534
3536
3538
3540
3542
3544
3546
3548
3550
3552
3554
3556
3558
3560
3562
3564
3566
3568
3570
3572
3574
3576
3578
3580
3582
3584
3586
3588
3590
3592
3594
3596
3598
3600
3602
3604
3606
3608
3610
3612
3614
3616
3618
3620
3622
3624
3626
3628
3630
3632
3634
3636
3638
3640
3642
3644
3646
3648
3650
3652
3654
3656
3658
3660
3662
3664
3666
3668
3670
3672
3674
3676
3678
3680
3682
3684
3686
3688
3690
3692
3694
3696
3698
3700
3702
3704
3706
3708
3710
3712
3714
3716
3718
3720
3722
3724
3726
3728
3730
3732
3734
3736
3738
3740
3742
3744
3746
3748
3750
3752
3754
3756
3758
3760
3762
3764
3766
3768
3770
3772
3774
3776
3778
3780
3782
3784
3786
3788
3790
3792
3794
3796
3798
3800
3802
3804
3806
3808
3810
3812
3814
3816
3818
3820
3822
3824
3826
3828
3830
3832
3834
3836
3838
3840
3842
3844
3846
3848
3850
3852
3854
3856
3858
3860
3862
3864
3866
3868
3870
3872
3874
3876
3878
3880
3882
3884
3886
3888
3890
3892
3894
3896
3898
3900
3902
3904
3906
3908
3910
3912
3914
3916
3918
3920
3922
3924
3926
3928
3930
3932
3934
3936
3938
3940
3942
3944
3946
3948
3950
3952
3954
3956
3958
3960
3962
3964
3966
3968
3970
3972
3974
3976
3978
3980
3982
3984
3986
3988
3990
3992
3994
3996
3998
4000
4002
4004
4006
4008
4010
4012
4014
4016
4018
4020
4022
4024
4026
4028
4030
4032
4034
4036
4038
4040
4042
4044
4046
4048
4050
4052
4054
4056
4058
4060
4062
4064
4066
4068
4070
4072
4074
4076
4078
4080
4082
4084
4086
4088
4090
4092
4094
4096
4098
4100
4102
4104
4106
4108
4110
4112
4114
4116
4118
4120
4122
4124
4126
4128
4130
4132
4134
4136
4138
4140
4142
4144
4146
4148
4150
4152
4154
4156
4158
4160
4162
4164
4166
4168
4170
4172
4174
4176
4178
4180
4182
4184
4186
4188
4190
4192
4194
4196
4198
4200
4202
4204
4206
4208
4210
4212
4214
4216
4218
4220
4222
4224
4226
4228
4230
4232
4234
4236
4238
4240
4242
4244
4246
4248
4250
4252
4254
4256
4258
4260
4262
4264
4266
4268
4270
4272
4274
4276
4278
4280
4282
4284
4286
4288
4290
4292
4294
4296
4298
4300
4302
4304
4306
4308
4310
4312
4314
4316
4318
4320
4322
4324
4326
4328
4330
4332
4334
4336
4338
4340
4342
4344
4346
4348
4350
4352
4354
4356
4358
4360
4362
4364
4366
4368
4370
4372
4374
4376
4378
4380
4382
4384
4386
4388
4390
4392
4394
4396
4398
4400
4402
4404
4406
4408
4410
4412
4414
4416
4418
4420
4422
4424
4426
4428
4430
4432
4434
4436
4438
4440
4442
4444
4446
4448
4450
4452
4454
4456
4458
4460
4462
4464
4466
4468
4470
4472
4474
4476
4478
4480
4482
4484
4486
4488
4490
4492
4494
4496
4498
4500
4502
4504
4506
4508
4510
4512
4514
4516
4518
4520
4522
4524
4526
4528
4530
4532
4534
4536
4538
4540
4542
4544
4546
4548
4550
4552
4554
4556
4558
4560
4562
4564
4566
4568
4570
4572
4574
4576
4578
4580
4582
4584
4586
4588
4590
4592
4594
4596
4598
4600
4602
4604
4606
4608
4610
4612
4614
4616
4618
4620
4622
4624
4626
4628
4630
4632
4634
4636
4638
4640
4642
4644
4646
4648
4650
4652
4654
4656
4658
4660
4662
4664
4666
4668
4670
4672
4674
4676
4678
4680
4682
4684
4686
4688
4690
4692
4694
4696
4698
4700
4702
4704
4706
4708
4710
4712
4714
4716
4718
4720
4722
4724
4726
4728
4730
4732
4734
4736
4738
4740
4742
4744
4746
4748
4750
4752
4754
4756
4758
4760
4762
4764
4766
4768
4770
4772
4774
4776
4778
4780
4782
4784
4786
4788
4790
4792
4794
4796
4798
4800
4802
4804
4806
4808
4810
4812
4814
4816
4818
4820
4822
4824
4826
4828
4830
4832
4834
4836
4838
4840
4842
4844
4846
4848
4850
4852
4854
4856
4858
4860
4862
4864
4866
4868
4870
4872
4874
4876
4878
4880
4882
4884
4886
4888
4890
4892
4894
4896
4898
4900
4902
4904
4906
4908
4910
4912
4914
4916
4918
4920
4922
4924
4926
4928
4930
4932
4934
4936
4938
4940
4942
4944
4946
4948
4950
4952
4954
4956
4958
4960
4962
4964
4966
4968
4970
4972
4974
4976
4978
4980
4982
4984
4986
4988
4990
4992
4994
4996
4998
5000
5002
5004
5006
5008
5010
5012
5014
5016
5018
5020
5022
5024
5026
5028
5030
5032
5034
5036
5038
5040
5042
5044
5046
5048
5050
5052
5054
5056
5058
5060
5062
5064
5066
5068
5070
5072
5074
5076
5078
5080
5082
5084
5086
5088
5090
5092
5094
5096
5098
5100
5102
5104
5106
5108
5110
5112
5114
5116
5118
5120
5122
5124
5126
5128
5130
5132
5134
5136
5138
5140
5142
5144
5146
5148
5150
5152
5154
5156
5158
5160
5162
5164
5166
5168
5170
5172
5174
5176
5178
5180
5182
5184
5186
5188
5190
5192
5194
5196
5198
5200
5202
5204
5206
5208
5210
5212
5214
5216
5218
5220
5222
5224
5226
5228
5230
5232
5234
5236
5238
5240
5242
5244
5246
5248
5250
5252
5254
5256
5258
5260
5262
5264
5266
5268
5270
5272
5274
5276
5278
5280
5282
5284
5286
5288
5290
5292
5294
5296
5298
5300
5302
5304
5306
5308
5310
5312
5314
5316
5318
5320
5322
5324
5326
5328
5330
5332
5334
5336
5338
5340
5342
5344
5346
5348
5350
5352
5354
5356
5358
5360
5362
5364
5366
5368
5370
5372
5374
5376
5378
5380
5382
5384
5386
5388
5390
5392
5394
5396
5398
5400
5402
5404
5406
5408
5410
5412
5414
5416
5418
5420
5422
5424
5426
5428
5430
5432
5434
5436
5438
5440
5442
5444
5446
5448
5450
5452
5454
5456
5458
5460
5462
5464
5466
5468
5470
5472
5474
5476
5478
5480
5482
5484
5486
5488
5490
5492
5494
5496
5498
5500
5502
5504
5506
5508
5510
5512
5514
5516
5518
5520
5522
5524
5526
5528
5530
5532
5534
5536
5538
5540
5542
5544
5546
5548
5550
5552
5554
5556
5558
5560
5562
5564
5566
5568
5570
5572
5574
5576
5578
5580
5582
5584
5586
5588
5590
5592
5594
5596
5598
5600
5602
5604
5606
5608
5610
5612
      </DataArray>
      <DataArray type="UInt8" Name="types" format="ascii">
69
69
69
69
69
69
69
69
69
69
69
69
69
69
69
69
69
69
69
69
69
69
69
69
69
69
69
69
69
69
69
69
69
69
69
69
69
69
69
69
69
69
69
69
69
69
69
69
69
69
69
69
69
69
69
69
69
69
69
69
69
69
69
69
69
69
69
69
69
69
69
69
69
69
69
69
69
69
69
69
69
69
69
69
69
69
69
69
69
69
69
69
69
69
69
69
69
69
69
69
69
69
69
69
69
69
69
69
69
69
69
69
69
69
69
69
69
69
69
69
69
69
69
69
69
69
69
69
69
69
69
69
69
69
69
69
69
69
69
69
69
69
69
69
69
69
69
69
69
69
69
69
69
69
69
69
69
69
69
69
69
69
69
69
69
69
69
69
69
69
69
69
69
69
69
69
69
69
69
69
69
69
69
69
69
69
69
69
69
69
69
69
69
69
69
69
69
69
69
69
69
69
69
69
69
69
69
69
69
69
69
69
69
69
69
69
69
69
69
69
69
69
69
69
69
69
69
69
69
69
69
69
69
69
69
69
69
69
69
69
69
69
69
69
69
69
69
69
69
69
69
69
69
69
69
69
69
69
69
69
69
69
69
69
69
69
69
69
69
69
69
69
69
69
69
69
69
69
69
69
69
69
69
69
69
69
69
69
69
69
69
69
69
69
69
69
69
69
69
69
69
69
69
69
69
69
69
69
69
69
69
69
69
69
69
69
69
69
69
69
69
69
69
69
69
69
69
69
69
69
69
69
69
69
69
69
69
69
69
69
69
69
69
69
69
69
69
69
69
69
69
69
69
69
69
69
69
69
69
69
69
69
69
69
69
69
69
69
69
69
69
69
69
69
69
69
69
69
69
69
69
69
69
69
69
69
69
69
69
69
69
69
69
69
69
69
69
69
69
69
69
69
69
69
69
69
69
69
69
69
69
69
69
69
69
69
69
69
69
69
69
69
69
69
69
69
69
69
69
69
69
69
69
69
69
69
69
69
69
69
69
69
69
69
69
69
69
69
69
69
69
69
69
69
69
69
69
69
69
69
69
69
69
69
69
69
69
69
69
69
69
69
69
69
69
69
69
69
69
69
69
69
69
69
69
69
69
69
69
69
69
69
69
69
69
69
69
69
69
69
69
69
69
69
69
69
69
69
69
69
69
69
69
69
69
69
69
69
69
69
69
69
69
69
69
69
69
69
69
69
69
69
69
69
69
69
69
69
69
69
69
69
69
69
69
69
69
69
69
69
69
69
69
69
3
3
3
3
3
3
3
3
3
3
3
3
3
3
3
3
3
3
3
3
3
3
3
3
3
3
3
3
3
3
3
3
3
3
3
3
3
3
3
3
3
3
3
3
3
3
3
3
3
3
3
3
3
3
3
3
3
3
3
3
3
3
3
3
3
3
3
3
3
3
3
3
3
3
3
3
3
3
3
3
3
3
3
3
3
3
3
3
3
3
3
3
3
3
3
3
3
3
3
3
3
3
3
3
3
3
3
3
3
3
3
3
3
3
3
3
3
3
3
3
3
3
3
3
3
3
3
3
3
3
3
3
3
3
3
3
3
3
3
3
3
3
3
3
3
3
3
3
3
3
3
3
3
3
3
3
3
3
3
3
3
3
3
3
3
3
3
3
3
3
3
3
3
3
3
3
3
3
3
3
3
3
3
3
3
3
3
3
3
3
3
3
3
3
3
3
3
3
3
3
3
3
3
3
3
3
3
3
3
3
3
3
3
3
3
3
3
3
3
3
3
3
3
3
3
3
3
3
3
3
3
3
3
3
3
3
3
3
3
3
3
3
3
3
3
3
3
3
3
3
3
3
3
3
3
3
3
3
3
3
3
3
3
3
3
3
3
3
3
3
3
3
3
3
3
3
3
3
3
3
3
3
3
3
3
3
3
3
3
3
3
3
3
3
3
3
3
3
3
3
3
3
3
3
3
3
3
3
3
3
3
3
3
3
3
3
3
3
3
3
3
3
3
3
3
3
3
3
3
3
3
3
3
3
3
3
3
3
3
3
3
3
3
3
3
3
3
3
3
3
3
3
3
3
3
3
3
3
3
3
3
3
3
3
3
3
3
3
3
3
3
3
3
3
3
3
3
3
3
3
3
3
3
3
3
3
3
3
3
3
3
3
3
3
3
3
3
3
3
3
3
3
3
3
3
3
3
3
3
3
3
3
3
3
3
3
3
3
3
3
3
3
3
3
3
3
3
3
3
3
3
3
3
3
3
3
3
3
3
3
3
3
3
3
3
3
3
3
3
3
3
3
3
3
3
3
3
3
3
3
3
3
3
3
3
3
3
3
3
3
3
3
3
3
3
3
3
3
3
3
3
3
3
3
3
3
3
3
3
3
3
3
3
3
3
3
3
3
3
3
3
3
3
3
3
3
3
3
3
3
3
3
3
3
3
3
3
3
3
3
3
3
3
3
3
3
3
3
3
3
3
3
3
3
3
3
3
3
3
3
3
3
3
3
3
3
3
3
3
3
3
3
3
3
3
3
3
3
3
3
3
3
3
3
3
3
3
3
3
3
3
3
3
3
3
3
3
3
3
3
3
3
3
3
3
3
3
3
3
3
3
3
3
3
3
3
3
3
3
3
3
3
3
3
3
3
3
3
3
3
3
3
3
3
3
3
3
3
3
3
3
3
3
3
3
3
3
3
3
3
3
3
3
3
3
3
3
3
3
3
3
3
3
3
3
3
3
3
3
3
3
3
3
3
3
3
3
3
3
3
3
3
3
3
3
3
3
3
3
3
3
3
3
3
3
3
3
3
3
3
3
3
3
3
3
3
3
3
3
3
3
3
3
3
3
3
3
3
3
3
3
3
3
3
3
3
3
3
3
3
3
3
3
3
3
3
3
3
3
3
3
3
3
3
3
3
3
3
3
3
3
3
3
3
3
3
3
3
3
3
3
3
3
3
3
3
3
3
3
3
3
3
3
3
3
3
3
3
3
3
3
3
3
3
3
3
3
3
3
3
3
3
3
3
3
3
3
3
3
3
3
3
3
3
3
3
3
3
3
3
3
3
3
3
3
3
3
3
3
3
3
3
3
3
3
3
3
3
3
3
3
3
3
3
3
3
3
3
3
3
3
3
3
3
3
3
3
3
3
3
3
3
3
3
3
3
3
3
3
3
3
3
3
3
3
3
3
3
3
3
3
3
3
3
3
3
3
3
3
3
3
3
3
3
3
3
3
3
3
3
3
3
3
3
3
3
3
3
3
3
3
3
3
3
3
3
3
3
3
3
3
3
3
3
3
3
3
3
3
3
3
3
3
3
3
3
3
3
3
3
3
3
3
3
3
3
3
3
3
3
3
3
3
3
3
3
3
3
3
3
3
3
3
3
3
3
3
3
3
3
3
3
3
3
3
3
3
3
3
3
3
3
3
3
3
3
3
3
3
3
3
3
3
3
3
3
3
3
3
3
3
3
3
3
3
3
3
3
3
3
3
3
3
3
3
3
3
3
3
3
3
3
3
3
3
3
3
3
3
3
3
3
3
3
3
3
3
3
3
3
3
3
3
3
3
3
3
3
3
3
3
3
3
3
3
3
3
3
3
3
3
3
3
3
3
3
3
3
3
3
3
3
3
3
3
3
3
3
3
3
3
3
3
3
3
3
3
3
3
3
3
3
3
3
3
3
3
3
3
3
3
3
3
3
3
3
3
3
3
3
3
3
3
3
3
3
3
3
3
3
3
3
3
3
3
3
3
3
3
3
3
3
3
3
3
3
3
3
3
3
3
3
3
3
3
3
3
3
3
3
3
3
3
3
3
3
3
3
3
3
3
3
3
3
3
3
3
3
3
3
3
3
3
3
      </DataArray>
    </Cells>
    <PointData>
      <DataArray type="Float64" NumberOfComponents="2" Name="Displacement" format="ascii">
-0.00111858 -0.345829
0.00164697 -0.346684
-0.000292774 -0.345428
0.000285393 -0.344987
0.000591394 -0.344684
0.000803784 -0.344428
0.000933819 -0.34424
0.00101695 -0.344109
0.00104945 -0.343997
0.00105041 -0.343919
0.00102029 -0.343872
0.000968042 -0.343851
0.000893242 -0.343833
0.000803447 -0.343832
0.000700074 -0.343846
0.000588872 -0.343873
0.000470714 -0.343897
0.000351102 -0.343932
0.000232903 -0.343977
0.000120061 -0.344034
1.68518e-05 -0.344091
-7.42971e-05 -0.344165
-0.000148714 -0.344256
-0.000202944 -0.344369
-0.000227632 -0.344491
-0.000223691 -0.344649
-0.000181078 -0.344847
-9.55992e-05 -0.345094
8.65691e-05 -0.34536
0.000347355 -0.345719
0.000837209 -0.346214
-0.00607873 -0.345147
-0.0049293 -0.345194
-0.00378673 -0.345282
-0.00260133 -0.345481
-0.0989728 -0.437585
-0.00719226 -0.34515
-0.00830862 -0.345178
-0.00993709 -0.345249
-0.0115811 -0.345361
-0.013967 -0.34559
-0.0163836 -0.345896
-0.0199305 -0.346476
-0.0235238 -0.347215
-0.0287783 -0.348575
-0.0340693 -0.350269
-0.0378857 -0.351698
-0.0416846 -0.3533
-0.0454455 -0.355084
-0.049153 -0.357031
-0.054388 -0.360131
-0.0594496 -0.363543
-0.064286 -0.367253
-0.0513563 -0.485392
-0.0981278 -0.446378
-0.0962884 -0.454228
-0.0936953 -0.461052
-0.0905008 -0.466864
-0.0869231 -0.471737
0.065205 -0.30318
-0.0427259 -0.484206
-0.0325043 -0.481066
-0.0205811 -0.475655
0 0
-0.0241615 -0.0218914
-0.034111 -0.0362778
-0.0354031 -0.0478789
-0.0293468 -0.0620989
-0.0210836 -0.0759261
-0.000290573 -0.329493
0 0
0 0
0 0
0 0
0.01917 -0.319231
0.0385978 -0.281751
0.0506994 -0.203105
-0.064522 -0.303924
0.0242575 -0.0218588
0.034261 -0.0364058
0.0355782 -0.0480783
0.0295411 -0.0623605
0.0212781 -0.0761955
0.051504 -0.485772
0.0428722 -0.484578
0.0327092 -0.481426
0.0207506 -0.476084
0.0989193 -0.438186
0.0583742 -0.485934
0.0643235 -0.485168
0.0696352 -0.483861
0.0744022 -0.481879
0.078857 -0.479402
0.00643517 -0.346025
0.0986087 -0.428956
0.0969985 -0.419129
0.0939442 -0.408913
0.0893885 -0.398592
0.0853236 -0.391555
0.0805432 -0.384703
0.0750537 -0.378162
0.0689317 -0.372008
0.0643467 -0.368048
0.0595243 -0.364353
0.0544774 -0.360951
0.0492575 -0.35786
0.0418212 -0.354156
0.034233 -0.351108
0.0289626 -0.349433
0.0237423 -0.34809
0.0201639 -0.347352
0.00532002 -0.346086
0.00420953 -0.346185
0.00303269 -0.346385
-0.00668645 -0.335458
0.0295444 -0.334033
0.0231478 -0.322205
0.0391828 -0.261311
-0.0395356 -0.276806
-0.00609035 -0.361693
-0.011971 -0.330381
-0.0278159 -0.409678
-0.00483864 -0.350752
-0.081559 -0.422552
-0.0256248 -0.0466159
0.0251841 -0.0475094
-0.0429437 -0.391287
-0.0156136 -0.356402
-0.00474982 -0.370573
-0.00660531 -0.369905
0.00266968 -0.368889
-0.00873539 -0.369342
0.00711381 -0.371201
0.00374024 -0.359386
-0.00170642 -0.36458
0.00126772 -0.366043
-0.00518447 -0.359476
-0.0126434 -0.371168
-0.0178938 -0.374959
-0.0120845 -0.376341
0.0058524 -0.34169
-0.00459583 -0.342059
-0.00773223 -0.342004
0.00731444 -0.374688
0.0113889 -0.37363
-0.013165 -0.351746
0.0125741 -0.351158
-0.00129145 -0.369219
0.00404726 -0.362967
0.0104453 -0.35492
-0.0120533 -0.354384
0.00117924 -0.368691
0.00501126 -0.342436
-0.00130398 -0.342337
-0.00519618 -0.342863
-0.00756929 -0.36588
0.0107675 -0.370351
0.0111467 -0.343534
0.0108554 -0.348915
0.00160207 -0.359246
-0.00379816 -0.361512
0.00439625 -0.36375
-0.000982775 -0.361552
-0.0114375 -0.34975
-0.011283 -0.344023
-0.0166832 -0.370866
-0.0193794 -0.381512
0.0140581 -0.338894
0.00558182 -0.339997
-0.00263793 -0.341547
-0.0125147 -0.341478
-0.0250157 -0.388522
-0.0220857 -0.390321
0.0185596 -0.385668
0.017432 -0.379609
0.0216723 -0.377677
0.0211052 -0.374275
-0.0172254 -0.338653
-0.0173974 -0.346091
0.0165278 -0.345728
0.0242779 -0.335332
-0.0113755 -0.381595
0.00198376 -0.367551
0.0144814 -0.352055
-0.00164229 -0.367082
0.0167362 -0.387252
0.00598225 -0.342893
0.00379444 -0.342386
0.000310818 -0.342595
0.00180234 -0.342425
-0.00108803 -0.343035
-0.00282945 -0.343238
-0.0017938 -0.343233
-0.00493386 -0.343433
-0.00751481 -0.362891
-0.0134474 -0.365869
0.0172755 -0.368954
0.00943858 -0.365533
0.00663084 -0.34337
0.00782878 -0.343853
0.00997572 -0.345355
0.0094256 -0.347481
0.0055194 -0.352741
0.00146867 -0.357009
-0.00181635 -0.357971
-0.00582993 -0.35372
-0.00985532 -0.34833
-0.0100183 -0.346203
-0.00730622 -0.344335
-0.00581601 -0.343835
-0.0187818 -0.369074
-0.0294536 -0.385298
0.0204898 -0.33118
-0.00144484 -0.339589
-0.0113742 -0.338032
-0.0354251 -0.402244
0.0303396 -0.399808
0.02737 -0.383329
0.0224145 -0.370514
-0.0269851 -0.334083
0.0320455 -0.328889
-0.0187148 -0.39298
0.0194636 -0.346904
-0.0352157 -0.324569
-0.0153876 -0.351685
0.00517473 -0.375983
0.00431795 -0.343354
0.00307048 -0.342976
0.00112281 -0.343095
-0.000504525 -0.343415
-0.00174318 -0.343615
-0.00316224 -0.34394
-0.00945135 -0.361373
0.010591 -0.362479
0.00560169 -0.34444
0.00592825 -0.347464
0.000883937 -0.354194
-0.00119599 -0.354984
-0.00572353 -0.348259
-0.00477774 -0.345007
-0.0181449 -0.360723
-0.0221027 -0.36554
-0.0252518 -0.371058
-0.0343398 -0.379237
-0.054305 -0.40578
-0.05115 -0.413771
0.0367108 -0.295585
0.00727621 -0.332419
-0.029922 -0.312874
-0.046578 -0.418658
0.0442916 -0.417871
0.0438685 -0.406897
0.0409464 -0.394568
0.0354147 -0.383521
0.0263995 -0.369743
0.0248278 -0.363494
-0.0369096 -0.313721
0.0419063 -0.305804
-0.0394666 -0.418619
-0.0096174 -0.387583
0.0388247 -0.318036
0.0263715 -0.40875
0.0438724 -0.427796
-0.0259982 -0.339043
0.00645719 -0.379329
0.00307861 -0.343911
0.00360745 -0.344357
0.00247511 -0.343433
0.00297628 -0.34355
0.00138033 -0.343412
0.00199138 -0.343367
7.72528e-05 -0.343621
0.000664847 -0.343528
-0.000783952 -0.343865
-0.000314164 -0.343772
-0.00183167 -0.344081
-0.00133865 -0.34392
-0.00259851 -0.344864
-0.00209124 -0.344401
-0.00309944 -0.355294
-0.00692182 -0.357592
-0.0129796 -0.359825
0.0168603 -0.359347
0.0127991 -0.35977
0.00516007 -0.357391
0.0020617 -0.355974
0.00437823 -0.345217
0.00430064 -0.346438
0.00304312 -0.349183
0.00135576 -0.351207
-0.00209167 -0.351994
-0.00306719 -0.349976
-0.00390261 -0.347119
-0.00346945 -0.34577
-0.0183163 -0.353546
-0.0248877 -0.361746
-0.0390246 -0.372572
-0.0555807 -0.393752
-0.0669317 -0.42137
0.0230587 -0.191773
0.0195381 -0.31462
0.00126278 -0.33263
-0.0143732 -0.324328
-0.0270459 -0.20698
-0.0593713 -0.439292
0.0610137 -0.441338
0.0564036 -0.405564
0.0342946 -0.37447
0.0232209 -0.356959
0.00295393 -0.0844563
-0.0344446 -0.240391
-0.00497187 -0.0807842
0.029796 -0.227287
-0.0344866 -0.43064
0.0299042 -0.331837
0.0516599 -0.287124
0.0439404 -0.441072
-0.0499617 -0.295994
-0.0145215 -0.352461
0.00205514 -0.344314
0.00174976 -0.343807
0.00123907 -0.343701
0.000506678 -0.343802
-0.000210782 -0.343972
-0.000791859 -0.344237
-0.00115944 -0.344805
-0.00626841 -0.353793
-0.0129382 -0.353408
0.0111021 -0.354263
0.00386185 -0.353736
0.0020271 -0.345927
-0.000235892 -0.34957
-0.00258642 -0.349898
0.00217424 -0.351213
-0.000378794 -0.350328
-0.00136435 -0.346416
-0.011676 -0.349731
0.0117321 -0.351439
-0.019549 -0.348912
-0.0221901 -0.352245
-0.0273775 -0.353906
-0.0311911 -0.359259
-0.0397612 -0.362368
-0.0475025 -0.370575
-0.0568365 -0.378414
-0.0675382 -0.391312
-0.0780217 -0.404486
0.0172046 -0.203311
0.0064693 -0.305609
-0.00608515 -0.312931
-0.0164203 -0.218902
-0.0813463 -0.43813
-0.0780077 -0.45083
-0.072766 -0.460992
-0.0677965 -0.471302
-0.0531426 -0.464996
0.0563359 -0.467971
0.0681867 -0.470795
0.0742027 -0.462268
0.0785052 -0.450088
0.0814105 -0.434337
0.0754521 -0.415126
0.0681374 -0.396467
0.0603213 -0.380438
0.0471078 -0.371688
0.0401764 -0.359695
0.0327484 -0.356224
0.0274768 -0.354539
0.0194367 -0.350912
0.0238934 -0.0844448
-0.00104462 -0.153117
-0.0274308 -0.22525
-0.0242179 -0.082723
0.0227022 -0.211788
0.000127045 -0.148691
-0.0364132 -0.456725
-0.0159511 -0.449049
0.0295608 -0.342548
0.0417465 -0.459904
-0.0107899 -0.370632
0.0238531 -0.444975
0.000945073 -0.344891
0.000838664 -0.345331
0.00113226 -0.344449
0.00125917 -0.344101
0.00121503 -0.344255
0.00127421 -0.343913
0.00114692 -0.343831
0.00122142 -0.343865
0.000944712 -0.343818
0.000684606 -0.343849
0.000819636 -0.343832
0.000401622 -0.343912
0.000114975 -0.343991
0.000257766 -0.343951
-0.000133155 -0.344096
-0.000353799 -0.344245
-0.000250131 -0.344167
-0.000482191 -0.34445
-0.000524785 -0.344769
-0.000518034 -0.344598
-0.000394039 -0.345219
-0.000123433 -0.345931
-0.000282253 -0.345541
-0.0136033 -0.347888
-0.016019 -0.348206
0.0159385 -0.350173
0.0135412 -0.349826
-0.00903648 -0.35251
-0.00524739 -0.348455
0.00763016 -0.352435
0.00538963 -0.352111
0.00585178 -0.349652
0.000189953 -0.346846
-0.000324853 -0.347755
0.00073033 -0.348866
0.00010575 -0.347607
-0.00963096 -0.347359
0.0100297 -0.348094
-0.00687857 -0.34722
-0.00800866 -0.347251
0.00842411 -0.347985
0.00730854 -0.347953
-0.00432476 -0.346672
-0.00199048 -0.34679
-0.00320225 -0.346715
0.00486708 -0.348034
0.00377243 -0.348033
0.00266039 -0.348048
0.00357929 -0.349496
-0.00277958 -0.347807
0.00822766 -0.349742
-0.00774096 -0.349115
-0.00139281 -0.348316
0.00153582 -0.34764
0.00721066 -0.354815
-0.0104437 -0.355823
0.0153154 -0.353268
-0.0156836 -0.350382
-0.00128701 -0.345383
-0.000992754 -0.344465
-0.000521359 -0.344087
0.000137074 -0.343886
0.000888585 -0.343737
0.00153906 -0.343716
0.00187026 -0.344021
0.00232665 -0.3449
0.0275204 -0.422874
-0.0116236 -0.403988
-0.00193257 -0.139335
-0.00134075 -0.147391
0.0314209 -0.360884
0.048728 -0.387062
0.0629799 -0.42622
0.0589331 -0.453498
-0.0517635 -0.444138
-0.0640911 -0.43174
-0.0297661 -0.283177
0.0316925 -0.264846
-0.0676371 -0.409139
-0.0457599 -0.381496
-0.0288794 -0.366821
-0.0210234 -0.356738
0.000903252 -0.35261
-0.00242843 -0.351817
-0.0444524 -0.293747
0.0461607 -0.283721
0.00469063 -0.33116
-0.00601268 -0.346065
-0.00484053 -0.351193
0.00463453 -0.350338
0.00660354 -0.345348
0.00334923 -0.35936
0.0187077 -0.365101
-0.015631 -0.36391
-0.00382526 -0.358642
-0.00367071 -0.344371
-0.00257679 -0.343668
-0.000994973 -0.343589
0.000122859 -0.343238
0.00220409 -0.34296
0.00384797 -0.34308
0.00466493 -0.343842
-0.00917005 -0.359126
0.0245002 -0.399512
-0.00543525 -0.378014
-0.0287994 -0.400969
0.0329902 -0.320349
-0.0224195 -0.330572
0.0262602 -0.37605
0.029785 -0.392309
-0.0067003 -0.341101
0.00767711 -0.33644
-0.0397351 -0.398514
-0.0220991 -0.37433
-0.0197722 -0.345945
0.018924 -0.345979
-0.00790757 -0.343104
-0.0143272 -0.345248
-0.00670721 -0.355764
0.00633831 -0.354734
0.0135652 -0.344562
0.008571 -0.342708
0.0161317 -0.372235
-0.0114673 -0.367387
-0.00275934 -0.342812
0.000717922 -0.341828
0.00597595 -0.3746
0.00777403 -0.360119
0.00873113 -0.374474
-0.0103969 -0.377231
0.005694 -0.367952
-0.00385489 -0.364131
-0.00307064 -0.36337
0.000373558 -0.36449
-0.0139828 -0.374875
-0.0306234 -0.345419
0.00698699 -0.466916
-0.0155198 -0.406046
0.00451467 -0.425631
-0.000629573 -0.460786
0.010051 -0.399147
-0.006823 -0.466579
0.0442982 -0.326794
0.0220913 -0.381932
0.000882314 -0.460376
0.00252099 -0.4161
0.0105524 -0.372187
0.0108886 -0.179034
0.0258072 -0.208118
0.0142654 -0.171785
0.0416685 -0.247709
-0.0108782 -0.0929444
0.00117789 -0.11372
0.00490471 -0.147012
-0.00190297 -0.145728
0.00849755 -0.174598
-0.0133416 -0.112756
-0.0065993 -0.119968
-0.0193223 -0.0900449
0.0143687 -0.139023
0.0245279 -0.162238
-0.0273942 -0.0721412
-0.0145674 -0.109055
-0.0136813 -0.188239
-0.0145543 -0.174926
-0.0280298 -0.217192
-0.00513601 -0.149805
0.0110336 -0.093224
-0.00110336 -0.114085
-0.0449727 -0.258555
-0.0123299 -0.185264
-0.000233113 -0.151953
0.0127634 -0.115706
0.0193399 -0.0912567
0.00641923 -0.122318
0.0274038 -0.0730864
-0.0143241 -0.139504
-0.0244354 -0.162857
0.0130028 -0.113687
-0.0101242 -0.279396
0.00837512 -0.300245
0.00961135 -0.256396
0.0041241 -0.327832
0 0
0 0
-0.00859278 -0.131569
-0.0248284 -0.255018
-0.0184119 -0.298561
0.010972 -0.268385
-0.00930588 -0.250038
-0.00930378 -0.295279
0.0091778 -0.119564
0 0
-0.0500514 -0.202387
-0.00519371 -0.325954
0.020474 -0.285694
0.0256254 -0.236775
-0.0358177 -0.323956
-0.0365553 -0.325463
-0.0129358 -0.356462
-0.0558546 -0.297291
0.00801432 -0.38512
-0.0386466 -0.319412
-0.0462253 -0.300235
0.0469319 -0.307649
0.0300765 -0.334337
0.0497078 -0.308993
0.00870873 -0.363315
0.0565822 -0.290698
0.049014 -0.287831
0.0441431 -0.309225
0.0426517 -0.263045
0.0435384 -0.261398
0.0262346 -0.221381
0.0137774 -0.184059
0.0401031 -0.258057
-0.0436343 -0.269597
-0.0311153 -0.234188
-0.0465778 -0.271037
-0.0186717 -0.196091
-0.0422585 -0.27026
-0.0133741 -0.149178
-0.0258768 -0.204706
-0.0144845 -0.139011
-0.0325321 -0.247514
0.00474031 -0.0471322
0.00194886 -0.117457
-0.015762 -0.175867
-0.00521102 -0.330913
-0.00419417 -0.329289
-0.0126798 -0.319383
-0.000364562 -0.332509
-0.0229287 -0.308946
-0.00545339 -0.331125
0.00296021 -0.331635
0.00932928 -0.326564
0.0151383 -0.310142
0.00563134 -0.325085
0.0267171 -0.294628
0.0129826 -0.325927
0.00933588 -0.137836
0.0120994 -0.127181
0.023896 -0.188819
-0.00563172 -0.0456918
0.0311994 -0.22905
0.0113268 -0.164511
-0.00465249 -0.111674
-0.0370535 -0.32196
-0.0263346 -0.337675
-0.0115304 -0.356604
-0.017695 -0.349476
0.045109 -0.301966
0.0285901 -0.333475
0.0105139 -0.357463
0.0116847 -0.35565
-0.0412338 -0.310731
-0.0316512 -0.33109
-0.022921 -0.343095
-0.0279321 -0.336302
-0.0315051 -0.329927
-0.0326752 -0.325216
-0.0373013 -0.317969
-0.0257679 -0.331619
-0.0304322 -0.323612
-0.041498 -0.303583
-0.0248066 -0.338882
0.0334158 -0.323947
0.029127 -0.328617
0.0283357 -0.332583
0.0231125 -0.339464
0.0191385 -0.340498
0.0261394 -0.337573
-0.0201983 -0.334932
-0.0222893 -0.336839
-0.0208046 -0.340595
-0.016701 -0.341347
-0.0168954 -0.335125
-0.0146342 -0.338243
-0.011789 -0.34024
-0.00901337 -0.339776
0.00668907 -0.338406
0.00287651 -0.338351
0.00229484 -0.339835
-0.0001664 -0.340818
-0.00438988 -0.340402
0.00287085 -0.341014
0.0192615 -0.337503
0.0232751 -0.332735
0.0174741 -0.335497
0.027086 -0.326681
0.0140638 -0.334332
0.0115325 -0.337562
0.0148085 -0.341019
0.00982369 -0.339461
0.00594733 -0.340877
0.00740172 -0.342035
0.00335349 -0.341735
0.00968168 -0.340587
0.0115505 -0.341022
0.0160189 -0.0242005
0.0156636 -0.0621545
0.0122576 -0.0323536
0.0164506 -0.0912963
0 0
0 0
0.0196053 -0.0195346
0.0331169 -0.0537324
0.0265863 -0.0672818
0.0300756 -0.0391156
-0.0347041 -0.190998
-0.0418424 -0.207677
-0.0302036 -0.0387544
-0.0270425 -0.0659356
-0.0331152 -0.0531306
-0.0180734 -0.0873199
0.0348516 -0.190167
0.0418723 -0.206564
-0.0197265 -0.0194466
-0.0127184 -0.031792
-0.0167968 -0.0604084
-0.0161369 -0.0239605
-0.0389797 -0.281316
-0.0196693 -0.318908
-0.0215105 -0.323919
-0.0138408 -0.327502
-0.0225754 -0.318214
-0.00342363 -0.331927
-0.0309518 -0.299691
-0.0269243 -0.322593
-0.0178715 -0.329798
-0.0364426 -0.296637
-0.0398604 -0.29735
-0.0343359 -0.31164
-0.0423934 -0.283474
-0.0357406 -0.276638
-0.0297313 -0.222364
-0.0389014 -0.258898
-0.035377 -0.246493
0.0324006 -0.229959
0.0360155 -0.244956
0.025273 -0.208426
0.0424292 -0.270654
0.0363226 -0.258628
0.0404021 -0.297945
0.0427924 -0.28545
0.0394958 -0.279149
0.0447418 -0.295028
0.0348867 -0.280963
0.0358565 -0.308778
0.0381733 -0.313305
0.022375 -0.326475
0.0155217 -0.328749
0.0145346 -0.331532
0.0140839 -0.327419
0.00615914 -0.331343
0.007667 -0.334075
0.0290227 -0.320057
0.029159 -0.303937
0.0222876 -0.318075
0.0308748 -0.311321
0.037684 -0.320131
0.0341726 -0.326733
0.0416436 -0.310619
0.0210356 -0.344359
0.0375863 -0.318847
0.031524 -0.330867
0.0240895 -0.341011
-0.00384073 -0.337771
-0.00931542 -0.33679
-0.00626658 -0.339086
-0.0148042 -0.333838
0.00084229 -0.336408
-0.0024162 -0.332977
-0.00947039 -0.332843
7.4743e-05 -0.334366
0.0054051 -0.435452
-0.00724306 -0.434304
-0.0049807 -0.450058
-0.00585575 -0.407989
-0.0150267 -0.42656
-0.0117441 -0.457911
0.00893104 -0.452661
0.0177413 -0.443039
0.0129791 -0.422495
0.0152898 -0.375198
0.00558355 -0.394151
0.011555 -0.400823
-0.00145971 -0.389583
0.0239948 -0.408652
0.0248662 -0.36128
0.0193741 -0.358532
0.0521774 -0.268755
0.0491533 -0.226365
0.0435402 -0.240745
0.0307106 -0.229263
0.0370656 -0.219621
0.055387 -0.254042
-0.0490645 -0.22764
-0.0544217 -0.27619
-0.0448635 -0.247627
-0.0383505 -0.226063
-0.0346125 -0.241383
-0.0544987 -0.255246
-0.0470331 -0.311894
-0.0477195 -0.316092
-0.0342825 -0.331696
-0.0603818 -0.298377
-0.0455283 -0.327118
-0.0200751 -0.358996
-0.0236554 -0.346062
-0.0469161 -0.308526
-0.0525853 -0.29612
-0.000772369 -0.377328
0.00916586 -0.390744
-0.0017316 -0.371774
0.0192629 -0.411877
0.0184293 -0.404021
-0.00332644 -0.367745
-0.0139573 -0.353526
-0.0118416 -0.361339
0.000374254 -0.386037
-0.0378238 -0.32087
-0.0428827 -0.310419
-0.0431834 -0.311465
-0.043296 -0.306502
-0.0455112 -0.296288
-0.047918 -0.297924
-0.0443447 -0.310599
-0.0251881 -0.338479
-0.03079 -0.331229
0.0185556 -0.349761
0.00944546 -0.366275
0.0200016 -0.352126
-0.0022247 -0.383692
0.0299613 -0.337192
0.0301572 -0.33236
0.0196092 -0.346351
0.0481747 -0.31473
0.0567477 -0.303522
0.0549547 -0.300053
0.0544445 -0.315593
0.0614548 -0.294125
0.053926 -0.28853
0.0533744 -0.296926
0.0409682 -0.32323
0.0366025 -0.335267
0.0497614 -0.297186
0.0479029 -0.298963
0.0454447 -0.308247
0.0474614 -0.285342
0.0471082 -0.296158
0.0386927 -0.319268
0.0388266 -0.319866
0.0511905 -0.297694
0.0502252 -0.287295
0.0505463 -0.275641
0.0516472 -0.273616
0.0427916 -0.257145
0.0325651 -0.23638
0.049191 -0.275746
0.0476116 -0.274883
0.0470687 -0.27617
0.0454598 -0.274341
0.0354886 -0.244545
-0.0462852 -0.267563
-0.0547635 -0.282238
-0.0523171 -0.283461
-0.050283 -0.284804
-0.0370635 -0.248949
-0.0479925 -0.282525
-0.0470971 -0.285935
-0.0386284 -0.254617
-0.0452274 -0.28257
-0.0210414 -0.344234
-0.0130638 -0.354514
-0.0189096 -0.347418
-0.0195168 -0.347039
-0.0104158 -0.358006
-0.0263126 -0.33824
0.00974403 -0.359462
0.000212274 -0.372245
-0.00110029 -0.376317
0.00211119 -0.368378
-0.00741693 -0.382023
-0.0108666 -0.394284
0.0197166 -0.345217
0.0200085 -0.34488
0.0112139 -0.356228
0.0200931 -0.344566
0.0030967 -0.366658
0.0293023 -0.332422
0.0348493 -0.324821
0.0246308 -0.339272
0.00667104 -0.361975
0.0167586 -0.349422
0.0261097 -0.338362
0.0307863 -0.33134
-0.00147302 -0.372173
0.0116994 -0.355898
0.0141875 -0.353102
0.00522219 -0.363448
-0.00283422 -0.367255
0.00565328 -0.37741
-0.00300672 -0.366762
0.015771 -0.39024
0.0148815 -0.387575
-0.00236603 -0.367018
-0.00352098 -0.366669
0.00845767 -0.410321
0.014857 -0.435938
0.0179569 -0.423117
0.00600402 -0.448671
0.016588 -0.455454
0.026459 -0.432691
-0.001911 -0.399381
-0.0121171 -0.432818
-0.00136561 -0.439419
-0.00471041 -0.416403
-0.00883269 -0.452929
-0.0116052 -0.385796
-0.0207134 -0.419073
-0.0174317 -0.443544
-0.0350044 -0.365778
-0.0286621 -0.400401
-0.0217291 -0.377793
-0.0267091 -0.431381
-0.0370851 -0.416294
0.0333824 -0.452938
0.0287513 -0.466049
0.0379562 -0.470783
-0.0485958 -0.396077
-0.0565728 -0.363721
0.0472068 -0.475159
0.0354349 -0.442739
0.0429316 -0.361701
0.0313954 -0.358294
0.0321321 -0.386976
0.0267682 -0.431033
0.0370899 -0.41601
-0.0272182 -0.452707
-0.0349681 -0.469647
-0.0247925 -0.467824
-0.0446861 -0.474104
0.0477197 -0.396079
0.0577783 -0.364195
-0.0254726 -0.434085
0.0537261 -0.376069
0.0598131 -0.372632
0.0531783 -0.368346
0.0645167 -0.376459
0.0166384 -0.346773
0.0142396 -0.346472
0.0480597 -0.365054
0.0477704 -0.379599
0.0543471 -0.384131
0.064224 -0.388545
0.0740962 -0.39105
0.0704379 -0.382799
0.0787478 -0.397936
0.0118796 -0.346249
0.0102551 -0.346134
0.0584827 -0.391952
0.0785025 -0.42497
0.0886514 -0.427486
0.0862795 -0.417676
0.0902543 -0.436798
0.00864539 -0.346059
0.00753964 -0.34603
0.0819589 -0.407588
0.0687048 -0.421349
0.0722839 -0.43085
0.0797713 -0.442473
0.0874913 -0.453211
0.0895592 -0.445478
0.0852029 -0.459808
0.083004 -0.476175
0.0869175 -0.472218
0.0712976 -0.43869
0.0711202 -0.466532
0.0758324 -0.474377
0.0791588 -0.470264
0.0716527 -0.477232
0.090486 -0.467371
0.0936696 -0.461575
0.0824968 -0.465714
0.0666654 -0.458576
0.0639511 -0.462861
0.0623739 -0.469539
0.0608426 -0.478109
0.0665701 -0.478441
0.0544194 -0.477287
0.0962526 -0.454783
0.0980809 -0.446942
0.0578286 -0.460476
-0.0607135 -0.468557
-0.0662986 -0.478461
-0.0593711 -0.476932
-0.0714026 -0.47721
-0.082995 -0.47571
-0.0788313 -0.47896
-0.0527929 -0.476012
-0.0528654 -0.45435
-0.060652 -0.459396
-0.0702513 -0.466131
-0.0785073 -0.469546
-0.0755957 -0.47434
-0.0818185 -0.464977
-0.0743531 -0.481459
-0.0695683 -0.483443
-0.0626202 -0.453977
-0.0795222 -0.444669
-0.089403 -0.446977
-0.0871915 -0.453331
-0.0900629 -0.438418
-0.0642264 -0.484758
-0.0582744 -0.485537
-0.0849276 -0.459905
-0.0714857 -0.441767
-0.0727376 -0.435512
-0.0728571 -0.397967
-0.073886 -0.387953
-0.0790581 -0.394641
-0.0680116 -0.38167
-0.0688823 -0.371228
-0.07502 -0.377386
-0.0835853 -0.401441
-0.0727031 -0.407059
-0.0674099 -0.40051
-0.0521771 -0.37449
-0.0533536 -0.367353
-0.0580085 -0.371269
-0.0482187 -0.364057
-0.0805307 -0.38395
-0.0853247 -0.390809
-0.0627352 -0.375108
-0.0512051 -0.380184
-0.0465231 -0.376234
-0.0894097 -0.397872
-0.044384 -0.359878
-0.0406696 -0.357977
-0.0368578 -0.356381
-0.0341896 -0.364895
-0.0939698 -0.408223
-0.0364758 -0.323667
-0.0238115 -0.341835
-0.0258467 -0.337668
0.0507513 -0.455646
0.043315 -0.449825
0.0493909 -0.464194
0.0360776 -0.432673
0.0516111 -0.447879
0.0404144 -0.318993
0.0397701 -0.321866
0.048311 -0.307947
-0.0447082 -0.449841
-0.045326 -0.461028
-0.0360878 -0.443328
-0.0238403 -0.418505
-0.043379 -0.43794
0.043163 -0.262465
0.0337231 -0.239882
-0.0449484 -0.270146
-0.0375936 -0.250632
0.0415092 -0.380721
0.0405656 -0.373393
0.0392161 -0.366222
0.0327274 -0.367862
0.0660253 -0.410688
0.0718133 -0.405964
0.0619585 -0.401551
0.0524878 -0.396392
0.059605 -0.416
0.0681621 -0.452538
0.0761999 -0.456318
0.069805 -0.44647
0.0617116 -0.433881
0.0598944 -0.44726
-0.06886 -0.445937
-0.0752218 -0.456012
-0.0666368 -0.450853
-0.0553866 -0.441656
-0.0615362 -0.435611
-0.0560292 -0.386379
-0.0622237 -0.384891
-0.0614646 -0.392778
-0.0616976 -0.401493
-0.0506859 -0.38762
-0.0393076 -0.36764
-0.0436197 -0.366461
-0.0432114 -0.371698
-0.0423812 -0.377026
-0.0339287 -0.369686
-0.0333621 -0.328044
-0.0324398 -0.329781
0.0353743 -0.419096
0.0357703 -0.425313
0.0439576 -0.433836
0.0271025 -0.414721
0.0519401 -0.441211
0.0345409 -0.413616
0.0252735 -0.403533
0.0370207 -0.32153
0.0413618 -0.313827
0.0420078 -0.385476
0.0347767 -0.379094
0.0301836 -0.375462
0.0308178 -0.379762
0.0422716 -0.400777
0.049896 -0.406725
0.0487233 -0.400184
0.053693 -0.416815
0.044601 -0.391218
0.035244 -0.393776
0.0368711 -0.399591
0.0439082 -0.422626
0.0525407 -0.435338
0.0530644 -0.429907
0.0535239 -0.422849
0.0345642 -0.409513
-0.0428576 -0.418829
-0.0532447 -0.42908
-0.0497613 -0.429844
-0.0554609 -0.42576
-0.0459629 -0.431262
-0.0341435 -0.409513
-0.0378361 -0.410217
-0.0525642 -0.409943
-0.060761 -0.413653
-0.0590566 -0.417956
-0.0609395 -0.407704
-0.0671656 -0.415397
-0.0653397 -0.426698
-0.0578255 -0.422865
-0.0454973 -0.406105
-0.0470047 -0.402407
-0.0399976 -0.380508
-0.0365733 -0.376123
-0.0315226 -0.373066
-0.0281371 -0.37691
0.0176552 -0.397816
0.0166463 -0.393717
0.00709707 -0.381455
0.034147 -0.388947
0.0381268 -0.389036
0.0313128 -0.383611
0.0267453 -0.379754
0.0284737 -0.387856
0.0374252 -0.408788
0.0438758 -0.412407
0.0370318 -0.403788
0.0299146 -0.396114
0.027256 -0.399895
-0.043328 -0.408332
-0.0486862 -0.416374
-0.0410539 -0.410355
-0.0319993 -0.401837
-0.0374365 -0.400568
0.020482 -0.393064
0.011023 -0.381938
0.00549009 -0.375351
0.0112545 -0.38073
-0.00480987 -0.375107
-0.0148646 -0.386894
-0.00840806 -0.380198
-0.0201252 -0.391341
-0.0237309 -0.397349
-0.0122555 -0.386035
-0.00148423 -0.370467
0.0235512 -0.385863
0.0223138 -0.381695
0.0166828 -0.376008
0.0130264 -0.377219
0.017581 -0.386546
0.0235578 -0.393764
0.0244128 -0.392603
0.0241171 -0.389262
0.0122413 -0.38033
-0.0234733 -0.389547
-0.0301902 -0.395254
-0.0287711 -0.396438
-0.0323467 -0.393742
-0.0253683 -0.395481
-0.0161667 -0.383627
-0.0176452 -0.383136
-0.0345725 -0.391824
-0.0271092 -0.387138
-0.0215925 -0.380223
-0.0257095 -0.379749
-0.0167278 -0.386273
-0.0107634 -0.379408
0.0178945 -0.38269
0.0135447 -0.379931
-0.0486643 -0.398515
-0.049207 -0.392731
-0.0547809 -0.399966
-0.0441998 -0.386626
-0.0411841 -0.395105
-0.0317348 -0.382554
-0.0386174 -0.385224
-0.0361401 -0.38849
-0.0741701 -0.422322
-0.081364 -0.430562
-0.0744561 -0.430068
-0.0907033 -0.430612
-0.0747844 -0.41602
-0.0878245 -0.411822
-0.0891489 -0.420905
-0.0797638 -0.413742
-0.0970352 -0.41847
-0.0986431 -0.428318
-0.0191321 -0.399505
-0.031361 -0.41936
-0.0230386 -0.410308
-0.0406044 -0.428316
-0.0170545 -0.394142
-0.0293991 -0.406267
-0.0336258 -0.414513
-0.0232028 -0.400703
-0.0041351 -0.318695
-0.0100884 -0.312809
-0.0291786 -0.222918
-0.0341694 -0.239166
-0.0294065 -0.260083
-0.0309847 -0.27745
0.0203443 -0.301142
0.0216941 -0.287261
-0.00424562 -0.363205
-0.0112433 -0.355174
0.0298211 -0.310086
0.0293779 -0.315828
0.00130474 -0.330069
0.00513544 -0.328244
-0.0350301 -0.047187
-0.0317438 -0.0466674
-0.00875465 -0.0400371
-0.00785129 -0.0197328
0.0195672 -0.304168
0.0145153 -0.302231
0.0346792 -0.202052
0.0332157 -0.24108
-0.0340102 -0.310242
-0.0342363 -0.302812
-0.000544205 -0.00172628
-0.00336126 -0.0195293
-0.0458787 -0.248147
-0.0254597 -0.223806
0.0466938 -0.285552
0.0446025 -0.270684
-0.0158752 -0.194987
-0.0103686 -0.174301
-0.0115365 -0.145484
-0.0137099 -0.137837
-0.00628871 -0.330287
-0.00616169 -0.330665
-0.0293428 -0.224168
-0.0339941 -0.238432
0.0132605 -0.0126924
0.0238004 -0.0236327
0.0148982 -0.339884
0.016036 -0.341538
0.0342513 -0.313736
0.0321384 -0.320954
-0.0529805 -0.268739
-0.0373222 -0.242504
0.0166108 -0.333641
0.0132001 -0.333138
0.0275584 -0.212839
0.0236133 -0.210277
0.0156982 -0.338989
0.0130957 -0.338359
-0.0212581 -0.341631
-0.0176315 -0.346682
0.030448 -0.331597
0.030109 -0.332851
-0.00051682 -0.151598
0.00931158 -0.123904
0.0186315 -0.256463
0.0230138 -0.232589
-0.0058555 -0.311437
-0.0125949 -0.305945
-0.0104467 -0.301937
-0.00386119 -0.308365
0.00172768 -0.0893936
0.00389166 -0.109141
-0.00906519 -0.348612
-0.00369896 -0.350337
-0.0356008 -0.245365
-0.0456341 -0.271157
0.00223215 -0.34288
0.00105522 -0.342434
-0.00275076 -0.245818
5.66182e-05 -0.269155
-0.0184658 -0.295927
-0.0343835 -0.292365
-0.0236814 -0.307142
-0.0169795 -0.299753
-0.0295629 -0.331563
-0.0251541 -0.335628
0.0380935 -0.256458
0.0397257 -0.260701
-0.0489151 -0.242208
-0.0461601 -0.2646
-0.0224279 -0.193222
-0.0183007 -0.158503
-0.0131889 -0.154797
-0.0122296 -0.162714
-0.0180454 -0.185166
-0.0253328 -0.210671
-0.016682 -0.151947
-0.0150564 -0.159818
-0.0369633 -0.310394
-0.0332375 -0.316158
-0.0287768 -0.317883
-0.0238172 -0.322726
-0.0273723 -0.319383
-0.0286216 -0.321464
-0.0349309 -0.323586
-0.0323224 -0.32645
-0.00541561 -0.135037
0.00241135 -0.122641
-0.00334056 -0.331699
-0.00830733 -0.330324
-0.0304265 -0.281952
-0.0251058 -0.290474
0.0335598 -0.23709
0.0288064 -0.220357
-0.00767078 -0.331775
-0.00728516 -0.331214
-0.0234183 -0.334349
-0.0245602 -0.335748
-0.0370171 -0.312018
-0.0397544 -0.301443
0.0367669 -0.257709
0.0336661 -0.236782
-0.0058358 -0.323534
-0.0109356 -0.323902
0.0212749 -0.0717699
0.0177378 -0.0648809
-0.0266431 -0.33678
-0.0317191 -0.329466
-0.0222453 -0.0549001
-0.0168903 -0.0594561
-7.18007e-05 -0.332911
-0.000238685 -0.332185
-0.0472234 -0.285075
-0.0438388 -0.267663
0.0158658 -0.325066
0.0106232 -0.328971
-0.0419351 -0.286563
-0.0417255 -0.27273
-0.0202977 -0.31919
-0.0161948 -0.325007
0.0255255 -0.0789856
0.0221272 -0.0889043
-0.0062322 -0.130878
-0.00121384 -0.147837
0.0289183 -0.226614
0.0184438 -0.199101
0.0271509 -0.33537
0.0394113 -0.317978
-0.0101881 -0.343987
-0.00655273 -0.343621
-0.01585 -0.192586
-0.0235235 -0.214953
-0.00150193 -0.145267
-0.00105218 -0.134547
0.049782 -0.286701
0.0516276 -0.300042
-0.00393785 -0.329959
-0.00111685 -0.332023
-0.0100021 -0.342259
-0.00612078 -0.342637
-0.0256951 -0.337707
-0.0237552 -0.34133
-0.0105272 -0.256776
-0.00433801 -0.236543
0.0180878 -0.171593
0.0205659 -0.208645
0.00639656 -0.15279
0.0084583 -0.167666
0.0244726 -0.0243134
0.0225789 -0.0274758
0.0376611 -0.320257
0.041159 -0.310814
0.00902779 -0.159271
0.0171692 -0.186491
0.00384862 -0.134241
0.0129661 -0.107996
0.0304937 -0.332699
0.0241615 -0.341026
0.00875945 -0.339372
0.0117536 -0.339735
0.0375357 -0.320501
0.036348 -0.322383
-0.0330368 -0.25728
-0.0346944 -0.250303
0.000439412 -0.343794
-0.0002196 -0.343416
-0.0162338 -0.186656
-0.0172807 -0.181744
-0.0157859 -0.0432576
-0.0182484 -0.0329387
-0.00519046 -0.0306237
8.46463e-05 -0.0319901
0.0254835 -0.0234374
0.0308254 -0.0330302
-0.0249936 -0.339003
-0.0358946 -0.323826
-0.00176623 -0.331633
-0.00316934 -0.330324
-0.00223388 -0.329751
-0.000679292 -0.32553
-0.0171155 -0.340515
-0.0126384 -0.341735
-0.00797937 -0.132414
-0.00281835 -0.103191
-0.0462319 -0.297252
-0.0434568 -0.306288
-0.000849774 -0.33218
0.000241425 -0.33278
0.0427684 -0.303675
0.0445319 -0.292218
0.0184407 -0.0932515
0.0239299 -0.073599
0.0370499 -0.319491
0.0331865 -0.325722
0.0066773 -0.278012
-0.00545703 -0.279212
0.00501592 -0.329595
0.00145091 -0.331796
-0.0091275 -0.0829327
-0.010221 -0.0623139
-0.0111814 -0.114127
-0.0181209 -0.090883
-0.0139636 -0.343132
-0.00951232 -0.344445
-0.015934 -0.179064
-0.00586036 -0.176705
0.0445095 -0.300376
0.0441748 -0.287658
-0.00876883 -0.114911
-0.0100397 -0.132379
-0.0154983 -0.151451
-0.0104222 -0.147298
-0.0121405 -0.0148457
-0.0136079 -0.0137751
-0.0280225 -0.211282
-0.0294329 -0.217632
0.00129906 -0.332296
0.000253229 -0.332969
0.00197458 -0.032042
0.00406293 -0.0176851
0.0397025 -0.31077
0.0422321 -0.299773
-0.0335794 -0.255889
-0.0303349 -0.240814
-0.0289489 -0.0690699
-0.0272655 -0.0692872
-0.0227557 -0.31161
-0.0142109 -0.308406
-0.0151435 -0.312058
-0.0179036 -0.315448
-0.00836252 -0.316147
-0.00426692 -0.30775
0.0343207 -0.318342
0.0301458 -0.323226
0.0346418 -0.294635
0.0327951 -0.287323
-0.0197078 -0.184461
-0.0227409 -0.200536
-0.0341926 -0.326741
-0.0350525 -0.324173
-0.00323233 -0.324032
-0.000964483 -0.329576
0.00325935 -0.327074
0.00812343 -0.32351
-0.012875 -0.171522
-0.00486177 -0.144005
-0.00162401 -0.00212495
-0.0114292 -0.0174328
-0.0247017 -0.200783
-0.022245 -0.198078
0.0106918 -0.313871
0.00355269 -0.308766
0.0331911 -0.201899
0.00854447 -0.205619
0.0173607 -0.268996
0.0424909 -0.261059
-0.0122876 -0.0304463
-0.00675906 -0.019147
-0.0415344 -0.294476
-0.0432398 -0.289294
0.0128535 -0.175347
0.0135224 -0.184605
-0.0246662 -0.340907
-0.0313085 -0.331497
0.01538 -0.326025
0.0207388 -0.322129
-0.016443 -0.324426
-0.0179708 -0.325284
-0.0318629 -0.320669
-0.0357843 -0.31473
0.0417758 -0.310208
0.0405647 -0.31156
-0.000343249 -0.334679
0.00212124 -0.336004
-0.0163343 -0.339605
-0.0163141 -0.337754
0.0454829 -0.291224
0.0438036 -0.29359
0.0186309 -0.337028
0.0216939 -0.336948
-0.0291523 -0.0558046
-0.0321786 -0.0570363
-0.011513 -0.329188
-0.0165471 -0.326813
-0.0355628 -0.282713
-0.0335859 -0.273363
0.00790135 -0.342774
0.00447544 -0.343478
0.0376511 -0.250011
0.0380374 -0.251452
0.00806572 -0.246961
0.013363 -0.268482
0.0101253 -0.146939
0.00952017 -0.129026
0.00348351 -0.00246768
0.0161201 -0.0139371
-0.00185701 -0.0326974
0.00431105 -0.0760202
-0.0141049 -0.0496807
-0.00985331 -0.0747377
0.0254313 -0.0315965
0.0172212 -0.0175288
-0.0112963 -0.318241
-0.0162051 -0.316299
0.0197048 -0.346596
0.0116375 -0.356
-0.0262339 -0.309294
-0.0285445 -0.298204
-0.0222255 -0.0515267
-0.0171712 -0.05401
0.0124918 -0.326651
0.0179401 -0.32176
0.0178751 -0.0809128
0.0242939 -0.0674025
-0.0146927 -0.347573
-0.0145786 -0.344857
-0.00239353 -0.338709
-0.00751862 -0.338126
-0.0145984 -0.0698792
-0.00756156 -0.0931421
-0.0337845 -0.23797
-0.0355378 -0.253555
-0.0390316 -0.302793
-0.0388458 -0.309826
0.0115368 -0.143317
0.0201393 -0.171159
0.0165945 -0.342556
0.0197128 -0.342248
0.0403183 -0.304509
0.0375383 -0.315095
0.00390952 -0.161999
0.00195288 -0.152285
0.00733472 -0.342987
0.0080828 -0.344868
-0.00269308 -0.278074
0.00855334 -0.275181
0.0201568 -0.0885418
0.024064 -0.083954
-0.00943969 -0.332418
-0.010537 -0.333769
-0.0278858 -0.335289
-0.0222886 -0.341788
-0.0280664 -0.336204
-0.0233607 -0.341659
0.0320089 -0.262919
0.0314055 -0.28105
-0.00696448 -0.299982
-0.0100025 -0.283962
-0.00513992 -0.331142
-0.00279461 -0.331827
0.0121242 -0.251273
-0.00433491 -0.251004
0.0154731 -0.154873
0.0204226 -0.193848
0.0293332 -0.270502
0.029988 -0.285433
-0.00868057 -0.204457
-0.0107638 -0.157676
0.00516589 -0.330733
0.0090288 -0.328871
0.0135206 -0.345328
0.014333 -0.342315
0.0187792 -0.160801
0.0177127 -0.166713
0.0262428 -0.337847
0.0292819 -0.334258
-0.0296922 -0.224738
-0.0269623 -0.220731
-0.0183241 -0.18278
-0.0226538 -0.191013
-0.0315329 -0.329401
-0.0272039 -0.336319
0.0365997 -0.309176
0.0328998 -0.317599
-0.0011589 -0.331775
-0.00143168 -0.33151
0.0172936 -0.344935
0.0125381 -0.350676
0.00343586 -0.331474
0.00327957 -0.331549
-0.000744673 -0.331976
-0.00339162 -0.331629
0.0332654 -0.321731
0.0336464 -0.316891
-0.0311099 -0.0602917
-0.027542 -0.0730369
0.0130658 -0.341675
0.00909877 -0.343245
-0.0117646 -0.117453
-0.00712866 -0.130735
0.0302207 -0.281217
0.0338996 -0.280782
-0.0139203 -0.321748
-0.0103583 -0.326944
0.0212915 -0.337595
0.0193567 -0.336663
-0.00635705 -0.121798
-0.00151358 -0.0921621
-0.0115609 -0.242548
-0.000749876 -0.215076
-0.00130551 -0.330648
-0.00318178 -0.330817
-0.0233896 -0.331233
-0.0251417 -0.332384
0.0283696 -0.335605
0.0342292 -0.326639
-0.0139479 -0.274634
-0.0127285 -0.29195
0.00753045 -0.333664
0.00950979 -0.33487
0.031188 -0.330025
0.0242362 -0.339856
-0.0147068 -0.332134
-0.0202882 -0.329672
0.0271865 -0.0564066
0.0311025 -0.0529031
0.045669 -0.290017
0.0440768 -0.297583
0.00363623 -0.331395
-0.0017273 -0.331924
0.0387605 -0.275932
0.0368309 -0.260201
0.00370364 -0.141254
0.00772366 -0.129236
-0.00149018 -0.143515
-0.0103328 -0.161974
-0.00503908 -0.345612
-0.0013219 -0.348187
0.0111022 -0.01647
0.0180082 -0.0335088
0.0313785 -0.0507355
0.0276725 -0.0483995
-0.0146385 -0.346454
-0.00982122 -0.34804
-0.0148533 -0.330374
-0.0202404 -0.326676
0.0289731 -0.223772
0.00583305 -0.2249
-0.00213054 -0.332453
-0.000424964 -0.33317
-0.0198083 -0.329476
-0.0187076 -0.327958
-0.0226337 -0.051717
-0.0225025 -0.0353584
-0.00295099 -0.331944
0.00113361 -0.33233
0.000639511 -0.332625
-0.000510601 -0.333633
-0.04208 -0.300435
-0.0399038 -0.304099
-0.0296215 -0.332558
-0.0268628 -0.336896
-0.0216924 -0.198747
-0.025511 -0.215029
-0.00129723 -0.297655
0.00308471 -0.308752
0.000321069 -0.332737
0.00374065 -0.331135
0.013355 -0.3317
0.0188396 -0.329917
0.0184763 -0.0580249
0.015879 -0.0802576
-0.0103937 -0.207509
-0.0175125 -0.229215
0.0101442 -0.113537
0.00821313 -0.126698
0.015399 -0.343965
0.0109638 -0.345011
0.0113164 -0.298733
0.0254173 -0.290243
0.0184577 -0.313989
0.0146786 -0.313452
0.00244517 -0.0896096
0.00598408 -0.100183
0.00484091 -0.35145
0.00321695 -0.347856
0.031486 -0.324611
0.0334764 -0.324418
-0.0200721 -0.320789
-0.0245248 -0.317668
-0.024179 -0.199275
-0.0284717 -0.213497
0.0478854 -0.275155
0.0416697 -0.261231
0.00299301 -0.0209593
-0.00333313 -0.0678419
0.0131593 -0.344347
0.0139711 -0.346823
-0.0203186 -0.205005
-0.0270324 -0.224213
0.0138276 -0.0617657
0.0130967 -0.0409709
-0.00164068 -0.327429
0.000578072 -0.330826
-0.0153507 -0.189627
-0.0230332 -0.212857
-0.0348871 -0.254186
-0.0329145 -0.235133
-0.0418256 -0.268925
-0.0385067 -0.256102
0.027443 -0.0677568
0.025421 -0.0794988
0.0272405 -0.317091
0.0225818 -0.320563
-0.0154682 -0.314085
-0.0078884 -0.310614
-0.0238564 -0.320271
-0.0186186 -0.324572
-0.0136775 -0.0911073
-0.00353895 -0.136682
-0.0383431 -0.317558
-0.0352352 -0.32278
0.00947458 -0.339974
0.0109465 -0.340944
-0.00699387 -0.277029
0.00230278 -0.288523
0.0183247 -0.180203
0.0264146 -0.207455
-0.0343784 -0.0396292
-0.0333905 -0.0492219
-0.0286963 -0.228348
-0.0171867 -0.197927
-0.00925306 -0.156001
-0.0157109 -0.168387
0.0113417 -0.307966
0.00179831 -0.311585
0.0334103 -0.239093
0.0227751 -0.211789
-0.00251657 -0.341122
-0.000831044 -0.339972
-0.00231708 -0.34626
-0.00451403 -0.349415
-0.0212068 -0.200641
-0.0267371 -0.220398
-0.0185555 -0.314815
-0.0136943 -0.32203
0.0402614 -0.259699
0.0441309 -0.27589
-0.00076979 -0.339951
-0.00287804 -0.338668
-0.0384029 -0.296086
-0.035535 -0.299529
-0.0518231 -0.30145
-0.0458192 -0.308428
-0.0184506 -0.0909359
-0.0213881 -0.0898621
0.0137314 -0.0200663
0.00844806 -0.0122945
0.0102291 -0.0766949
0.0165534 -0.0562635
0.018217 -0.345187
0.0119822 -0.350836
-0.00274704 -0.00865798
-0.00350287 -0.0197309
-0.0445527 -0.27512
-0.0393469 -0.256251
0.0163883 -0.151548
0.00897882 -0.119489
0.0179155 -0.0988814
0.015519 -0.108389
0.0334929 -0.326802
0.0431526 -0.310918
0.0347585 -0.325025
0.0392033 -0.317847
-0.022859 -0.180142
-0.028301 -0.209374
0.00375505 -0.0870682
-0.00505534 -0.0465689
0.0371941 -0.321226
0.0410561 -0.312498
-0.000304635 -0.327568
0.00194026 -0.321785
0.0109539 -0.2461
-0.00539022 -0.234493
0.027597 -0.210092
0.0221135 -0.185445
0.019446 -0.0424374
0.0150621 -0.0496062
0.00687942 -0.311218
0.0061611 -0.320767
0.0106 -0.0969067
0.00376406 -0.104393
-0.0318036 -0.234094
-0.0228797 -0.20818
-0.0357741 -0.321807
-0.0373459 -0.315425
0.000852806 -0.344457
0.00193952 -0.345239
0.0383891 -0.311704
0.035317 -0.321098
0.0252841 -0.338068
0.0361781 -0.322794
0.00118951 -0.290137
-0.00486464 -0.301208
0.0094539 -0.0119886
0.0177572 -0.0277229
0.00920403 -0.0909871
0.0113151 -0.100832
-0.00414611 -0.0126905
-0.00925935 -0.0232861
-0.0294032 -0.334397
-0.0317931 -0.330877
0.00383009 -0.150968
0.0129409 -0.172836
-0.0542101 -0.290099
-0.0501267 -0.314618
0.00173493 -0.14135
0.00634705 -0.166068
0.000376378 -0.339292
-0.00451923 -0.339315
-0.00189864 -0.14127
-0.00310374 -0.142536
-0.0261276 -0.330488
-0.0211557 -0.334241
0.00264884 -0.299948
-0.00530251 -0.306971
-0.0215951 -0.0631807
-0.0168868 -0.06144
-0.0240966 -0.324465
-0.0186387 -0.328514
0.0315373 -0.283272
0.0326304 -0.293761
0.0261197 -0.0699827
0.0238155 -0.0839092
-5.77284e-05 -0.332246
0.000832213 -0.332089
0.0184754 -0.161605
0.0250657 -0.191991
-0.00851017 -0.0503559
-0.00416292 -0.0502599
0.0220052 -0.333676
0.0190629 -0.333358
-0.0268958 -0.0262575
-0.0149197 -0.0127548
0.0137655 -0.175644
0.0159699 -0.189112
-0.0233997 -0.340887
-0.0343366 -0.325995
-0.027792 -0.221669
-0.0236567 -0.192369
-0.015469 -0.347734
-0.0129479 -0.347146
-0.031056 -0.317371
-0.0345832 -0.308775
-0.000122359 -0.332758
0.000299095 -0.332571
-0.0124596 -0.343034
-0.0126258 -0.34544
0.0206669 -0.170671
0.0262062 -0.19871
-0.0220703 -0.331882
-0.0220814 -0.334417
-0.020696 -0.207615
-0.0129213 -0.187069
-0.0359988 -0.249167
-0.0366641 -0.260574
-0.00885097 -0.325861
-0.0130288 -0.319156
0.00787569 -0.30378
0.0170757 -0.30783
-0.00112514 -0.347999
-0.00116195 -0.345181
-0.00138109 -0.331957
-0.00239443 -0.331865
0.0385274 -0.318232
0.0408656 -0.310146
0.015212 -0.327168
0.0195535 -0.322552
-0.0357598 -0.269216
-0.0361986 -0.255691
0.029976 -0.197093
0.00514465 -0.196402
0.0306823 -0.286234
0.0303954 -0.298391
0.00537495 -0.327039
0.00612738 -0.320713
-0.029113 -0.32063
-0.0241397 -0.325614
-0.0177519 -0.337763
-0.0201352 -0.33464
0.0184286 -0.332321
0.0227136 -0.331441
-0.0291538 -0.330929
-0.0277333 -0.329967
0.0158917 -0.33769
0.0157138 -0.33971
-0.0421298 -0.30472
-0.0392481 -0.316009
-0.000791593 -0.341599
-0.00164859 -0.342514
-0.00949944 -0.313534
-0.00344641 -0.31901
-0.0206074 -0.201919
-0.0111263 -0.177995
0.0355079 -0.274265
0.0453018 -0.254563
-0.0385631 -0.317878
-0.0422102 -0.307763
-0.0306402 -0.329276
-0.0259383 -0.335306
-0.00185463 -0.360655
-0.00895217 -0.355751
-0.0309925 -0.310883
-0.0317388 -0.302604
-0.0107162 -0.13974
-0.00836587 -0.14534
0.0364943 -0.281994
0.0349444 -0.268674
0.0372684 -0.252722
0.0398297 -0.27118
-0.00968442 -0.333899
-0.0154721 -0.331941
-0.0434071 -0.263005
-0.033422 -0.239933
-0.0204617 -0.299639
-0.0149154 -0.312052
0.0184665 -0.33058
0.0168501 -0.329368
0.0350426 -0.324532
0.0340145 -0.326361
0.0031073 -0.111512
0.0113537 -0.0963526
-0.0360194 -0.24445
-0.0360536 -0.268401
-0.0113271 -0.34579
-0.011441 -0.343313
0.0160438 -0.313513
0.0214848 -0.306409
-0.0412582 -0.305111
-0.0398167 -0.303472
-0.0231975 -0.330128
-0.022571 -0.327814
-0.0279022 -0.0616351
-0.0276603 -0.0715211
0.00534418 -0.274012
-0.00303644 -0.258714
-0.0178818 -0.327852
-0.0232158 -0.323086
-0.026944 -0.324436
-0.0217257 -0.328773
-0.00823032 -0.0158617
-0.00924866 -0.0306335
-0.0012539 -0.203342
0.00434569 -0.239613
0.00525875 -0.24403
0.0115521 -0.215735
0.00328582 -0.0502451
-0.00414129 -0.0874632
-0.00806405 -0.339498
-0.00385341 -0.340419
0.0296422 -0.260026
0.0283076 -0.279262
-0.00792202 -0.11785
0.00219714 -0.0888612
0.0634895 -0.297973
0.0473497 -0.266014
-0.00212059 -0.330186
-0.00062097 -0.332449
-0.0271161 -0.0277248
-0.0233191 -0.0281336
-0.0204384 -0.0674984
-0.0161458 -0.089895
-0.0182683 -0.0866501
-0.0184612 -0.0973963
0.0163175 -0.232948
0.0187734 -0.201697
-0.010159 -0.323544
-0.00526454 -0.328819
-0.00521993 -0.0884312
-0.00942365 -0.139048
-0.012861 -0.331607
-0.0178593 -0.330413
0.0350415 -0.241819
0.0351626 -0.248969
0.0573701 -0.285909
0.0457781 -0.265713
0.00360745 -0.157368
0.0138938 -0.185191
0.0287581 -0.333637
0.0243588 -0.337862
-0.0101542 -0.175689
-0.00314107 -0.15128
-0.00488416 -0.342731
-0.00811729 -0.34189
-0.00613024 -0.343318
-0.00398277 -0.342827
-0.0167954 -0.348913
-0.0102337 -0.354527
0.00408001 -0.0628968
-0.00362071 -0.097065
-0.0359015 -0.314871
-0.0391272 -0.305214
0.0445481 -0.288458
0.0458355 -0.283443
-0.0403957 -0.315378
-0.0417126 -0.309986
-0.0161508 -0.311945
-0.0212356 -0.316715
0.00387787 -0.0781036
-0.00389404 -0.0288375
0.0363768 -0.311985
0.0328456 -0.32056
-0.0151992 -0.309345
-0.00910427 -0.301194
-0.00447616 -0.254323
-0.0088151 -0.273572
-0.0105225 -0.0120992
-0.000750651 -0.00085946
-0.018625 -0.335613
-0.0156361 -0.335186
0.0346864 -0.325351
0.0281316 -0.335617
-0.0418851 -0.269887
-0.038599 -0.257099
-0.0136709 -0.112839
-0.00519663 -0.135927
0.0333957 -0.241689
0.0311595 -0.242904
0.0265874 -0.336391
0.0300149 -0.330639
0.0363333 -0.322518
0.0407995 -0.31508
-0.028615 -0.335643
-0.0333817 -0.327978
-0.00691081 -0.0192226
-0.00166877 -0.00541924
-0.0033673 -0.331847
-0.00169535 -0.332397
0.012192 -0.276644
0.00484515 -0.265821
0.0122581 -0.355325
0.0164863 -0.35021
-0.0111791 -0.321886
-0.0123087 -0.314049
-0.0338952 -0.327516
-0.0434029 -0.312422
0.00233731 -0.345352
0.00629758 -0.346529
0.00694544 -0.135745
0.0157706 -0.158035
0.0265615 -0.0484979
0.0262063 -0.0349769
-0.0440148 -0.310042
-0.0472606 -0.295363
0.0200529 -0.309634
0.0230394 -0.310795
0.0256125 -0.232469
0.0290014 -0.25267
-0.00252375 -0.341401
-0.00602042 -0.341565
-0.0405085 -0.254897
-0.030702 -0.233441
0.00491728 -0.0711654
0.00920554 -0.121134
-0.000967179 -0.331602
-0.00477192 -0.329857
0.0239821 -0.207647
0.0306722 -0.225756
-0.0342712 -0.0426381
-0.0302496 -0.0401107
0.000482751 -0.0629029
-0.00098883 -0.0750751
-0.00786561 -0.349171
-0.00499969 -0.354498
0.0329747 -0.300498
0.0287734 -0.305994
0.00581281 -0.00546297
0.0166185 -0.0190104
0.000537724 -0.342383
0.00115203 -0.341406
-0.00977395 -0.318033
-0.00596915 -0.325024
0.0154202 -0.295812
0.0203535 -0.28311
-0.00518594 -0.343636
-0.00236999 -0.344329
-0.0329775 -0.0565562
-0.0351004 -0.0463221
0.00624344 -0.0554808
0.00652039 -0.0278332
0.00154114 -0.35054
0.00367477 -0.353776
-0.0196161 -0.34341
-0.0184683 -0.346477
0.0376391 -0.320319
0.0355391 -0.324522
-0.0210294 -0.34383
-0.023519 -0.342074
0.0545212 -0.286094
0.041172 -0.249316
-0.00591122 -0.344743
-0.0062544 -0.347499
0.0118512 -0.145354
0.0164541 -0.159831
-0.0267733 -0.218452
-0.0339473 -0.238359
0.020894 -0.3444
0.0135777 -0.352411
0.0301334 -0.219465
0.0232331 -0.194276
-0.0326718 -0.0401412
-0.0284577 -0.0377345
0.00462573 -0.335431
1.49792e-05 -0.334931
-0.0172175 -0.198601
-0.0269002 -0.223911
0.0178767 -0.2845
0.0224511 -0.268829
0.00598822 -0.332459
0.00960148 -0.330623
-0.0368835 -0.301568
-0.0337257 -0.30457
-0.0187416 -0.332319
-0.0149122 -0.335752
0.0300756 -0.331018
0.0258991 -0.334887
-0.0132573 -0.339237
-0.0121552 -0.337906
-0.00945212 -0.184244
-0.0271263 -0.220231
0.0269611 -0.212122
0.0222529 -0.210684
-0.026671 -0.33161
-0.0220636 -0.336071
0.0252986 -0.230927
0.0259001 -0.207335
0.0029979 -0.343346
0.00390954 -0.343954
0.0297857 -0.262683
0.0319589 -0.276608
-0.00739493 -0.0145117
-0.00195078 -0.00480066
-0.0276094 -0.206453
-0.0317234 -0.23243
-0.0156586 -0.0518066
-0.0128367 -0.0754224
-0.00446669 -0.287041
0.00510123 -0.293627
-0.00868849 -0.32953
-0.00350262 -0.331662
0.014122 -0.253878
0.0133954 -0.227102
0.0134545 -0.152359
0.00977123 -0.12031
-0.00170337 -0.331645
0.00088153 -0.332132
0.0271731 -0.271429
0.0213499 -0.265966
-0.0209511 -0.0185293
-0.0192225 -0.0191908
-0.00807326 -0.348853
-0.00868908 -0.345462
0.0179172 -0.326631
0.0235749 -0.321948
0.00389431 -0.335502
-0.00106155 -0.336962
-0.0166958 -0.337875
-0.0120199 -0.33882
0.000343711 -0.343606
-0.00094159 -0.343389
0.0071074 -0.194109
0.0179264 -0.191256
0.0120682 -0.338234
0.0160783 -0.335769
-0.00713084 -0.333906
-0.00235521 -0.335247
-0.0143384 -0.342565
-0.0117708 -0.345627
0.00753679 -0.331172
0.0104156 -0.329337
-0.0035001 -0.0395838
-0.00154118 -0.00670626
0.0022149 -0.342115
0.0014167 -0.341261
0.00341087 -0.341075
0.00720228 -0.340598
-0.0258602 -0.213961
-0.0203085 -0.210164
-0.005581 -0.331045
-0.0015874 -0.331971
0.0120989 -0.355502
0.0148774 -0.351953
-0.0049569 -0.332302
-0.00153701 -0.333351
0.0426335 -0.304894
0.039766 -0.312508
-0.029046 -0.0429462
-0.0318569 -0.0380331
0.035353 -0.324055
0.0288332 -0.333064
0.034655 -0.283093
0.0327305 -0.297103
0.0360623 -0.273168
0.0357363 -0.255542
-0.0253536 -0.206235
-0.028496 -0.220351
0.0175882 -0.333527
0.0175787 -0.331165
0.00775939 -0.327298
0.00437616 -0.32851
0.0135313 -0.326972
0.00875335 -0.329444
-0.018979 -0.289516
-0.00458306 -0.288986
0.0220031 -0.0265236
0.0291144 -0.038177
0.0191675 -0.323583
0.0230454 -0.321861
-0.0189096 -0.328467
-0.0142642 -0.329793
-0.0290368 -0.320765
-0.0330399 -0.316893
-0.0169702 -0.103402
-0.010897 -0.119586
-0.0387913 -0.314561
-0.0362979 -0.317679
0.00800123 -0.338511
0.00840067 -0.336571
0.0105197 -0.0212086
0.0161259 -0.0322583
0.0231002 -0.341783
0.0132632 -0.354094
-0.0111624 -0.351392
-0.0140108 -0.346666
-0.0210468 -0.172135
-0.0224027 -0.187594
4.42367e-05 -0.343734
0.000604388 -0.343867
-0.00187448 -0.125134
-0.00417659 -0.105357
-0.0337242 -0.23761
-0.0375357 -0.254433
-0.00420074 -0.34532
-0.00202564 -0.348568
0.00363795 -0.0958907
0.0116397 -0.0778549
-0.00921424 -0.0102249
-0.0104993 -0.00967737
-0.0232435 -0.204649
-0.0143965 -0.177907
-0.000903506 -0.00163013
-0.000573474 -0.000680819
0.0515579 -0.301702
0.0492445 -0.297081
-0.00532226 -0.115491
0.0033696 -0.143655
0.0343002 -0.271175
0.0262756 -0.286928
-0.0410072 -0.284242
-0.0410099 -0.297207
-0.00450944 -0.336611
-0.000135351 -0.335322
0.0399792 -0.307827
0.0417861 -0.295908
-0.0425575 -0.274931
-0.0391565 -0.258907
0.00409183 -0.138861
0.00755755 -0.130689
-0.00460029 -0.324349
-0.00414867 -0.329443
0.0134799 -0.351786
0.00794907 -0.355411
0.000956424 -0.340664
-4.49861e-05 -0.339448
0.0336534 -0.321242
0.0291727 -0.327192
-0.00324378 -0.331808
-0.000473236 -0.33215
0.00459988 -0.331234
0.00702215 -0.330231
-0.011063 -0.339746
-0.00667943 -0.340778
0.0417414 -0.299659
0.0400158 -0.311032
0.0304371 -0.330132
0.0256654 -0.336613
0.0197981 -0.0956805
0.0198687 -0.0946611
-0.0242681 -0.0354413
-0.0280915 -0.0487889
0.0300047 -0.332364
0.0335603 -0.325725
-0.0269635 -0.333775
-0.0223268 -0.338811
0.0259021 -0.225862
0.0445852 -0.197641
-0.0412577 -0.287068
-0.0398397 -0.274023
-0.00640535 -0.123453
0.00372177 -0.149987
-0.00208003 -0.331457
0.000681219 -0.332117
-0.0061173 -0.0639011
0.000484048 -0.0935188
-0.0133062 -0.106552
-0.0170069 -0.0858955
0.0321318 -0.327858
0.0276505 -0.334887
-0.0194764 -0.334792
-0.0169304 -0.33785
-0.0375396 -0.251156
-0.0429978 -0.268671
0.016947 -0.0862138
0.0250465 -0.0741147
-0.00963927 -0.148119
-0.000339276 -0.125884
0.0317797 -0.328949
0.0362364 -0.320651
0.030232 -0.0457342
0.0292409 -0.0608577
0.0141517 -0.109667
0.0209933 -0.0875065
0.0263536 -0.338186
0.0340372 -0.327015
0.0296731 -0.216371
0.044557 -0.26019
0.0324164 -0.230847
0.0291319 -0.216145
0.0356256 -0.297157
0.0319454 -0.306827
-0.0400838 -0.265448
-0.0402597 -0.276733
-0.000291591 -0.333985
0.000786383 -0.335371
0.0272266 -0.213163
0.0313321 -0.229316
0.0261253 -0.0421042
0.0261948 -0.0590637
0.000627556 -0.343809
0.0014356 -0.343384
-0.0148304 -0.341466
-0.0194715 -0.339535
-0.0258009 -0.263313
-0.0195411 -0.277768
-0.0248233 -0.196256
-0.0281608 -0.225579
-0.0101915 -0.343815
-0.00843155 -0.346451
-0.00306231 -0.127123
0.00325735 -0.0980139
-0.0149877 -0.0779589
-0.0186469 -0.0551492
0.00375518 -0.34243
0.00687457 -0.341833
-0.00501896 -0.0951281
-0.00947953 -0.138847
-0.0375316 -0.32134
-0.0445953 -0.306571
-0.000945798 -0.333408
0.00524237 -0.332577
0.00447218 -0.145935
0.0117604 -0.159736
-0.0146419 -0.13518
-0.0235652 -0.191148
0.00789974 -0.111853
0.00948538 -0.123823
0.0270027 -0.321779
0.0314848 -0.317904
0.0165792 -0.339386
0.0199613 -0.339097
0.036359 -0.245673
0.0284396 -0.221836
-0.00329448 -0.326396
-0.00298793 -0.33073
0.023245 -0.341254
0.0229988 -0.339823
-0.00734766 -0.342779
-0.0105103 -0.343287
-0.0131079 -0.317127
-0.015631 -0.307102
0.00638052 -0.0183461
0.00577375 -0.0309517
-0.00873215 -0.339313
-0.00477202 -0.340467
0.0219422 -0.343784
0.0221779 -0.342695
-0.0148226 -0.336075
-0.015306 -0.333641
-0.0348427 -0.241572
-0.0395629 -0.261654
0.0222889 -0.336983
0.0192593 -0.34105
-0.0368134 -0.320042
-0.0336259 -0.325109
0.00244527 -0.336983
-0.000623446 -0.335655
-0.0300539 -0.302139
-0.0331354 -0.302209
0.0282315 -0.326176
0.0235517 -0.329277
0.00253067 -0.331138
0.00330005 -0.329214
0.0404515 -0.257327
0.030729 -0.232143
0.0266516 -0.337723
0.0258843 -0.338907
-0.0285161 -0.332687
-0.0288045 -0.329951
0.00755489 -0.117344
-0.000955182 -0.14489
-0.0255074 -0.338422
-0.0230134 -0.342381
-0.035641 -0.0432771
-0.0336643 -0.0534681
0.0111971 -0.128045
0.00453653 -0.0973921
0.040999 -0.283496
0.0410609 -0.271641
-0.000777738 -0.332343
-0.00282993 -0.330056
0.0059693 -0.309252
0.00492374 -0.298044
-0.00219076 -0.138874
-0.0112842 -0.111924
0.0219713 -0.339105
0.0200077 -0.342981
-0.0164977 -0.155178
-0.00935849 -0.119473
0.00858878 -0.345529
0.0131483 -0.343846
0.00270458 -0.330267
0.000347566 -0.332517
0.0223851 -0.33033
0.0265021 -0.328839
0.0282822 -0.324095
0.0278842 -0.327974
0.03029 -0.318743
0.0344112 -0.313859
-0.00466826 -0.244968
-0.00116606 -0.268252
-0.0386655 -0.316567
-0.0419534 -0.30771
0.0247226 -0.190692
0.0256886 -0.211377
0.0100411 -0.352369
0.012351 -0.347698
0.0396134 -0.266935
0.0407873 -0.266274
-0.0131783 -0.0138293
-0.0013755 -0.00135243
0.0250602 -0.0325536
0.0299269 -0.0338406
-0.00785559 -0.330353
-0.00362837 -0.331581
-0.00181282 -0.343596
-0.00036337 -0.343908
0.0234842 -0.0283985
0.0151976 -0.017963
0.0376361 -0.280755
0.0380517 -0.266102
0.0112438 -0.320513
0.00481273 -0.319456
0.0297658 -0.0621063
0.0274232 -0.0567636
0.000567122 -0.325055
-0.000445437 -0.330188
0.00089953 -0.342362
0.00230778 -0.342775
0.0183551 -0.328705
0.0127632 -0.330795
0.0390755 -0.259214
0.0359605 -0.244794
-0.0334088 -0.327264
-0.0372013 -0.318396
0.0100533 -0.150505
0.0186566 -0.176874
0.0374193 -0.200195
0.0338742 -0.230219
-0.0279827 -0.318294
-0.0250979 -0.318547
-0.0378098 -0.252107
-0.0404144 -0.26142
0.0452814 -0.293038
0.0462908 -0.29671
0.0503577 -0.2766
0.0526883 -0.301582
-0.0103126 -0.107417
-0.00252966 -0.134006
-0.0363008 -0.297474
-0.0353913 -0.288201
-0.0334248 -0.236807
-0.0298227 -0.229352
0.019288 -0.202633
0.0239734 -0.215765
0.0192755 -0.172267
0.0104943 -0.147082
0.00337141 -0.34311
0.00490531 -0.343545
-0.0185817 -0.340501
-0.0192088 -0.338016
-0.00152995 -0.346204
-0.00338548 -0.349715
0.0162128 -0.33926
0.012503 -0.339428
-0.0132554 -0.334474
-0.00814172 -0.334801
-0.0173565 -0.347103
-0.0158648 -0.346156
-0.00348703 -0.225448
-0.010856 -0.183149
0.00418119 -0.04121
0.00180518 -0.0100174
-0.0023149 -0.313803
-0.00548169 -0.32018
0.0344602 -0.286757
0.0371391 -0.289702
0.0132361 -0.335085
0.0117312 -0.337481
0.0307806 -0.0608047
0.0345119 -0.0521348
-0.034959 -0.244969
-0.0341544 -0.250182
-0.0432994 -0.307013
-0.0382602 -0.320014
-0.00047369 -0.344584
-0.00234059 -0.344183
-0.0188867 -0.310666
-0.0198807 -0.298965
-0.0375841 -0.265406
-0.0359866 -0.249192
0.0054649 -0.343712
0.00368867 -0.343157
0.0105559 -0.0212331
0.013791 -0.0427317
0.0311739 -0.230138
0.0238062 -0.20683
0.0288989 -0.332983
0.04026 -0.317808
0.0258115 -0.338982
0.0193922 -0.346844
-0.00098665 -0.304803
0.00459877 -0.313414
0.0231863 -0.328897
0.0209702 -0.332807
0.00166021 -0.296062
0.000686712 -0.308756
-0.00175003 -0.309842
0.00703587 -0.305147
-0.0280588 -0.335186
-0.0269014 -0.337486
0.00779981 -0.331025
0.00526418 -0.331195
-0.00729465 -0.138323
-0.0156633 -0.160642
0.00698497 -0.140845
0.0135893 -0.167717
0.00255788 -0.34163
0.00394468 -0.342207
-0.0319967 -0.298453
-0.0281632 -0.300445
0.00976732 -0.341128
0.00868283 -0.342637
-0.00942976 -0.328828
-0.00800631 -0.330378
0.0452411 -0.294024
0.0435355 -0.295912
0.0262032 -0.200686
0.0188323 -0.176153
0.0257844 -0.0471055
0.0228969 -0.0656965
0.0341278 -0.323209
0.0340024 -0.319903
-0.0378718 -0.311171
-0.0364464 -0.318654
0.0141968 -0.0114641
0.0224019 -0.022914
-0.0294713 -0.277308
-0.0309416 -0.257513
-0.0381591 -0.252891
-0.0323003 -0.2326
0.0236741 -0.305502
0.0263274 -0.293006
-0.0174558 -0.253506
-0.00888603 -0.245404
0.0344057 -0.291632
0.0307916 -0.293397
0.0330796 -0.323645
0.0321234 -0.321524
-0.0261355 -0.218805
-0.030441 -0.205113
-0.0272975 -0.22477
-0.0228348 -0.213016
0.0143082 -0.306104
0.0188275 -0.293904
-0.0174546 -0.345265
-0.0182456 -0.342263
-0.0213827 -0.298498
-0.0162118 -0.286087
-0.0182845 -0.348726
-0.00833388 -0.360356
0.0219828 -0.265025
0.00449187 -0.267445
-0.0319569 -0.242858
-0.029241 -0.251224
-0.0275386 -0.329645
-0.0312727 -0.326821
-0.0110116 -0.309076
-0.00207266 -0.306329
0.00849989 -0.329666
0.00450101 -0.331124
0.0179709 -0.340609
0.0153377 -0.344323
0.0216181 -0.04932
0.0190522 -0.031228
0.00691758 -0.12308
0.0041978 -0.139534
-0.0134643 -0.327073
-0.0126805 -0.326006
0.0314534 -0.226472
0.0328034 -0.233555
0.0304496 -0.279981
0.0301413 -0.29385
-0.024535 -0.341134
-0.0316304 -0.33112
-0.0138487 -0.343813
-0.0111658 -0.347446
0.0379802 -0.319128
0.0371412 -0.31898
0.0336819 -0.246294
0.0302266 -0.222614
-0.0145387 -0.308254
-0.00969599 -0.298354
0.0466094 -0.278729
0.0401459 -0.257476
0.0142501 -0.179528
0.025005 -0.136569
-0.00986889 -0.358596
-0.0115879 -0.356217
-0.00543203 -0.343848
-0.00406896 -0.3431
0.0203799 -0.208627
0.0240703 -0.233801
0.0158861 -0.15794
0.0185191 -0.160133
-0.0110024 -0.357337
-0.00800742 -0.36043
0.0236778 -0.340935
0.018522 -0.345626
0.00551078 -0.333198
0.00355076 -0.334941
-0.0098321 -0.119887
-0.00175668 -0.0890284
-0.0212709 -0.17417
-0.0246934 -0.189486
-0.0330601 -0.327626
-0.03576 -0.320674
-0.0269763 -0.210153
-0.0251585 -0.208578
-0.0483784 -0.30582
-0.034496 -0.328496
-0.0271157 -0.333156
-0.0288527 -0.328818
0.0181275 -0.266793
0.0207127 -0.24286
0.00614731 -0.359545
0.00429962 -0.358709
0.0468154 -0.285915
0.0452139 -0.288683
0.0117804 -0.332101
0.00644831 -0.332856
0.0408494 -0.315161
0.0452606 -0.303167
-0.014158 -0.27806
-0.00552285 -0.276433
0.0199852 -0.302322
0.029626 -0.287751
0.00285488 -0.0171195
0.000206146 -0.0614857
0.00159839 -0.345176
0.00133965 -0.349727
-0.0212052 -0.326913
-0.0224359 -0.328555
0.0238229 -0.215412
0.0342171 -0.241508
-0.0278972 -0.070886
-0.0268248 -0.0735164
-0.0205748 -0.206139
-0.0198929 -0.199769
-0.00317746 -0.00359419
-0.00105054 -0.000967833
-0.0355553 -0.245962
-0.0381734 -0.263841
-0.00217092 -0.332065
-0.000249304 -0.333099
-0.00230648 -0.323759
-0.00273113 -0.329077
-0.0132918 -0.307363
-0.00516508 -0.300909
-0.0323207 -0.0427087
-0.0346871 -0.0383751
0.0133522 -0.0970733
0.010539 -0.115984
0.0128586 -0.311378
0.0133983 -0.300047
-0.00158278 -0.320345
0.00200427 -0.325821
0.0403188 -0.257078
0.0365554 -0.245723
0.00129938 -0.331632
0.00178656 -0.32806
0.0207519 -0.0476437
0.0255748 -0.0469964
0.0204873 -0.0263939
0.01284 -0.0166101
0.00241405 -0.00210784
0.0124747 -0.0104676
0.0489453 -0.279184
0.0467123 -0.27854
-0.0110136 -0.301602
-0.0161081 -0.305864
0.00160963 -0.0897362
-0.00600584 -0.0539395
-0.00391692 -0.36181
-0.0076501 -0.356101
-0.00980909 -0.117979
-0.00143317 -0.0854649
0.0181249 -0.101022
0.0153071 -0.105297
-0.00633264 -0.314338
0.000253404 -0.31519
0.045697 -0.285241
0.0447157 -0.29594
0.0111671 -0.356564
0.0194774 -0.346885
0.0221657 -0.17918
0.028011 -0.208427
-0.0196054 -0.0853125
-0.0182418 -0.0734044
0.00534991 -0.35565
0.0116367 -0.349555
-0.0282401 -0.334311
-0.0277778 -0.336236
0.0231416 -0.193163
0.0194535 -0.20224
-0.0309002 -0.233897
-0.0271045 -0.222706
0.00873795 -0.0150139
0.0148914 -0.0254808
-0.00113516 -0.341945
-0.00360294 -0.342416
-0.00203446 -0.107308
-0.00804047 -0.110627
-0.0254494 -0.290998
-0.0302721 -0.288722
-0.0003162 -0.322808
-0.00567382 -0.321788
0.00165635 -0.330549
0.00493127 -0.326771
0.00883086 -0.340397
0.00908589 -0.341596
0.0218957 -0.0743472
0.0267335 -0.0562957
0.0290399 -0.214939
0.0343559 -0.238701
0.019817 -0.168876
0.0148077 -0.151188
-0.0194527 -0.337569
-0.0168767 -0.340538
-0.0106043 -0.325432
-0.0123205 -0.319331
-0.0398019 -0.25913
-0.0339376 -0.238415
-0.0250268 -0.339404
-0.030185 -0.332133
0.00999092 -0.20605
-0.00249249 -0.231247
-0.0141829 -0.317807
-0.0173954 -0.318535
-0.00642206 -0.320957
-0.0114989 -0.314514
-0.00424762 -0.331596
-0.00988269 -0.329757
-0.000856646 -0.340695
0.00320655 -0.340443
0.00617919 -0.331288
0.00886927 -0.331308
0.0348832 -0.240934
0.0395876 -0.258676
0.00381111 -0.0258049
-0.00217595 -0.0486198
0.0229146 -0.0258486
0.0294593 -0.0386156
0.00224929 -0.341797
0.00327129 -0.342437
0.0329184 -0.236638
0.0348513 -0.24158
-0.00484901 -0.163676
-0.015647 -0.192858
-0.00644694 -0.324618
-0.00313738 -0.329594
-0.00813354 -0.333623
-0.0131907 -0.333176
-0.0134192 -0.1321
-0.00445327 -0.0973483
-0.00505053 -0.122642
0.00406189 -0.141448
-0.000858666 -0.344066
-0.00222819 -0.343473
0.000810736 -0.331896
-8.67278e-05 -0.332574
-0.00515337 -0.341907
-0.00186411 -0.342195
0.00143143 -0.142611
0.00668042 -0.129244
0.0320478 -0.220668
0.0288774 -0.178855
0.000464042 -0.34369
0.00131092 -0.3436
0.0141295 -0.325288
0.00935132 -0.329274
0.00910324 -0.357555
0.0167495 -0.349815
-0.0587423 -0.29436
-0.0465733 -0.267543
-0.0185226 -0.202501
-0.00831656 -0.174463
0.00328268 -0.00674656
0.00662994 -0.00921767
-0.0315813 -0.33006
-0.044879 -0.31246
0.0410213 -0.3126
0.0424996 -0.306068
0.00488761 -0.342099
0.00245206 -0.342839
0.0366444 -0.322002
0.0386639 -0.318239
-0.0275903 -0.068746
-0.0315944 -0.0534409
0.0260937 -0.288314
0.0205448 -0.295123
0.00270356 -0.36066
0.00898293 -0.353492
0.0314749 -0.232312
0.0374591 -0.249288
0.00750468 -0.167564
0.00601696 -0.167916
-7.81802e-05 -0.3331
-0.00047136 -0.332117
0.0058607 -0.335113
0.0114208 -0.333232
0.0252772 -0.315098
0.0199941 -0.321087
0.00579017 -0.324588
0.0102622 -0.317794
-0.0292916 -0.334084
-0.0356994 -0.324217
0.00694693 -0.311504
0.0133271 -0.308665
-0.017619 -0.349564
-0.0254394 -0.339971
-0.014409 -0.310181
-0.0144889 -0.317939
0.0317216 -0.0612503
0.0287886 -0.0636044
0.0153235 -0.328764
0.0211207 -0.325061
-0.00388059 -0.342823
-0.00662734 -0.343069
-0.0257305 -0.220805
-0.032504 -0.23738
-0.0341127 -0.0454594
-0.030252 -0.0424747
0.00570499 -0.056211
0.0103474 -0.0497465
0.0255756 -0.301299
0.0233937 -0.311088
0.00432013 -0.325762
0.00912616 -0.319909
0.0432689 -0.271382
0.0454181 -0.288278
0.0169273 -0.32929
0.0114573 -0.331032
0.0123558 -0.182036
0.0193427 -0.203301
0.0093337 -0.116985
0.00665586 -0.105383
0.0212714 -0.207382
0.00976452 -0.17544
0.000409205 -0.34205
0.00220342 -0.341048
0.0138551 -0.173644
0.0260545 -0.187829
0.00942374 -0.350439
0.0058389 -0.356138
0.00352394 -0.15843
-0.00644688 -0.132223
0.017541 -0.197563
0.0101768 -0.179503
-0.00938501 -0.168074
-0.00468958 -0.146596
0.0270158 -0.0685013
0.0270216 -0.0753555
-0.0301735 -0.333147
-0.02179 -0.343964
-0.0152863 -0.0152797
-0.0198097 -0.0176219
0.0351062 -0.242569
0.026689 -0.213881
-0.0186776 -0.0340053
-0.0235861 -0.0461445
0.0130713 -0.0830142
0.0140322 -0.0627105
-0.00200381 -0.331903
0.00018178 -0.332002
0.0067077 -0.0911613
-0.0211281 -0.101032
0.0168916 -0.349874
0.0156904 -0.350859
-0.0316832 -0.0534297
-0.0347573 -0.0499394
-0.0431652 -0.295297
-0.0412459 -0.307592
-0.0033051 -0.331649
0.00112413 -0.331891
0.024339 -0.030051
0.030645 -0.0365428
0.00473427 -0.0052147
0.00748375 -0.0101096
-0.011431 -0.332962
-0.0165482 -0.331976
-0.0117572 -0.0105207
-0.0233282 -0.0225143
0.0119428 -0.35561
0.0145318 -0.352108
0.0398128 -0.315564
0.0344333 -0.326435
-0.0219732 -0.339837
-0.022429 -0.337247
0.00663478 -0.340587
0.00687262 -0.339181
-0.0129386 -0.341643
-0.00911553 -0.343179
0.0162374 -0.324182
0.0172966 -0.320284
0.00298796 -0.33157
0.00449637 -0.331018
0.0205762 -0.028349
0.0231542 -0.0429695
-0.00321629 -0.0756456
-0.00910884 -0.0467194
0.0363622 -0.317818
0.0355924 -0.314828
0.00058177 -0.343231
0.000206164 -0.343784
-0.00300427 -0.331882
0.00124505 -0.33213
-0.00136391 -0.285503
0.00890667 -0.281796
0.0228441 -0.0509628
0.0214014 -0.0709101
-0.0023209 -0.34385
-0.0031041 -0.343069
0.0140072 -0.180454
0.0179219 -0.184571
-0.0110245 -0.0641209
-0.012003 -0.0401979
0.0371483 -0.32131
0.0376478 -0.320287
-0.0246909 -0.333298
-0.0199019 -0.336891
0.00167177 -0.155905
0.0122205 -0.184638
0.0203479 -0.0910473
0.0373103 -0.157487
-0.0235984 -0.325007
-0.0187264 -0.327545
-0.0402546 -0.300884
-0.0374442 -0.308934
0.00920728 -0.33032
0.00713195 -0.330445
-0.00738474 -0.115096
-0.00500271 -0.167884
0.00395192 -0.331292
-0.000310591 -0.332038
0.0122265 -0.107767
0.019517 -0.0845158
0.0496827 -0.224121
0.0325197 -0.181107
-0.00285232 -0.34404
-0.00603088 -0.343567
0.014148 -0.257654
0.0212355 -0.275594
0.029546 -0.217791
0.030351 -0.221143
-0.018054 -0.347943
-0.0230066 -0.341437
-0.000931285 -0.331519
0.00073659 -0.332348
0.0131247 -0.275886
0.0184851 -0.29142
-0.00487701 -0.330747
-0.00255501 -0.331383
-0.00601628 -0.128066
-0.00756091 -0.129543
-0.00458234 -0.323141
0.000431852 -0.32477
-0.0145438 -0.327081
-0.0200926 -0.322603
-0.0251775 -0.318521
-0.0198732 -0.323906
0.0410618 -0.298897
0.0421111 -0.285791
0.000867413 -0.314924
0.00394056 -0.303402
-0.00560027 -0.0255122
-0.00191578 -0.0315917
0.0175163 -0.327974
0.0230724 -0.3245
-0.0150939 -0.105843
-0.00600046 -0.129478
0.0142501 -0.150408
0.0170689 -0.152337
-0.0190968 -0.345146
-0.0146496 -0.347594
0.00585172 -0.34182
0.003463 -0.342722
-0.0345713 -0.260685
-0.0329545 -0.240229
0.0160456 -0.0355162
0.0208373 -0.0448856
8.10713e-05 -0.331891
0.00440701 -0.331531
-0.0104051 -0.340459
-0.00832864 -0.341963
-0.039511 -0.256716
-0.0454536 -0.277249
-0.00633784 -0.309507
-0.00191423 -0.318136
-0.00406618 -0.343216
-0.00745161 -0.342889
-0.0043434 -0.34321
-0.00780316 -0.342769
0.02977 -0.219206
0.0249149 -0.190953
0.0414682 -0.257366
0.0528812 -0.280454
-0.00631387 -0.330633
-0.00286891 -0.331801
0.0122012 -0.351268
0.0100548 -0.350253
0.0109577 -0.135198
0.0187438 -0.165828
-0.0130535 -0.344096
-0.0169523 -0.343679
0.0362011 -0.311145
0.0381106 -0.311333
0.0371194 -0.284848
0.0374818 -0.296519
-0.0416526 -0.297951
-0.0401675 -0.309507
0.01862 -0.305266
0.0153073 -0.315548
0.00108105 -0.343744
0.0022556 -0.343421
-0.025398 -0.240919
-0.0302268 -0.250109
0.0356801 -0.0456113
0.0324799 -0.0436029
0.0251016 -0.073952
0.0216161 -0.0897839
-0.00905295 -0.316959
-0.0144586 -0.314979
-0.0111216 -0.328288
-0.0151902 -0.326463
-0.00419465 -0.342386
-0.00737805 -0.342464
-0.020927 -0.0235682
-0.0179274 -0.0241371
-0.011866 -0.179066
-0.00681495 -0.170244
0.0476398 -0.292221
0.0441185 -0.308311
-0.0245435 -0.336214
-0.025441 -0.333045
-0.0354559 -0.302845
-0.0382643 -0.293302
-0.0246199 -0.323416
-0.0292332 -0.316615
-0.014173 -0.327729
-0.0172139 -0.323727
0.0310872 -0.330649
0.0290432 -0.332836
-0.0128977 -0.336369
-0.0182658 -0.334206
0.0291267 -0.261037
0.0191832 -0.236721
-0.00808126 -0.0634516
-0.00669942 -0.0464644
-0.0115653 -0.15517
-0.0244217 -0.178487
0.00209075 -0.146061
-0.00427456 -0.162117
0.0133445 -0.1001
0.00504683 -0.126238
-0.0325092 -0.232259
-0.0266045 -0.208083
-0.0382551 -0.275026
-0.0391357 -0.288429
0.0422636 -0.28466
0.0433793 -0.291376
-0.0142918 -0.33083
-0.0132633 -0.333137
-0.00800265 -0.344365
-0.00425971 -0.344255
-0.0323112 -0.292233
-0.0332384 -0.277455
-0.041899 -0.31431
-0.0453839 -0.303447
-0.000307681 -0.333189
0.000130492 -0.332884
0.0430425 -0.29251
0.044406 -0.294269
0.000717269 -0.333803
0.000184398 -0.33282
-0.0208752 -0.197325
-0.0175857 -0.16196
-0.0439383 -0.30744
-0.0404963 -0.315155
-0.0273239 -0.337091
-0.0354261 -0.324984
-0.00453171 -0.0796202
0.00862239 -0.113911
0.0038643 -0.128047
-0.00433236 -0.0980818
-0.0329288 -0.328992
-0.0387587 -0.319308
0.00866682 -0.359211
0.0136622 -0.353697
-0.000132684 -0.147197
-0.00388855 -0.0943617
-0.0227295 -0.213056
-0.0220918 -0.211417
-0.0438213 -0.31358
-0.0497967 -0.295989
-0.0157297 -0.261927
-0.00892904 -0.278723
-0.0176382 -0.0212858
-0.0252392 -0.0295804
0.0182066 -0.0541105
0.0174758 -0.0337826
-0.0171998 -0.347614
-0.0220448 -0.343497
0.0323668 -0.291478
0.034516 -0.29694
0.0195409 -0.193413
0.0284721 -0.220109
-0.00258044 -0.331902
-0.00458137 -0.331427
-0.0437627 -0.270787
-0.0423308 -0.269261
0.0301397 -0.329295
0.0307974 -0.330563
0.0140242 -0.338484
0.0110479 -0.337964
-0.0223218 -0.0540147
-0.022394 -0.0365725
0.00210581 -0.3306
0.00464246 -0.325512
0.00487363 -0.346992
0.00770309 -0.349147
-0.0039719 -0.343922
-0.00703219 -0.343114
-0.000213816 -0.333076
-0.00195345 -0.332325
-0.0187427 -0.250054
-0.0235261 -0.264596
-0.00320246 -0.33156
-0.00195312 -0.330131
0.00293644 -0.00417991
0.0115676 -0.0226812
-0.0494053 -0.267221
-0.0317204 -0.224855
0.0418964 -0.298744
0.0406667 -0.295461
-0.00955413 -0.315758
-0.00870488 -0.323519
0.00626413 -0.334093
0.0121945 -0.332598
0.0124432 -0.32908
0.0181938 -0.325314
-0.0135621 -0.339139
-0.0112358 -0.33829
-0.00105877 -0.0772035
-0.000828027 -0.0872548
-0.0274647 -0.266931
-0.012597 -0.251575
-0.00650744 -0.352131
-0.0131083 -0.353406
-0.0131083 -0.353406
-0.0200417 -0.355081
-0.0200417 -0.355081
-0.0271517 -0.357291
-0.0271517 -0.357291
-0.0343007 -0.36011
-0.0343007 -0.36011
-0.0413847 -0.363508
-0.0413847 -0.363508
-0.0482762 -0.367482
-0.0482762 -0.367482
-0.0548731 -0.371994
-0.0548731 -0.371994
-0.0610838 -0.376994
-0.0610838 -0.376994
-0.0668244 -0.382423
-0.0668244 -0.382423
-0.0720374 -0.388203
-0.0720374 -0.388203
-0.0766701 -0.394254
-0.0766701 -0.394254
-0.0806917 -0.400495
-0.0806917 -0.400495
-0.0840889 -0.406838
-0.0840889 -0.406838
-0.0868421 -0.413188
-0.0868421 -0.413188
-0.0889766 -0.419491
-0.0889766 -0.419491
-0.0905114 -0.42565
-0.0905114 -0.42565
-0.0914723 -0.431603
-0.0914723 -0.431603
-0.0919067 -0.437308
-0.0919067 -0.437308
-0.0918535 -0.442692
-0.0918535 -0.442692
-0.0913731 -0.447732
-0.0913731 -0.447732
-0.0905049 -0.452412
-0.0905049 -0.452412
-0.0893009 -0.456696
-0.0893009 -0.456696
-0.087822 -0.460582
-0.087822 -0.460582
-0.0860986 -0.464079
-0.0860986 -0.464079
-0.0841607 -0.467207
-0.0841607 -0.467207
-0.0820489 -0.469945
-0.0820489 -0.469945
-0.0797952 -0.472323
-0.0797952 -0.472323
-0.0773814 -0.474392
-0.0773814 -0.474392
-0.0748044 -0.476136
-0.0748044 -0.476136
-0.0721012 -0.477562
-0.0721012 -0.477562
-0.0692279 -0.478644
-0.0692279 -0.478644
-0.06613 -0.479457
-0.06613 -0.479457
-0.0628118 -0.479971
-0.0628118 -0.479971
-0.0592584 -0.480061
-0.0592584 -0.480061
-0.0553543 -0.479757
-0.0553543 -0.479757
-0.0511018 -0.479082
-0.0511018 -0.479082
-0.0464772 -0.47786
-0.0464772 -0.47786
-0.0414201 -0.475864
-0.0414201 -0.475864
-0.0358981 -0.473152
-0.0358981 -0.473152
-0.0299296 -0.469587
-0.0299296 -0.469587
-0.0234747 -0.464759
-0.0234747 -0.464759
-0.0165956 -0.458521
-0.0165956 -0.458521
-0.0093345 -0.450601
-0.0093345 -0.450601
-0.00161334 -0.440415
-0.00161334 -0.440415
0.00619058 -0.427281
0.00619058 -0.427281
0.0142069 -0.410492
0.0142069 -0.410492
0.0222966 -0.387578
0.0222966 -0.387578
0.0307206 -0.357674
0.0307206 -0.357674
0.0424341 -0.32524
0.0424341 -0.32524
0.0494067 -0.309496
0.0494067 -0.309496
0.0498717 -0.3039
0.0498717 -0.3039
0.0484945 -0.301784
0.0484945 -0.301784
0.0470496 -0.301706
0.0470496 -0.301706
0.045538 -0.303071
0.045538 -0.303071
0.0442738 -0.305411
0.0442738 -0.305411
0.0428232 -0.30863
0.0428232 -0.30863
0.0409522 -0.312526
0.0409522 -0.312526
0.0390359 -0.316967
0.0390359 -0.316967
0.0369348 -0.321516
0.0369348 -0.321516
0.0344912 -0.32586
0.0344912 -0.32586
0.0316974 -0.329882
0.0316974 -0.329882
0.0287586 -0.333606
0.0287586 -0.333606
0.0257246 -0.336923
0.0257246 -0.336923
0.0225814 -0.339803
0.0225814 -0.339803
0.0194096 -0.342281
0.0194096 -0.342281
0.0162384 -0.344376
0.0162384 -0.344376
0.0130757 -0.346098
0.0130757 -0.346098
0.00987527 -0.347526
0.00987527 -0.347526
0.00659991 -0.348709
0.00659991 -0.348709
0.00315316 -0.349769
0.00315316 -0.349769
-0.000972743 -0.350876
-0.000972743 -0.350876
-0.00650744 -0.352131
0.0512116 -0.479499
0.0554521 -0.48017
0.0554521 -0.48017
0.059352 -0.480458
0.059352 -0.480458
0.0629019 -0.480374
0.0629019 -0.480374
0.0662067 -0.479881
0.0662067 -0.479881
0.0692928 -0.479074
0.0692928 -0.479074
0.0721601 -0.478004
0.0721601 -0.478004
0.0748463 -0.476589
0.0748463 -0.476589
0.0774119 -0.474865
0.0774119 -0.474865
0.0798182 -0.472802
0.0798182 -0.472802
0.082064 -0.47043
0.082064 -0.47043
0.0841662 -0.467704
0.0841662 -0.467704
0.0860946 -0.464587
0.0860946 -0.464587
0.0878138 -0.461099
0.0878138 -0.461099
0.0892867 -0.457229
0.0892867 -0.457229
0.0904849 -0.45297
0.0904849 -0.45297
0.0913498 -0.448288
0.0913498 -0.448288
0.0918332 -0.443269
0.0918332 -0.443269
0.091885 -0.437927
0.091885 -0.437927
0.091461 -0.432237
0.091461 -0.432237
0.0904956 -0.426285
0.0904956 -0.426285
0.0889672 -0.420143
0.0889672 -0.420143
0.0868425 -0.413866
0.0868425 -0.413866
0.0840885 -0.407524
0.0840885 -0.407524
0.0807061 -0.401196
0.0807061 -0.401196
0.0766999 -0.394982
0.0766999 -0.394982
0.0720731 -0.388941
0.0720731 -0.388941
0.0668797 -0.38318
0.0668797 -0.38318
0.0611526 -0.377769
0.0611526 -0.377769
0.0549619 -0.372779
0.0549619 -0.372779
0.0483876 -0.368278
0.0483876 -0.368278
0.041519 -0.364307
0.041519 -0.364307
0.0344729 -0.360921
0.0344729 -0.360921
0.0273389 -0.358118
0.0273389 -0.358118
0.02028 -0.355907
0.02028 -0.355907
0.0133834 -0.354226
0.0133834 -0.354226
0.00687706 -0.352941
0.00687706 -0.352941
0.00136002 -0.351711
0.00136002 -0.351711
-0.00274476 -0.350597
-0.00274476 -0.350597
-0.00623472 -0.349545
-0.00623472 -0.349545
-0.00954554 -0.348364
-0.00954554 -0.348364
-0.0127893 -0.346955
-0.0127893 -0.346955
-0.0160055 -0.345227
-0.0160055 -0.345227
-0.0192294 -0.343109
-0.0192294 -0.343109
-0.0224206 -0.340588
-0.0224206 -0.340588
-0.0255818 -0.337654
-0.0255818 -0.337654
-0.0286335 -0.334282
-0.0286335 -0.334282
-0.0315135 -0.330462
-0.0315135 -0.330462
-0.0341948 -0.326266
-0.0341948 -0.326266
-0.0367058 -0.3219
-0.0367058 -0.3219
-0.0389103 -0.317723
-0.0389103 -0.317723
-0.040795 -0.313688
-0.040795 -0.313688
-0.0424007 -0.309961
-0.0424007 -0.309961
-0.0438908 -0.306635
-0.0438908 -0.306635
-0.0454266 -0.304046
-0.0454266 -0.304046
-0.0467672 -0.302564
-0.0467672 -0.302564
-0.04811 -0.302451
-0.04811 -0.302451
-0.0490923 -0.304611
-0.0490923 -0.304611
-0.0486088 -0.310051
-0.0486088 -0.310051
-0.0427743 -0.325332
-0.0427743 -0.325332
-0.0301968 -0.357931
-0.0301968 -0.357931
-0.0215139 -0.387132
-0.0215139 -0.387132
-0.0139372 -0.410399
-0.0139372 -0.410399
-0.0060352 -0.427807
-0.0060352 -0.427807
0.0019208 -0.440776
0.0019208 -0.440776
0.00947882 -0.45105
0.00947882 -0.45105
0.0167866 -0.458858
0.0167866 -0.458858
0.0237159 -0.465068
0.0237159 -0.465068
0.0301324 -0.469978
0.0301324 -0.469978
0.0360603 -0.473582
0.0360603 -0.473582
0.0415724 -0.476228
0.0415724 -0.476228
0.0466283 -0.478205
0.0466283 -0.478205
0.0512116 -0.479499
      </DataArray> 
      <DataArray type="Float64" NumberOfComponents="2" Name="Velocity" format="ascii">
0 0
0 0
0 0
0 0
0 0
0 0
0 0
0 0
0 0
0 0
0 0
0 0
0 0
0 0
0 0
0 0
0 0
0 0
0 0
0 0
0 0
0 0
0 0
0 0
0 0
0 0
0 0
0 0
0 0
0 0
0 0
0 0
0 0
0 0
0 0
0 0
0 0
0 0
0 0
0 0
0 0
0 0
0 0
0 0
0 0
0 0
0 0
0 0
0 0
0 0
0 0
0 0
0 0
0 0
0 0
0 0
0 0
0 0
0 0
0 0
0 0
0 0
0 0
0 0
0 0
0 0
0 0
0 0
0 0
0 0
0 0
0 0
0 0
0 0
0 0
0 0
0 0
0 0
0 0
0 0
0 0
0 0
0 0
0 0
0 0
0 0
0 0
0 0
0 0
0 0
0 0
0 0
0 0
0 0
0 0
0 0
0 0
0 0
0 0
0 0
0 0
0 0
0 0
0 0
0 0
0 0
0 0
0 0
0 0
0 0
0 0
0 0
0 0
0 0
0 0
0 0
0 0
0 0
0 0
0 0
0 0
0 0
0 0
0 0
0 0
0 0
0 0
0 0
0 0
0 0
0 0
0 0
0 0
0 0
0 0
0 0
0 0
0 0
0 0
0 0
0 0
0 0
0 0
0 0
0 0
0 0
0 0
0 0
0 0
0 0
0 0
0 0
0 0
0 0
0 0
0 0
0 0
0 0
0 0
0 0
0 0
0 0
0 0
0 0
0 0
0 0
0 0
0 0
0 0
0 0
0 0
0 0
0 0
0 0
0 0
0 0
0 0
0 0
0 0
0 0
0 0
0 0
0 0
0 0
0 0
0 0
0 0
0 0
0 0
0 0
0 0
0 0
0 0
0 0
0 0
0 0
0 0
0 0
0 0
0 0
0 0
0 0
0 0
0 0
0 0
0 0
0 0
0 0
0 0
0 0
0 0
0 0
0 0
0 0
0 0
0 0
0 0
0 0
0 0
0 0
0 0
0 0
0 0
0 0
0 0
0 0
0 0
0 0
0 0
0 0
0 0
0 0
0 0
0 0
0 0
0 0
0 0
0 0
0 0
0 0
0 0
0 0
0 0
0 0
0 0
0 0
0 0
0 0
0 0
0 0
0 0
0 0
0 0
0 0
0 0
0 0
0 0
0 0
0 0
0 0
0 0
0 0
0 0
0 0
0 0
0 0
0 0
0 0
0 0
0 0
0 0
0 0
0 0
0 0
0 0
0 0
0 0
0 0
0 0
0 0
0 0
0 0
0 0
0 0
0 0
0 0
0 0
0 0
0 0
0 0
0 0
0 0
0 0
0 0
0 0
0 0
0 0
0 0
0 0
0 0
0 0
0 0
0 0
0 0
0 0
0 0
0 0
0 0
0 0
0 0
0 0
0 0
0 0
0 0
0 0
0 0
0 0
0 0
0 0
0 0
0 0
0 0
0 0
0 0
0 0
0 0
0 0
0 0
0 0
0 0
0 0
0 0
0 0
0 0
0 0
0 0
0 0
0 0
0 0
0 0
0 0
0 0
0 0
0 0
0 0
0 0
0 0
0 0
0 0
0 0
0 0
0 0
0 0
0 0
0 0
0 0
0 0
0 0
0 0
0 0
0 0
0 0
0 0
0 0
0 0
0 0
0 0
0 0
0 0
0 0
0 0
0 0
0 0
0 0
0 0
0 0
0 0
0 0
0 0
0 0
0 0
0 0
0 0
0 0
0 0
0 0
0 0
0 0
0 0
0 0
0 0
0 0
0 0
0 0
0 0
0 0
0 0
0 0
0 0
0 0
0 0
0 0
0 0
0 0
0 0
0 0
0 0
0 0
0 0
0 0
0 0
0 0
0 0
0 0
0 0
0 0
0 0
0 0
0 0
0 0
0 0
0 0
0 0
0 0
0 0
0 0
0 0
0 0
0 0
0 0
0 0
0 0
0 0
0 0
0 0
0 0
0 0
0 0
0 0
0 0
0 0
0 0
0 0
0 0
0 0
0 0
0 0
0 0
0 0
0 0
0 0
0 0
0 0
0 0
0 0
0 0
0 0
0 0
0 0
0 0
0 0
0 0
0 0
0 0
0 0
0 0
0 0
0 0
0 0
0 0
0 0
0 0
0 0
0 0
0 0
0 0
0 0
0 0
0 0
0 0
0 0
0 0
0 0
0 0
0 0
0 0
0 0
0 0
0 0
0 0
0 0
0 0
0 0
0 0
0 0
0 0
0 0
0 0
0 0
0 0
0 0
0 0
0 0
0 0
0 0
0 0
0 0
0 0
0 0
0 0
0 0
0 0
0 0
0 0
0 0
0 0
0 0
0 0
0 0
0 0
0 0
0 0
0 0
0 0
0 0
0 0
0 0
0 0
0 0
0 0
0 0
0 0
0 0
0 0
0 0
0 0
0 0
0 0
0 0
0 0
0 0
0 0
0 0
0 0
0 0
0 0
0 0
0 0
0 0
0 0
0 0
0 0
0 0
0 0
0 0
0 0
0 0
0 0
0 0
0 0
0 0
0 0
0 0
0 0
0 0
0 0
0 0
0 0
0 0
0 0
0 0
0 0
0 0
0 0
0 0
0 0
0 0
0 0
0 0
0 0
0 0
0 0
0 0
0 0
0 0
0 0
0 0
0 0
0 0
0 0
0 0
0 0
0 0
0 0
0 0
0 0
0 0
0 0
0 0
0 0
0 0
0 0
0 0
0 0
0 0
0 0
0 0
0 0
0 0
0 0
0 0
0 0
0 0
0 0
0 0
0 0
0 0
0 0
0 0
0 0
0 0
0 0
0 0
0 0
0 0
0 0
0 0
0 0
0 0
0 0
0 0
0 0
0 0
0 0
0 0
0 0
0 0
0 0
0 0
0 0
0 0
0 0
0 0
0 0
0 0
0 0
0 0
0 0
0 0
0 0
0 0
0 0
0 0
0 0
0 0
0 0
0 0
0 0
0 0
0 0
0 0
0 0
0 0
0 0
0 0
0 0
0 0
0 0
0 0
0 0
0 0
0 0
0 0
0 0
0 0
0 0
0 0
0 0
0 0
0 0
0 0
0 0
0 0
0 0
0 0
0 0
0 0
0 0
0 0
0 0
0 0
0 0
0 0
0 0
0 0
0 0
0 0
0 0
0 0
0 0
0 0
0 0
0 0
0 0
0 0
0 0
0 0
0 0
0 0
0 0
0 0
0 0
0 0
0 0
0 0
0 0
0 0
0 0
0 0
0 0
0 0
0 0
0 0
0 0
0 0
0 0
0 0
0 0
0 0
0 0
0 0
0 0
0 0
0 0
0 0
0 0
0 0
0 0
0 0
0 0
0 0
0 0
0 0
0 0
0 0
0 0
0 0
0 0
0 0
0 0
0 0
0 0
0 0
0 0
0 0
0 0
0 0
0 0
0 0
0 0
0 0
0 0
0 0
0 0
0 0
0 0
0 0
0 0
0 0
0 0
0 0
0 0
0 0
0 0
0 0
0 0
0 0
0 0
0 0
0 0
0 0
0 0
0 0
0 0
0 0
0 0
0 0
0 0
0 0
0 0
0 0
0 0
0 0
0 0
0 0
0 0
0 0
0 0
0 0
0 0
0 0
0 0
0 0
0 0
0 0
0 0
0 0
0 0
0 0
0 0
0 0
0 0
0 0
0 0
0 0
0 0
0 0
0 0
0 0
0 0
0 0
0 0
0 0
0 0
0 0
0 0
0 0
0 0
0 0
0 0
0 0
0 0
0 0
0 0
0 0
0 0
0 0
0 0
0 0
0 0
0 0
0 0
0 0
0 0
0 0
0 0
0 0
0 0
0 0
0 0
0 0
0 0
0 0
0 0
0 0
0 0
0 0
0 0
0 0
0 0
0 0
0 0
0 0
0 0
0 0
0 0
0 0
0 0
0 0
0 0
0 0
0 0
0 0
0 0
0 0
0 0
0 0
0 0
0 0
0 0
0 0
0 0
0 0
0 0
0 0
0 0
0 0
0 0
0 0
0 0
0 0
0 0
0 0
0 0
0 0
0 0
0 0
0 0
0 0
0 0
0 0
0 0
0 0
0 0
0 0
0 0
0 0
0 0
0 0
0 0
0 0
0 0
0 0
0 0
0 0
0 0
0 0
0 0
0 0
0 0
0 0
0 0
0 0
0 0
0 0
0 0
0 0
0 0
0 0
0 0
0 0
0 0
0 0
0 0
0 0
0 0
0 0
0 0
0 0
0 0
0 0
0 0
0 0
0 0
0 0
0 0
0 0
0 0
0 0
0 0
0 0
0 0
0 0
0 0
0 0
0 0
0 0
0 0
0 0
0 0
0 0
0 0
0 0
0 0
0 0
0 0
0 0
0 0
0 0
0 0
0 0
0 0
0 0
0 0
0 0
0 0
0 0
0 0
0 0
0 0
0 0
0 0
0 0
0 0
0 0
0 0
0 0
0 0
0 0
0 0
0 0
0 0
0 0
0 0
0 0
0 0
0 0
0 0
0 0
0 0
0 0
0 0
0 0
0 0
0 0
0 0
0 0
0 0
0 0
0 0
0 0
0 0
0 0
0 0
0 0
0 0
0 0
0 0
0 0
0 0
0 0
0 0
0 0
0 0
0 0
0 0
0 0
0 0
0 0
0 0
0 0
0 0
0 0
0 0
0 0
0 0
0 0
0 0
0 0
0 0
0 0
0 0
0 0
0 0
0 0
0 0
0 0
0 0
0 0
0 0
0 0
0 0
0 0
0 0
0 0
0 0
0 0
0 0
0 0
0 0
0 0
0 0
0 0
0 0
0 0
0 0
0 0
0 0
0 0
0 0
0 0
0 0
0 0
0 0
0 0
0 0
0 0
0 0
0 0
0 0
0 0
0 0
0 0
0 0
0 0
0 0
0 0
0 0
0 0
0 0
0 0
0 0
0 0
0 0
0 0
0 0
0 0
0 0
0 0
0 0
0 0
0 0
0 0
0 0
0 0
0 0
0 0
0 0
0 0
0 0
0 0
0 0
0 0
0 0
0 0
0 0
0 0
0 0
0 0
0 0
0 0
0 0
0 0
0 0
0 0
0 0
0 0
0 0
0 0
0 0
0 0
0 0
0 0
0 0
0 0
0 0
0 0
0 0
0 0
0 0
0 0
0 0
0 0
0 0
0 0
0 0
0 0
0 0
0 0
0 0
0 0
0 0
0 0
0 0
0 0
0 0
0 0
0 0
0 0
0 0
0 0
0 0
0 0
0 0
0 0
0 0
0 0
0 0
0 0
0 0
0 0
0 0
0 0
0 0
0 0
0 0
0 0
0 0
0 0
0 0
0 0
0 0
0 0
0 0
0 0
0 0
0 0
0 0
0 0
0 0
0 0
0 0
0 0
0 0
0 0
0 0
0 0
0 0
0 0
0 0
0 0
0 0
0 0
0 0
0 0
0 0
0 0
0 0
0 0
0 0
0 0
0 0
0 0
0 0
0 0
0 0
0 0
0 0
0 0
0 0
0 0
0 0
0 0
0 0
0 0
0 0
0 0
0 0
0 0
0 0
0 0
0 0
0 0
0 0
0 0
0 0
0 0
0 0
0 0
0 0
0 0
0 0
0 0
0 0
0 0
0 0
0 0
0 0
0 0
0 0
0 0
0 0
0 0
0 0
0 0
0 0
0 0
0 0
0 0
0 0
0 0
0 0
0 0
0 0
0 0
0 0
0 0
0 0
0 0
0 0
0 0
0 0
0 0
0 0
0 0
0 0
0 0
0 0
0 0
0 0
0 0
0 0
0 0
0 0
0 0
0 0
0 0
0 0
0 0
0 0
0 0
0 0
0 0
0 0
0 0
0 0
0 0
0 0
0 0
0 0
0 0
0 0
0 0
0 0
0 0
0 0
0 0
0 0
0 0
0 0
0 0
0 0
0 0
0 0
0 0
0 0
0 0
0 0
0 0
0 0
0 0
0 0
0 0
0 0
0 0
0 0
0 0
0 0
0 0
0 0
0 0
0 0
0 0
0 0
0 0
0 0
0 0
0 0
0 0
0 0
0 0
0 0
0 0
0 0
0 0
0 0
0 0
0 0
0 0
0 0
0 0
0 0
0 0
0 0
0 0
0 0
0 0
0 0
0 0
0 0
0 0
0 0
0 0
0 0
0 0
0 0
0 0
0 0
0 0
0 0
0 0
0 0
0 0
0 0
0 0
0 0
0 0
0 0
0 0
0 0
0 0
0 0
0 0
0 0
0 0
0 0
0 0
0 0
0 0
0 0
0 0
0 0
0 0
0 0
0 0
0 0
0 0
0 0
0 0
0 0
0 0
0 0
0 0
0 0
0 0
0 0
0 0
0 0
0 0
0 0
0 0
0 0
0 0
0 0
0 0
0 0
0 0
0 0
0 0
0 0
0 0
0 0
0 0
0 0
0 0
0 0
0 0
0 0
0 0
0 0
0 0
0 0
0 0
0 0
0 0
0 0
0 0
0 0
0 0
0 0
0 0
0 0
0 0
0 0
0 0
0 0
0 0
0 0
0 0
0 0
0 0
0 0
0 0
0 0
0 0
0 0
0 0
0 0
0 0
0 0
0 0
0 0
0 0
0 0
0 0
0 0
0 0
0 0
0 0
0 0
0 0
0 0
0 0
0 0
0 0
0 0
0 0
0 0
0 0
0 0
0 0
0 0
0 0
0 0
0 0
0 0
0 0
0 0
0 0
0 0
0 0
0 0
0 0
0 0
0 0
0 0
0 0
0 0
0 0
0 0
0 0
0 0
0 0
0 0
0 0
0 0
0 0
0 0
0 0
0 0
0 0
0 0
0 0
0 0
0 0
0 0
0 0
0 0
0 0
0 0
0 0
0 0
0 0
0 0
0 0
0 0
0 0
0 0
0 0
0 0
0 0
0 0
0 0
0 0
0 0
0 0
0 0
0 0
0 0
0 0
0 0
0 0
0 0
0 0
0 0
0 0
0 0
0 0
0 0
0 0
0 0
0 0
0 0
0 0
0 0
0 0
0 0
0 0
0 0
0 0
0 0
0 0
0 0
0 0
0 0
0 0
0 0
0 0
0 0
0 0
0 0
0 0
0 0
0 0
0 0
0 0
0 0
0 0
0 0
0 0
0 0
0 0
0 0
0 0
0 0
0 0
0 0
0 0
0 0
0 0
0 0
0 0
0 0
0 0
0 0
0 0
0 0
0 0
0 0
0 0
0 0
0 0
0 0
0 0
0 0
0 0
0 0
0 0
0 0
0 0
0 0
0 0
0 0
0 0
0 0
0 0
0 0
0 0
0 0
0 0
0 0
0 0
0 0
0 0
0 0
0 0
0 0
0 0
0 0
0 0
0 0
0 0
0 0
0 0
0 0
0 0
0 0
0 0
0 0
0 0
0 0
0 0
0 0
0 0
0 0
0 0
0 0
0 0
0 0
0 0
0 0
0 0
0 0
0 0
0 0
0 0
0 0
0 0
0 0
0 0
0 0
0 0
0 0
0 0
0 0
0 0
0 0
0 0
0 0
0 0
0 0
0 0
0 0
0 0
0 0
0 0
0 0
0 0
0 0
0 0
0 0
0 0
0 0
0 0
0 0
0 0
0 0
0 0
0 0
0 0
0 0
0 0
0 0
0 0
0 0
0 0
0 0
0 0
0 0
0 0
0 0
0 0
0 0
0 0
0 0
0 0
0 0
0 0
0 0
0 0
0 0
0 0
0 0
0 0
0 0
0 0
0 0
0 0
0 0
0 0
0 0
0 0
0 0
0 0
0 0
0 0
0 0
0 0
0 0
0 0
0 0
0 0
0 0
0 0
0 0
0 0
0 0
0 0
0 0
0 0
0 0
0 0
0 0
0 0
0 0
0 0
0 0
0 0
0 0
0 0
0 0
0 0
0 0
0 0
0 0
0 0
0 0
0 0
0 0
0 0
0 0
0 0
0 0
0 0
0 0
0 0
0 0
0 0
0 0
0 0
0 0
0 0
0 0
0 0
0 0
0 0
0 0
0 0
0 0
0 0
0 0
0 0
0 0
0 0
0 0
0 0
0 0
0 0
0 0
0 0
0 0
0 0
0 0
0 0
0 0
0 0
0 0
0 0
0 0
0 0
0 0
0 0
0 0
0 0
0 0
0 0
0 0
0 0
0 0
0 0
0 0
0 0
0 0
0 0
0 0
0 0
0 0
0 0
0 0
0 0
0 0
0 0
0 0
0 0
0 0
0 0
0 0
0 0
0 0
0 0
0 0
0 0
0 0
0 0
0 0
0 0
0 0
0 0
0 0
0 0
0 0
0 0
0 0
0 0
0 0
0 0
0 0
0 0
0 0
0 0
0 0
0 0
0 0
0 0
0 0
0 0
0 0
0 0
0 0
0 0
0 0
0 0
0 0
0 0
0 0
0 0
0 0
0 0
0 0
0 0
0 0
0 0
0 0
0 0
0 0
0 0
0 0
0 0
0 0
0 0
0 0
0 0
0 0
0 0
0 0
0 0
0 0
0 0
0 0
0 0
0 0
0 0
0 0
0 0
0 0
0 0
0 0
0 0
0 0
0 0
0 0
0 0
0 0
0 0
0 0
0 0
0 0
0 0
0 0
0 0
0 0
0 0
0 0
0 0
0 0
0 0
0 0
0 0
0 0
0 0
0 0
0 0
0 0
0 0
0 0
0 0
0 0
0 0
0 0
0 0
0 0
0 0
0 0
0 0
0 0
0 0
0 0
0 0
0 0
0 0
0 0
0 0
0 0
0 0
0 0
0 0
0 0
0 0
0 0
0 0
0 0
0 0
0 0
0 0
0 0
0 0
0 0
0 0
0 0
0 0
0 0
0 0
0 0
0 0
0 0
0 0
0 0
0 0
0 0
0 0
0 0
0 0
0 0
0 0
0 0
0 0
0 0
0 0
0 0
0 0
0 0
0 0
0 0
0 0
0 0
0 0
0 0
0 0
0 0
0 0
0 0
0 0
0 0
0 0
0 0
0 0
0 0
0 0
0 0
0 0
0 0
0 0
0 0
0 0
0 0
0 0
0 0
0 0
0 0
0 0
0 0
0 0
0 0
0 0
0 0
0 0
0 0
0 0
0 0
0 0
0 0
0 0
0 0
0 0
0 0
0 0
0 0
0 0
0 0
0 0
0 0
0 0
0 0
0 0
0 0
0 0
0 0
0 0
0 0
0 0
0 0
0 0
0 0
0 0
0 0
0 0
0 0
0 0
0 0
0 0
0 0
0 0
0 0
0 0
0 0
0 0
0 0
0 0
0 0
0 0
0 0
0 0
0 0
0 0
0 0
0 0
0 0
0 0
0 0
0 0
0 0
0 0
0 0
0 0
0 0
0 0
0 0
0 0
0 0
0 0
0 0
0 0
0 0
0 0
0 0
0 0
0 0
0 0
0 0
0 0
0 0
0 0
0 0
0 0
0 0
0 0
0 0
0 0
0 0
0 0
0 0
0 0
0 0
0 0
0 0
0 0
0 0
0 0
0 0
0 0
0 0
0 0
0 0
0 0
0 0
0 0
0 0
0 0
0 0
0 0
0 0
0 0
0 0
0 0
0 0
0 0
0 0
0 0
0 0
0 0
0 0
0 0
0 0
0 0
0 0
0 0
0 0
0 0
0 0
0 0
0 0
0 0
0 0
0 0
0 0
0 0
0 0
0 0
0 0
0 0
0 0
0 0
0 0
0 0
0 0
0 0
0 0
0 0
0 0
0 0
0 0
0 0
0 0
0 0
0 0
0 0
0 0
0 0
0 0
0 0
0 0
0 0
0 0
0 0
0 0
0 0
0 0
0 0
0 0
0 0
0 0
0 0
0 0
0 0
0 0
0 0
0 0
0 0
0 0
0 0
0 0
0 0
0 0
0 0
0 0
0 0
0 0
0 0
0 0
0 0
0 0
0 0
0 0
0 0
0 0
0 0
0 0
0 0
0 0
0 0
0 0
0 0
0 0
0 0
0 0
0 0
0 0
0 0
0 0
0 0
0 0
0 0
0 0
0 0
0 0
0 0
0 0
0 0
0 0
0 0
0 0
0 0
0 0
0 0
0 0
0 0
0 0
0 0
0 0
0 0
0 0
0 0
0 0
0 0
0 0
0 0
0 0
0 0
0 0
0 0
0 0
0 0
0 0
0 0
0 0
0 0
0 0
0 0
0 0
0 0
0 0
0 0
0 0
0 0
0 0
0 0
0 0
0 0
0 0
0 0
0 0
0 0
0 0
0 0
0 0
0 0
0 0
0 0
0 0
0 0
0 0
0 0
0 0
0 0
0 0
0 0
0 0
0 0
0 0
0 0
0 0
0 0
0 0
0 0
0 0
0 0
0 0
0 0
0 0
0 0
0 0
0 0
0 0
0 0
0 0
0 0
0 0
0 0
0 0
0 0
0 0
0 0
0 0
0 0
0 0
0 0
0 0
0 0
0 0
0 0
0 0
0 0
0 0
0 0
0 0
0 0
0 0
0 0
0 0
0 0
0 0
0 0
0 0
0 0
0 0
0 0
0 0
0 0
0 0
0 0
0 0
0 0
0 0
0 0
0 0
0 0
0 0
0 0
0 0
0 0
0 0
0 0
0 0
0 0
0 0
0 0
0 0
0 0
0 0
0 0
0 0
0 0
0 0
0 0
0 0
0 0
0 0
0 0
0 0
0 0
0 0
0 0
0 0
0 0
0 0
0 0
0 0
0 0
0 0
0 0
0 0
0 0
0 0
0 0
0 0
0 0
0 0
0 0
0 0
0 0
0 0
0 0
0 0
0 0
0 0
0 0
0 0
0 0
0 0
0 0
0 0
0 0
0 0
0 0
0 0
0 0
0 0
0 0
0 0
0 0
0 0
0 0
0 0
0 0
0 0
0 0
0 0
0 0
0 0
0 0
0 0
0 0
0 0
0 0
0 0
0 0
0 0
0 0
0 0
0 0
0 0
0 0
0 0
0 0
0 0
0 0
0 0
0 0
0 0
0 0
0 0
0 0
0 0
0 0
0 0
0 0
0 0
0 0
0 0
0 0
0 0
0 0
0 0
0 0
0 0
0 0
0 0
0 0
0 0
0 0
0 0
0 0
0 0
0 0
0 0
0 0
0 0
0 0
0 0
0 0
0 0
0 0
0 0
0 0
0 0
0 0
0 0
0 0
0 0
0 0
0 0
0 0
0 0
0 0
0 0
0 0
0 0
0 0
0 0
0 0
0 0
0 0
0 0
0 0
0 0
0 0
0 0
0 0
0 0
0 0
0 0
0 0
0 0
0 0
0 0
0 0
0 0
0 0
0 0
0 0
0 0
0 0
0 0
0 0
0 0
0 0
0 0
0 0
0 0
0 0
0 0
0 0
0 0
0 0
0 0
0 0
0 0
0 0
0 0
0 0
0 0
0 0
0 0
0 0
0 0
0 0
0 0
0 0
0 0
0 0
0 0
0 0
0 0
0 0
0 0
0 0
0 0
0 0
0 0
0 0
0 0
0 0
0 0
0 0
0 0
0 0
0 0
0 0
0 0
0 0
0 0
0 0
0 0
0 0
0 0
0 0
0 0
0 0
0 0
0 0
0 0
0 0
0 0
0 0
0 0
0 0
0 0
0 0
0 0
0 0
0 0
0 0
0 0
0 0
0 0
0 0
0 0
0 0
0 0
0 0
0 0
0 0
0 0
0 0
0 0
0 0
0 0
0 0
0 0
0 0
0 0
0 0
0 0
0 0
0 0
0 0
0 0
0 0
0 0
0 0
0 0
0 0
0 0
0 0
0 0
0 0
0 0
0 0
0 0
0 0
0 0
0 0
0 0
0 0
0 0
0 0
0 0
0 0
0 0
0 0
0 0
0 0
0 0
0 0
0 0
0 0
0 0
0 0
0 0
0 0
0 0
0 0
0 0
0 0
0 0
0 0
0 0
0 0
0 0
0 0
0 0
0 0
0 0
0 0
0 0
0 0
0 0
0 0
0 0
0 0
0 0
0 0
0 0
0 0
0 0
0 0
0 0
0 0
0 0
0 0
0 0
0 0
0 0
0 0
0 0
0 0
0 0
0 0
0 0
0 0
0 0
0 0
0 0
0 0
0 0
0 0
0 0
0 0
0 0
0 0
0 0
0 0
0 0
0 0
0 0
0 0
0 0
0 0
0 0
0 0
0 0
0 0
0 0
0 0
0 0
0 0
0 0
0 0
0 0
0 0
0 0
0 0
0 0
0 0
0 0
0 0
0 0
0 0
0 0
0 0
0 0
0 0
0 0
0 0
0 0
0 0
0 0
0 0
0 0
0 0
0 0
0 0
0 0
0 0
0 0
0 0
0 0
0 0
0 0
0 0
0 0
0 0
0 0
0 0
0 0
0 0
0 0
0 0
0 0
0 0
0 0
0 0
0 0
0 0
0 0
0 0
0 0
0 0
0 0
0 0
0 0
0 0
0 0
0 0
0 0
0 0
0 0
0 0
0 0
0 0
0 0
0 0
0 0
0 0
0 0
0 0
0 0
0 0
0 0
0 0
0 0
0 0
0 0
0 0
0 0
0 0
0 0
0 0
0 0
0 0
0 0
0 0
0 0
0 0
0 0
0 0
0 0
0 0
0 0
0 0
0 0
0 0
0 0
0 0
0 0
0 0
0 0
0 0
0 0
0 0
0 0
0 0
0 0
0 0
0 0
0 0
0 0
0 0
0 0
0 0
0 0
0 0
0 0
0 0
0 0
0 0
0 0
0 0
0 0
0 0
0 0
0 0
0 0
0 0
0 0
0 0
0 0
0 0
0 0
0 0
0 0
0 0
0 0
0 0
0 0
0 0
0 0
0 0
0 0
0 0
0 0
0 0
0 0
0 0
0 0
0 0
0 0
0 0
0 0
0 0
0 0
0 0
0 0
0 0
0 0
0 0
0 0
0 0
0 0
0 0
0 0
0 0
0 0
0 0
0 0
0 0
0 0
0 0
0 0
0 0
0 0
0 0
0 0
0 0
0 0
0 0
0 0
0 0
0 0
0 0
0 0
0 0
0 0
0 0
0 0
0 0
0 0
0 0
0 0
0 0
0 0
0 0
0 0
0 0
0 0
0 0
0 0
0 0
0 0
0 0
0 0
0 0
0 0
0 0
0 0
0 0
0 0
0 0
0 0
0 0
0 0
0 0
0 0
0 0
0 0
0 0
0 0
0 0
0 0
0 0
0 0
0 0
0 0
0 0
0 0
0 0
0 0
0 0
0 0
0 0
0 0
0 0
0 0
0 0
0 0
0 0
0 0
0 0
0 0
0 0
0 0
0 0
0 0
0 0
0 0
0 0
0 0
0 0
0 0
0 0
0 0
0 0
0 0
0 0
0 0
0 0
0 0
0 0
0 0
0 0
0 0
0 0
0 0
0 0
0 0
0 0
0 0
0 0
0 0
0 0
0 0
0 0
0 0
0 0
0 0
0 0
0 0
0 0
0 0
0 0
0 0
0 0
0 0
0 0
0 0
0 0
0 0
0 0
0 0
0 0
0 0
0 0
0 0
0 0
0 0
0 0
0 0
0 0
0 0
0 0
0 0
0 0
0 0
0 0
0 0
0 0
0 0
0 0
0 0
0 0
0 0
0 0
0 0
0 0
0 0
0 0
0 0
0 0
0 0
0 0
0 0
0 0
0 0
0 0
0 0
0 0
0 0
0 0
0 0
0 0
0 0
0 0
0 0
0 0
0 0
0 0
0 0
0 0
0 0
0 0
0 0
0 0
0 0
0 0
0 0
0 0
0 0
0 0
0 0
0 0
0 0
0 0
0 0
0 0
0 0
0 0
0 0
0 0
0 0
0 0
0 0
0 0
0 0
0 0
0 0
0 0
0 0
0 0
0 0
0 0
0 0
0 0
0 0
0 0
0 0
0 0
0 0
0 0
0 0
0 0
0 0
0 0
0 0
0 0
0 0
0 0
0 0
0 0
0 0
0 0
0 0
0 0
0 0
0 0
0 0
0 0
0 0
0 0
0 0
0 0
0 0
0 0
0 0
0 0
0 0
0 0
0 0
0 0
0 0
0 0
0 0
0 0
0 0
0 0
0 0
0 0
0 0
0 0
0 0
0 0
0 0
0 0
0 0
0 0
0 0
0 0
0 0
0 0
0 0
0 0
0 0
0 0
0 0
0 0
0 0
0 0
0 0
0 0
0 0
0 0
0 0
0 0
0 0
0 0
0 0
0 0
0 0
0 0
0 0
0 0
0 0
0 0
0 0
0 0
0 0
0 0
0 0
0 0
0 0
0 0
0 0
0 0
0 0
0 0
0 0
0 0
0 0
0 0
0 0
0 0
0 0
0 0
0 0
0 0
0 0
0 0
0 0
0 0
0 0
0 0
0 0
0 0
0 0
0 0
0 0
0 0
0 0
0 0
0 0
0 0
0 0
0 0
0 0
0 0
0 0
0 0
0 0
0 0
0 0
0 0
0 0
0 0
0 0
0 0
0 0
0 0
0 0
0 0
0 0
0 0
0 0
0 0
0 0
0 0
0 0
0 0
0 0
0 0
0 0
0 0
0 0
0 0
0 0
0 0
0 0
0 0
0 0
0 0
0 0
0 0
0 0
0 0
0 0
0 0
0 0
0 0
0 0
0 0
0 0
0 0
0 0
0 0
0 0
0 0
0 0
0 0
0 0
0 0
0 0
0 0
0 0
0 0
0 0
0 0
0 0
0 0
0 0
0 0
0 0
0 0
0 0
0 0
0 0
0 0
0 0
0 0
0 0
0 0
0 0
0 0
0 0
0 0
0 0
0 0
0 0
0 0
0 0
0 0
0 0
0 0
0 0
0 0
0 0
0 0
0 0
0 0
0 0
0 0
0 0
0 0
0 0
0 0
0 0
0 0
0 0
0 0
0 0
0 0
0 0
0 0
0 0
0 0
0 0
0 0
0 0
0 0
0 0
0 0
0 0
0 0
0 0
0 0
0 0
0 0
0 0
0 0
0 0
0 0
0 0
0 0
0 0
0 0
0 0
0 0
0 0
0 0
0 0
0 0
0 0
0 0
0 0
0 0
0 0
0 0
0 0
0 0
0 0
0 0
0 0
0 0
0 0
0 0
0 0
0 0
0 0
0 0
0 0
0 0
0 0
0 0
0 0
0 0
0 0
0 0
0 0
0 0
0 0
0 0
0 0
0 0
0 0
0 0
0 0
0 0
0 0
0 0
0 0
0 0
0 0
0 0
0 0
0 0
0 0
0 0
0 0
0 0
0 0
0 0
0 0
0 0
0 0
0 0
0 0
0 0
0 0
0 0
0 0
0 0
0 0
0 0
0 0
0 0
0 0
0 0
0 0
0 0
0 0
0 0
0 0
0 0
0 0
0 0
0 0
0 0
0 0
0 0
0 0
0 0
0 0
0 0
0 0
0 0
0 0
0 0
0 0
0 0
0 0
0 0
0 0
0 0
0 0
0 0
0 0
0 0
0 0
0 0
0 0
0 0
0 0
0 0
0 0
0 0
0 0
0 0
0 0
0 0
0 0
0 0
0 0
0 0
0 0
0 0
0 0
0 0
0 0
0 0
0 0
0 0
0 0
0 0
0 0
0 0
0 0
0 0
0 0
0 0
0 0
0 0
0 0
0 0
0 0
0 0
0 0
0 0
0 0
0 0
0 0
0 0
0 0
0 0
0 0
0 0
0 0
0 0
0 0
0 0
0 0
      </DataArray> 
      <DataArray type="Float64" NumberOfComponents="2" Name="Acceleration" format="ascii">
0 0
0 0
0 0
0 0
0 0
0 0
0 0
0 0
0 0
0 0
0 0
0 0
0 0
0 0
0 0
0 0
0 0
0 0
0 0
0 0
0 0
0 0
0 0
0 0
0 0
0 0
0 0
0 0
0 0
0 0
0 0
0 0
0 0
0 0
0 0
0 0
0 0
0 0
0 0
0 0
0 0
0 0
0 0
0 0
0 0
0 0
0 0
0 0
0 0
0 0
0 0
0 0
0 0
0 0
0 0
0 0
0 0
0 0
0 0
0 0
0 0
0 0
0 0
0 0
0 0
0 0
0 0
0 0
0 0
0 0
0 0
0 0
0 0
0 0
0 0
0 0
0 0
0 0
0 0
0 0
0 0
0 0
0 0
0 0
0 0
0 0
0 0
0 0
0 0
0 0
0 0
0 0
0 0
0 0
0 0
0 0
0 0
0 0
0 0
0 0
0 0
0 0
0 0
0 0
0 0
0 0
0 0
0 0
0 0
0 0
0 0
0 0
0 0
0 0
0 0
0 0
0 0
0 0
0 0
0 0
0 0
0 0
0 0
0 0
0 0
0 0
0 0
0 0
0 0
0 0
0 0
0 0
0 0
0 0
0 0
0 0
0 0
0 0
0 0
0 0
0 0
0 0
0 0
0 0
0 0
0 0
0 0
0 0
0 0
0 0
0 0
0 0
0 0
0 0
0 0
0 0
0 0
0 0
0 0
0 0
0 0
0 0
0 0
0 0
0 0
0 0
0 0
0 0
0 0
0 0
0 0
0 0
0 0
0 0
0 0
0 0
0 0
0 0
0 0
0 0
0 0
0 0
0 0
0 0
0 0
0 0
0 0
0 0
0 0
0 0
0 0
0 0
0 0
0 0
0 0
0 0
0 0
0 0
0 0
0 0
0 0
0 0
0 0
0 0
0 0
0 0
0 0
0 0
0 0
0 0
0 0
0 0
0 0
0 0
0 0
0 0
0 0
0 0
0 0
0 0
0 0
0 0
0 0
0 0
0 0
0 0
0 0
0 0
0 0
0 0
0 0
0 0
0 0
0 0
0 0
0 0
0 0
0 0
0 0
0 0
0 0
0 0
0 0
0 0
0 0
0 0
0 0
0 0
0 0
0 0
0 0
0 0
0 0
0 0
0 0
0 0
0 0
0 0
0 0
0 0
0 0
0 0
0 0
0 0
0 0
0 0
0 0
0 0
0 0
0 0
0 0
0 0
0 0
0 0
0 0
0 0
0 0
0 0
0 0
0 0
0 0
0 0
0 0
0 0
0 0
0 0
0 0
0 0
0 0
0 0
0 0
0 0
0 0
0 0
0 0
0 0
0 0
0 0
0 0
0 0
0 0
0 0
0 0
0 0
0 0
0 0
0 0
0 0
0 0
0 0
0 0
0 0
0 0
0 0
0 0
0 0
0 0
0 0
0 0
0 0
0 0
0 0
0 0
0 0
0 0
0 0
0 0
0 0
0 0
0 0
0 0
0 0
0 0
0 0
0 0
0 0
0 0
0 0
0 0
0 0
0 0
0 0
0 0
0 0
0 0
0 0
0 0
0 0
0 0
0 0
0 0
0 0
0 0
0 0
0 0
0 0
0 0
0 0
0 0
0 0
0 0
0 0
0 0
0 0
0 0
0 0
0 0
0 0
0 0
0 0
0 0
0 0
0 0
0 0
0 0
0 0
0 0
0 0
0 0
0 0
0 0
0 0
0 0
0 0
0 0
0 0
0 0
0 0
0 0
0 0
0 0
0 0
0 0
0 0
0 0
0 0
0 0
0 0
0 0
0 0
0 0
0 0
0 0
0 0
0 0
0 0
0 0
0 0
0 0
0 0
0 0
0 0
0 0
0 0
0 0
0 0
0 0
0 0
0 0
0 0
0 0
0 0
0 0
0 0
0 0
0 0
0 0
0 0
0 0
0 0
0 0
0 0
0 0
0 0
0 0
0 0
0 0
0 0
0 0
0 0
0 0
0 0
0 0
0 0
0 0
0 0
0 0
0 0
0 0
0 0
0 0
0 0
0 0
0 0
0 0
0 0
0 0
0 0
0 0
0 0
0 0
0 0
0 0
0 0
0 0
0 0
0 0
0 0
0 0
0 0
0 0
0 0
0 0
0 0
0 0
0 0
0 0
0 0
0 0
0 0
0 0
0 0
0 0
0 0
0 0
0 0
0 0
0 0
0 0
0 0
0 0
0 0
0 0
0 0
0 0
0 0
0 0
0 0
0 0
0 0
0 0
0 0
0 0
0 0
0 0
0 0
0 0
0 0
0 0
0 0
0 0
0 0
0 0
0 0
0 0
0 0
0 0
0 0
0 0
0 0
0 0
0 0
0 0
0 0
0 0
0 0
0 0
0 0
0 0
0 0
0 0
0 0
0 0
0 0
0 0
0 0
0 0
0 0
0 0
0 0
0 0
0 0
0 0
0 0
0 0
0 0
0 0
0 0
0 0
0 0
0 0
0 0
0 0
0 0
0 0
0 0
0 0
0 0
0 0
0 0
0 0
0 0
0 0
0 0
0 0
0 0
0 0
0 0
0 0
0 0
0 0
0 0
0 0
0 0
0 0
0 0
0 0
0 0
0 0
0 0
0 0
0 0
0 0
0 0
0 0
0 0
0 0
0 0
0 0
0 0
0 0
0 0
0 0
0 0
0 0
0 0
0 0
0 0
0 0
0 0
0 0
0 0
0 0
0 0
0 0
0 0
0 0
0 0
0 0
0 0
0 0
0 0
0 0
0 0
0 0
0 0
0 0
0 0
0 0
0 0
0 0
0 0
0 0
0 0
0 0
0 0
0 0
0 0
0 0
0 0
0 0
0 0
0 0
0 0
0 0
0 0
0 0
0 0
0 0
0 0
0 0
0 0
0 0
0 0
0 0
0 0
0 0
0 0
0 0
0 0
0 0
0 0
0 0
0 0
0 0
0 0
0 0
0 0
0 0
0 0
0 0
0 0
0 0
0 0
0 0
0 0
0 0
0 0
0 0
0 0
0 0
0 0
0 0
0 0
0 0
0 0
0 0
0 0
0 0
0 0
0 0
0 0
0 0
0 0
0 0
0 0
0 0
0 0
0 0
0 0
0 0
0 0
0 0
0 0
0 0
0 0
0 0
0 0
0 0
0 0
0 0
0 0
0 0
0 0
0 0
0 0
0 0
0 0
0 0
0 0
0 0
0 0
0 0
0 0
0 0
0 0
0 0
0 0
0 0
0 0
0 0
0 0
0 0
0 0
0 0
0 0
0 0
0 0
0 0
0 0
0 0
0 0
0 0
0 0
0 0
0 0
0 0
0 0
0 0
0 0
0 0
0 0
0 0
0 0
0 0
0 0
0 0
0 0
0 0
0 0
0 0
0 0
0 0
0 0
0 0
0 0
0 0
0 0
0 0
0 0
0 0
0 0
0 0
0 0
0 0
0 0
0 0
0 0
0 0
0 0
0 0
0 0
0 0
0 0
0 0
0 0
0 0
0 0
0 0
0 0
0 0
0 0
0 0
0 0
0 0
0 0
0 0
0 0
0 0
0 0
0 0
0 0
0 0
0 0
0 0
0 0
0 0
0 0
0 0
0 0
0 0
0 0
0 0
0 0
0 0
0 0
0 0
0 0
0 0
0 0
0 0
0 0
0 0
0 0
0 0
0 0
0 0
0 0
0 0
0 0
0 0
0 0
0 0
0 0
0 0
0 0
0 0
0 0
0 0
0 0
0 0
0 0
0 0
0 0
0 0
0 0
0 0
0 0
0 0
0 0
0 0
0 0
0 0
0 0
0 0
0 0
0 0
0 0
0 0
0 0
0 0
0 0
0 0
0 0
0 0
0 0
0 0
0 0
0 0
0 0
0 0
0 0
0 0
0 0
0 0
0 0
0 0
0 0
0 0
0 0
0 0
0 0
0 0
0 0
0 0
0 0
0 0
0 0
0 0
0 0
0 0
0 0
0 0
0 0
0 0
0 0
0 0
0 0
0 0
0 0
0 0
0 0
0 0
0 0
0 0
0 0
0 0
0 0
0 0
0 0
0 0
0 0
0 0
0 0
0 0
0 0
0 0
0 0
0 0
0 0
0 0
0 0
0 0
0 0
0 0
0 0
0 0
0 0
0 0
0 0
0 0
0 0
0 0
0 0
0 0
0 0
0 0
0 0
0 0
0 0
0 0
0 0
0 0
0 0
0 0
0 0
0 0
0 0
0 0
0 0
0 0
0 0
0 0
0 0
0 0
0 0
0 0
0 0
0 0
0 0
0 0
0 0
0 0
0 0
0 0
0 0
0 0
0 0
0 0
0 0
0 0
0 0
0 0
0 0
0 0
0 0
0 0
0 0
0 0
0 0
0 0
0 0
0 0
0 0
0 0
0 0
0 0
0 0
0 0
0 0
0 0
0 0
0 0
0 0
0 0
0 0
0 0
0 0
0 0
0 0
0 0
0 0
0 0
0 0
0 0
0 0
0 0
0 0
0 0
0 0
0 0
0 0
0 0
0 0
0 0
0 0
0 0
0 0
0 0
0 0
0 0
0 0
0 0
0 0
0 0
0 0
0 0
0 0
0 0
0 0
0 0
0 0
0 0
0 0
0 0
0 0
0 0
0 0
0 0
0 0
0 0
0 0
0 0
0 0
0 0
0 0
0 0
0 0
0 0
0 0
0 0
0 0
0 0
0 0
0 0
0 0
0 0
0 0
0 0
0 0
0 0
0 0
0 0
0 0
0 0
0 0
0 0
0 0
0 0
0 0
0 0
0 0
0 0
0 0
0 0
0 0
0 0
0 0
0 0
0 0
0 0
0 0
0 0
0 0
0 0
0 0
0 0
0 0
0 0
0 0
0 0
0 0
0 0
0 0
0 0
0 0
0 0
0 0
0 0
0 0
0 0
0 0
0 0
0 0
0 0
0 0
0 0
0 0
0 0
0 0
0 0
0 0
0 0
0 0
0 0
0 0
0 0
0 0
0 0
0 0
0 0
0 0
0 0
0 0
0 0
0 0
0 0
0 0
0 0
0 0
0 0
0 0
0 0
0 0
0 0
0 0
0 0
0 0
0 0
0 0
0 0
0 0
0 0
0 0
0 0
0 0
0 0
0 0
0 0
0 0
0 0
0 0
0 0
0 0
0 0
0 0
0 0
0 0
0 0
0 0
0 0
0 0
0 0
0 0
0 0
0 0
0 0
0 0
0 0
0 0
0 0
0 0
0 0
0 0
0 0
0 0
0 0
0 0
0 0
0 0
0 0
0 0
0 0
0 0
0 0
0 0
0 0
0 0
0 0
0 0
0 0
0 0
0 0
0 0
0 0
0 0
0 0
0 0
0 0
0 0
0 0
0 0
0 0
0 0
0 0
0 0
0 0
0 0
0 0
0 0
0 0
0 0
0 0
0 0
0 0
0 0
0 0
0 0
0 0
0 0
0 0
0 0
0 0
0 0
0 0
0 0
0 0
0 0
0 0
0 0
0 0
0 0
0 0
0 0
0 0
0 0
0 0
0 0
0 0
0 0
0 0
0 0
0 0
0 0
0 0
0 0
0 0
0 0
0 0
0 0
0 0
0 0
0 0
0 0
0 0
0 0
0 0
0 0
0 0
0 0
0 0
0 0
0 0
0 0
0 0
0 0
0 0
0 0
0 0
0 0
0 0
0 0
0 0
0 0
0 0
0 0
0 0
0 0
0 0
0 0
0 0
0 0
0 0
0 0
0 0
0 0
0 0
0 0
0 0
0 0
0 0
0 0
0 0
0 0
0 0
0 0
0 0
0 0
0 0
0 0
0 0
0 0
0 0
0 0
0 0
0 0
0 0
0 0
0 0
0 0
0 0
0 0
0 0
0 0
0 0
0 0
0 0
0 0
0 0
0 0
0 0
0 0
0 0
0 0
0 0
0 0
0 0
0 0
0 0
0 0
0 0
0 0
0 0
0 0
0 0
0 0
0 0
0 0
0 0
0 0
0 0
0 0
0 0
0 0
0 0
0 0
0 0
0 0
0 0
0 0
0 0
0 0
0 0
0 0
0 0
0 0
0 0
0 0
0 0
0 0
0 0
0 0
0 0
0 0
0 0
0 0
0 0
0 0
0 0
0 0
0 0
0 0
0 0
0 0
0 0
0 0
0 0
0 0
0 0
0 0
0 0
0 0
0 0
0 0
0 0
0 0
0 0
0 0
0 0
0 0
0 0
0 0
0 0
0 0
0 0
0 0
0 0
0 0
0 0
0 0
0 0
0 0
0 0
0 0
0 0
0 0
0 0
0 0
0 0
0 0
0 0
0 0
0 0
0 0
0 0
0 0
0 0
0 0
0 0
0 0
0 0
0 0
0 0
0 0
0 0
0 0
0 0
0 0
0 0
0 0
0 0
0 0
0 0
0 0
0 0
0 0
0 0
0 0
0 0
0 0
0 0
0 0
0 0
0 0
0 0
0 0
0 0
0 0
0 0
0 0
0 0
0 0
0 0
0 0
0 0
0 0
0 0
0 0
0 0
0 0
0 0
0 0
0 0
0 0
0 0
0 0
0 0
0 0
0 0
0 0
0 0
0 0
0 0
0 0
0 0
0 0
0 0
0 0
0 0
0 0
0 0
0 0
0 0
0 0
0 0
0 0
0 0
0 0
0 0
0 0
0 0
0 0
0 0
0 0
0 0
0 0
0 0
0 0
0 0
0 0
0 0
0 0
0 0
0 0
0 0
0 0
0 0
0 0
0 0
0 0
0 0
0 0
0 0
0 0
0 0
0 0
0 0
0 0
0 0
0 0
0 0
0 0
0 0
0 0
0 0
0 0
0 0
0 0
0 0
0 0
0 0
0 0
0 0
0 0
0 0
0 0
0 0
0 0
0 0
0 0
0 0
0 0
0 0
0 0
0 0
0 0
0 0
0 0
0 0
0 0
0 0
0 0
0 0
0 0
0 0
0 0
0 0
0 0
0 0
0 0
0 0
0 0
0 0
0 0
0 0
0 0
0 0
0 0
0 0
0 0
0 0
0 0
0 0
0 0
0 0
0 0
0 0
0 0
0 0
0 0
0 0
0 0
0 0
0 0
0 0
0 0
0 0
0 0
0 0
0 0
0 0
0 0
0 0
0 0
0 0
0 0
0 0
0 0
0 0
0 0
0 0
0 0
0 0
0 0
0 0
0 0
0 0
0 0
0 0
0 0
0 0
0 0
0 0
0 0
0 0
0 0
0 0
0 0
0 0
0 0
0 0
0 0
0 0
0 0
0 0
0 0
0 0
0 0
0 0
0 0
0 0
0 0
0 0
0 0
0 0
0 0
0 0
0 0
0 0
0 0
0 0
0 0
0 0
0 0
0 0
0 0
0 0
0 0
0 0
0 0
0 0
0 0
0 0
0 0
0 0
0 0
0 0
0 0
0 0
0 0
0 0
0 0
0 0
0 0
0 0
0 0
0 0
0 0
0 0
0 0
0 0
0 0
0 0
0 0
0 0
0 0
0 0
0 0
0 0
0 0
0 0
0 0
0 0
0 0
0 0
0 0
0 0
0 0
0 0
0 0
0 0
0 0
0 0
0 0
0 0
0 0
0 0
0 0
0 0
0 0
0 0
0 0
0 0
0 0
0 0
0 0
0 0
0 0
0 0
0 0
0 0
0 0
0 0
0 0
0 0
0 0
0 0
0 0
0 0
0 0
0 0
0 0
0 0
0 0
0 0
0 0
0 0
0 0
0 0
0 0
0 0
0 0
0 0
0 0
0 0
0 0
0 0
0 0
0 0
0 0
0 0
0 0
0 0
0 0
0 0
0 0
0 0
0 0
0 0
0 0
0 0
0 0
0 0
0 0
0 0
0 0
0 0
0 0
0 0
0 0
0 0
0 0
0 0
0 0
0 0
0 0
0 0
0 0
0 0
0 0
0 0
0 0
0 0
0 0
0 0
0 0
0 0
0 0
0 0
0 0
0 0
0 0
0 0
0 0
0 0
0 0
0 0
0 0
0 0
0 0
0 0
0 0
0 0
0 0
0 0
0 0
0 0
0 0
0 0
0 0
0 0
0 0
0 0
0 0
0 0
0 0
0 0
0 0
0 0
0 0
0 0
0 0
0 0
0 0
0 0
0 0
0 0
0 0
0 0
0 0
0 0
0 0
0 0
0 0
0 0
0 0
0 0
0 0
0 0
0 0
0 0
0 0
0 0
0 0
0 0
0 0
0 0
0 0
0 0
0 0
0 0
0 0
0 0
0 0
0 0
0 0
0 0
0 0
0 0
0 0
0 0
0 0
0 0
0 0
0 0
0 0
0 0
0 0
0 0
0 0
0 0
0 0
0 0
0 0
0 0
0 0
0 0
0 0
0 0
0 0
0 0
0 0
0 0
0 0
0 0
0 0
0 0
0 0
0 0
0 0
0 0
0 0
0 0
0 0
0 0
0 0
0 0
0 0
0 0
0 0
0 0
0 0
0 0
0 0
0 0
0 0
0 0
0 0
0 0
0 0
0 0
0 0
0 0
0 0
0 0
0 0
0 0
0 0
0 0
0 0
0 0
0 0
0 0
0 0
0 0
0 0
0 0
0 0
0 0
0 0
0 0
0 0
0 0
0 0
0 0
0 0
0 0
0 0
0 0
0 0
0 0
0 0
0 0
0 0
0 0
0 0
0 0
0 0
0 0
0 0
0 0
0 0
0 0
0 0
0 0
0 0
0 0
0 0
0 0
0 0
0 0
0 0
0 0
0 0
0 0
0 0
0 0
0 0
0 0
0 0
0 0
0 0
0 0
0 0
0 0
0 0
0 0
0 0
0 0
0 0
0 0
0 0
0 0
0 0
0 0
0 0
0 0
0 0
0 0
0 0
0 0
0 0
0 0
0 0
0 0
0 0
0 0
0 0
0 0
0 0
0 0
0 0
0 0
0 0
0 0
0 0
0 0
0 0
0 0
0 0
0 0
0 0
0 0
0 0
0 0
0 0
0 0
0 0
0 0
0 0
0 0
0 0
0 0
0 0
0 0
0 0
0 0
0 0
0 0
0 0
0 0
0 0
0 0
0 0
0 0
0 0
0 0
0 0
0 0
0 0
0 0
0 0
0 0
0 0
0 0
0 0
0 0
0 0
0 0
0 0
0 0
0 0
0 0
0 0
0 0
0 0
0 0
0 0
0 0
0 0
0 0
0 0
0 0
0 0
0 0
0 0
0 0
0 0
0 0
0 0
0 0
0 0
0 0
0 0
0 0
0 0
0 0
0 0
0 0
0 0
0 0
0 0
0 0
0 0
0 0
0 0
0 0
0 0
0 0
0 0
0 0
0 0
0 0
0 0
0 0
0 0
0 0
0 0
0 0
0 0
0 0
0 0
0 0
0 0
0 0
0 0
0 0
0 0
0 0
0 0
0 0
0 0
0 0
0 0
0 0
0 0
0 0
0 0
0 0
0 0
0 0
0 0
0 0
0 0
0 0
0 0
0 0
0 0
0 0
0 0
0 0
0 0
0 0
0 0
0 0
0 0
0 0
0 0
0 0
0 0
0 0
0 0
0 0
0 0
0 0
0 0
0 0
0 0
0 0
0 0
0 0
0 0
0 0
0 0
0 0
0 0
0 0
0 0
0 0
0 0
0 0
0 0
0 0
0 0
0 0
0 0
0 0
0 0
0 0
0 0
0 0
0 0
0 0
0 0
0 0
0 0
0 0
0 0
0 0
0 0
0 0
0 0
0 0
0 0
0 0
0 0
0 0
0 0
0 0
0 0
0 0
0 0
0 0
0 0
0 0
0 0
0 0
0 0
0 0
0 0
0 0
0 0
0 0
0 0
0 0
0 0
0 0
0 0
0 0
0 0
0 0
0 0
0 0
0 0
0 0
0 0
0 0
0 0
0 0
0 0
0 0
0 0
0 0
0 0
0 0
0 0
0 0
0 0
0 0
0 0
0 0
0 0
0 0
0 0
0 0
0 0
0 0
0 0
0 0
0 0
0 0
0 0
0 0
0 0
0 0
0 0
0 0
0 0
0 0
0 0
0 0
0 0
0 0
0 0
0 0
0 0
0 0
0 0
0 0
0 0
0 0
0 0
0 0
0 0
0 0
0 0
0 0
0 0
0 0
0 0
0 0
0 0
0 0
0 0
0 0
0 0
0 0
0 0
0 0
0 0
0 0
0 0
0 0
0 0
0 0
0 0
0 0
0 0
0 0
0 0
0 0
0 0
0 0
0 0
0 0
0 0
0 0
0 0
0 0
0 0
0 0
0 0
0 0
0 0
0 0
0 0
0 0
0 0
0 0
0 0
0 0
0 0
0 0
0 0
0 0
0 0
0 0
0 0
0 0
0 0
0 0
0 0
0 0
0 0
0 0
0 0
0 0
0 0
0 0
0 0
0 0
0 0
0 0
0 0
0 0
0 0
0 0
0 0
0 0
0 0
0 0
0 0
0 0
0 0
0 0
0 0
0 0
0 0
0 0
0 0
0 0
0 0
0 0
0 0
0 0
0 0
0 0
0 0
0 0
0 0
0 0
0 0
0 0
0 0
0 0
0 0
0 0
0 0
0 0
0 0
0 0
0 0
0 0
0 0
0 0
0 0
0 0
0 0
0 0
0 0
0 0
0 0
0 0
0 0
0 0
0 0
0 0
0 0
0 0
0 0
0 0
0 0
0 0
0 0
0 0
0 0
0 0
0 0
0 0
0 0
0 0
0 0
0 0
0 0
0 0
0 0
0 0
0 0
0 0
0 0
0 0
0 0
0 0
0 0
0 0
0 0
0 0
0 0
0 0
0 0
0 0
0 0
0 0
0 0
0 0
0 0
0 0
0 0
0 0
0 0
0 0
0 0
0 0
0 0
0 0
0 0
0 0
0 0
0 0
0 0
0 0
0 0
0 0
0 0
0 0
0 0
0 0
0 0
0 0
0 0
0 0
0 0
0 0
0 0
0 0
0 0
0 0
0 0
0 0
0 0
0 0
0 0
0 0
0 0
0 0
0 0
0 0
0 0
0 0
0 0
0 0
0 0
0 0
0 0
0 0
0 0
0 0
0 0
0 0
0 0
0 0
0 0
0 0
0 0
0 0
0 0
0 0
0 0
0 0
0 0
0 0
0 0
0 0
0 0
0 0
0 0
0 0
0 0
0 0
0 0
0 0
0 0
0 0
0 0
0 0
0 0
0 0
0 0
0 0
0 0
0 0
0 0
0 0
0 0
0 0
0 0
0 0
0 0
0 0
0 0
0 0
0 0
0 0
0 0
0 0
0 0
0 0
0 0
0 0
0 0
0 0
0 0
0 0
0 0
0 0
0 0
0 0
0 0
0 0
0 0
0 0
0 0
0 0
0 0
0 0
0 0
0 0
0 0
0 0
0 0
0 0
0 0
0 0
0 0
0 0
0 0
0 0
0 0
0 0
0 0
0 0
0 0
0 0
0 0
0 0
0 0
0 0
0 0
0 0
0 0
0 0
0 0
0 0
0 0
0 0
0 0
0 0
0 0
0 0
0 0
0 0
0 0
0 0
0 0
0 0
0 0
0 0
0 0
0 0
0 0
0 0
0 0
0 0
0 0
0 0
0 0
0 0
0 0
0 0
0 0
0 0
0 0
0 0
0 0
0 0
0 0
0 0
0 0
0 0
0 0
0 0
0 0
0 0
0 0
0 0
0 0
0 0
0 0
0 0
0 0
0 0
0 0
0 0
0 0
0 0
0 0
0 0
0 0
0 0
0 0
0 0
0 0
0 0
0 0
0 0
0 0
0 0
0 0
0 0
0 0
0 0
0 0
0 0
0 0
0 0
0 0
0 0
0 0
0 0
0 0
0 0
0 0
0 0
0 0
0 0
0 0
0 0
0 0
0 0
0 0
0 0
0 0
0 0
0 0
0 0
0 0
0 0
0 0
0 0
0 0
0 0
0 0
0 0
0 0
0 0
0 0
0 0
0 0
0 0
0 0
0 0
0 0
0 0
0 0
0 0
0 0
0 0
0 0
0 0
0 0
0 0
0 0
0 0
0 0
0 0
0 0
0 0
0 0
0 0
0 0
0 0
0 0
0 0
0 0
0 0
0 0
0 0
0 0
0 0
0 0
0 0
0 0
0 0
0 0
0 0
0 0
0 0
0 0
0 0
0 0
0 0
0 0
0 0
0 0
0 0
0 0
0 0
0 0
0 0
0 0
0 0
0 0
0 0
0 0
0 0
0 0
0 0
0 0
0 0
0 0
0 0
0 0
0 0
0 0
0 0
0 0
0 0
0 0
0 0
0 0
0 0
0 0
0 0
0 0
0 0
0 0
0 0
0 0
0 0
0 0
0 0
0 0
0 0
0 0
0 0
0 0
0 0
0 0
0 0
0 0
0 0
0 0
0 0
0 0
0 0
0 0
0 0
0 0
0 0
0 0
0 0
0 0
0 0
0 0
0 0
0 0
0 0
0 0
0 0
0 0
0 0
0 0
0 0
0 0
0 0
0 0
0 0
0 0
0 0
0 0
0 0
0 0
0 0
0 0
0 0
0 0
0 0
0 0
0 0
0 0
0 0
0 0
0 0
0 0
0 0
0 0
0 0
0 0
0 0
0 0
0 0
0 0
0 0
0 0
0 0
0 0
0 0
0 0
0 0
0 0
0 0
0 0
0 0
0 0
0 0
0 0
0 0
0 0
0 0
0 0
0 0
0 0
0 0
0 0
0 0
0 0
0 0
0 0
0 0
0 0
0 0
0 0
0 0
0 0
0 0
0 0
0 0
0 0
0 0
0 0
0 0
0 0
0 0
0 0
0 0
0 0
0 0
0 0
0 0
0 0
0 0
0 0
0 0
0 0
0 0
0 0
0 0
0 0
0 0
0 0
0 0
0 0
0 0
0 0
0 0
0 0
0 0
0 0
0 0
0 0
0 0
0 0
0 0
0 0
0 0
0 0
0 0
0 0
0 0
0 0
0 0
0 0
0 0
0 0
0 0
0 0
0 0
0 0
0 0
0 0
0 0
0 0
0 0
0 0
0 0
0 0
0 0
0 0
0 0
0 0
0 0
0 0
0 0
0 0
0 0
0 0
0 0
0 0
0 0
0 0
0 0
0 0
0 0
0 0
0 0
0 0
0 0
0 0
0 0
0 0
0 0
0 0
0 0
0 0
0 0
0 0
0 0
0 0
0 0
0 0
0 0
0 0
0 0
0 0
0 0
0 0
0 0
0 0
0 0
0 0
0 0
0 0
0 0
0 0
0 0
0 0
0 0
0 0
0 0
0 0
0 0
0 0
0 0
0 0
0 0
0 0
0 0
0 0
0 0
0 0
0 0
0 0
0 0
0 0
0 0
0 0
0 0
0 0
0 0
0 0
0 0
0 0
0 0
0 0
0 0
0 0
0 0
0 0
0 0
0 0
0 0
0 0
0 0
0 0
0 0
0 0
0 0
0 0
0 0
0 0
0 0
0 0
0 0
0 0
0 0
0 0
0 0
0 0
0 0
0 0
0 0
0 0
0 0
0 0
0 0
0 0
0 0
0 0
0 0
0 0
0 0
0 0
0 0
0 0
0 0
0 0
0 0
0 0
0 0
0 0
0 0
0 0
0 0
0 0
0 0
0 0
0 0
0 0
0 0
0 0
0 0
0 0
0 0
0 0
0 0
0 0
0 0
0 0
0 0
0 0
0 0
0 0
0 0
0 0
0 0
0 0
0 0
0 0
0 0
0 0
0 0
0 0
0 0
0 0
0 0
0 0
0 0
0 0
0 0
0 0
0 0
0 0
0 0
0 0
0 0
0 0
0 0
0 0
0 0
0 0
0 0
0 0
0 0
0 0
0 0
0 0
0 0
0 0
0 0
0 0
0 0
0 0
0 0
0 0
0 0
0 0
0 0
0 0
0 0
0 0
0 0
0 0
0 0
0 0
0 0
0 0
0 0
0 0
0 0
0 0
0 0
0 0
0 0
0 0
0 0
0 0
0 0
0 0
0 0
0 0
0 0
0 0
0 0
0 0
0 0
0 0
0 0
0 0
0 0
0 0
0 0
0 0
0 0
0 0
0 0
0 0
0 0
0 0
0 0
0 0
0 0
0 0
0 0
0 0
0 0
0 0
0 0
0 0
0 0
0 0
0 0
0 0
0 0
0 0
0 0
0 0
0 0
0 0
0 0
0 0
0 0
0 0
0 0
0 0
0 0
0 0
0 0
0 0
0 0
0 0
0 0
0 0
0 0
0 0
0 0
0 0
0 0
0 0
0 0
0 0
0 0
0 0
0 0
0 0
0 0
0 0
0 0
0 0
0 0
0 0
0 0
0 0
0 0
0 0
0 0
0 0
0 0
0 0
0 0
0 0
0 0
0 0
0 0
0 0
0 0
0 0
0 0
0 0
0 0
0 0
0 0
0 0
0 0
0 0
0 0
0 0
0 0
0 0
0 0
0 0
0 0
0 0
0 0
0 0
0 0
0 0
0 0
0 0
0 0
0 0
0 0
0 0
0 0
0 0
0 0
0 0
0 0
0 0
0 0
0 0
0 0
0 0
0 0
0 0
0 0
0 0
0 0
0 0
0 0
0 0
0 0
0 0
0 0
0 0
0 0
0 0
0 0
0 0
0 0
0 0
0 0
0 0
0 0
0 0
0 0
0 0
0 0
0 0
0 0
0 0
0 0
0 0
0 0
0 0
0 0
0 0
0 0
0 0
0 0
0 0
0 0
0 0
0 0
0 0
0 0
0 0
0 0
0 0
0 0
0 0
0 0
0 0
0 0
0 0
0 0
0 0
0 0
0 0
0 0
0 0
0 0
0 0
0 0
0 0
0 0
0 0
0 0
0 0
0 0
0 0
0 0
0 0
0 0
0 0
0 0
0 0
0 0
0 0
0 0
0 0
0 0
0 0
0 0
0 0
0 0
0 0
0 0
0 0
0 0
0 0
0 0
0 0
0 0
0 0
0 0
0 0
0 0
0 0
0 0
0 0
0 0
0 0
0 0
0 0
0 0
0 0
0 0
0 0
0 0
0 0
0 0
0 0
0 0
0 0
0 0
0 0
0 0
0 0
0 0
0 0
0 0
0 0
0 0
0 0
0 0
0 0
0 0
0 0
0 0
0 0
0 0
0 0
0 0
0 0
0 0
0 0
0 0
0 0
0 0
0 0
0 0
0 0
0 0
0 0
0 0
0 0
0 0
0 0
0 0
0 0
0 0
0 0
0 0
0 0
0 0
0 0
0 0
0 0
0 0
0 0
0 0
0 0
0 0
0 0
0 0
0 0
0 0
0 0
0 0
0 0
0 0
0 0
0 0
0 0
0 0
0 0
0 0
0 0
0 0
0 0
0 0
0 0
0 0
0 0
0 0
0 0
0 0
0 0
0 0
0 0
0 0
0 0
0 0
0 0
0 0
0 0
0 0
0 0
0 0
0 0
0 0
0 0
0 0
0 0
0 0
0 0
0 0
0 0
0 0
0 0
0 0
0 0
0 0
0 0
0 0
0 0
0 0
0 0
0 0
0 0
0 0
0 0
0 0
0 0
0 0
0 0
0 0
0 0
0 0
0 0
0 0
0 0
0 0
0 0
0 0
0 0
0 0
0 0
0 0
0 0
0 0
0 0
0 0
0 0
0 0
0 0
0 0
0 0
0 0
0 0
0 0
0 0
0 0
0 0
0 0
0 0
0 0
      </DataArray> 
      <DataArray type="Float64" NumberOfComponents="2" Name="CauchyNormalStress" format="ascii">
14.502 8.76902
13.1949 7.11575
14.0222 1.44005
7.19667 -0.339844
4.86129 0.0591873
2.98995 -0.0218963
1.93436 -0.1589
1.23143 -0.158059
0.419162 -0.0714787
-0.166622 -0.00701743
-0.626053 -0.0762335
-0.904752 -0.104943
-1.30065 -0.0553536
-1.55701 -0.00254767
-1.72723 -0.0611134
-1.76712 -0.0756396
-1.89325 -0.0282291
-1.89998 0.00669583
-1.82405 -0.056493
-1.61401 -0.0760328
-1.49059 -0.0279598
-1.24587 0.0046775
-0.895411 -0.0707493
-0.367419 -0.102642
0.0508996 -0.0366691
0.64525 0.022571
1.44498 -0.0755224
2.75773 -0.32373
4.01925 -0.463974
6.01676 -0.219603
12.6071 0.624048
-1.26921 1.5171
-1.67361 1.77411
-1.51367 3.31342
4.44357 11.535
-1.18883 -0.0438801
-0.306672 -0.0346619
-0.066962 -0.250585
-0.164163 -0.431291
-0.157812 -0.498461
-0.041563 -0.819648
-0.0281826 -0.916501
-0.0234373 -1.02407
-0.0654071 -1.05033
-0.102751 -1.15656
-0.116421 -0.972993
-0.12744 -1.06466
-0.163535 -1.03272
-0.221093 -1.04868
-0.277478 -0.952882
-0.327163 -0.939939
-0.372404 -0.777487
-0.453195 -0.820546
-0.0109252 -1.07562
-0.94419 -0.0691138
-1.12205 -0.0882113
-0.849846 -0.208243
-0.918818 -0.270062
-0.647566 -0.467839
-122.999 -317.56
-0.701352 -3.02934
-0.223826 -1.1549
-1.51572 -3.7956
-12.1698 -61.3113
-4.22086 -54.1772
0.0299757 -30.9203
-2.39864 -32.545
-2.77429 -31.9578
-5.02765 -37.119
27.2334 1.67223
-20.4098 -61.4322
-27.0328 -73.4961
-37.2778 -110.132
-12.3007 -60.8649
28.5434 0.777364
39.1876 15.9206
-30.5969 -11.5137
-111.813 -304.503
-4.50881 -54.3919
0.0204544 -31.2561
-2.48048 -32.7263
-2.77535 -32.0507
-5.00595 -37.0961
0.0266063 -1.36649
-0.682061 -2.98538
-0.339707 -1.15667
-1.99295 -3.38101
-1.28684 0.169488
-0.337921 -2.3547
-0.0615485 -1.3177
-0.326205 -1.64379
-0.36019 -0.950146
-0.440798 -0.838404
-0.931453 1.57439
-0.937745 -0.0213076
-1.09089 -0.145127
-0.80749 -0.171762
-0.906771 -0.31888
-0.705763 -0.315537
-0.698237 -0.463671
-0.56538 -0.530688
-0.541599 -0.636806
-0.465608 -0.764006
-0.385919 -0.776101
-0.338081 -0.944647
-0.23427 -0.891602
-0.182146 -1.07659
-0.104724 -1.06291
-0.12526 -1.1184
-0.103251 -1.00693
-0.0658911 -1.06995
-1.24848 2.45848
-0.458441 4.46772
4.83482 10.7604
-31.5117 -18.951
-19.1634 -49.2455
-30.5239 -20.4899
-16.7488 -66.6701
-21.3956 -53.9466
-3.77045 -39.6938
-31.1459 -14.9443
8.25028 -43.9427
2.49601 -6.54383
1.7179 -6.66943
-5.62432 -68.3808
-5.93778 -70.3414
3.95247 -16.299
1.55724 -7.69925
0.735844 -33.209
0.847953 -29.0136
-0.46086 -33.3904
1.66358 -25.351
1.02693 -29.4835
-2.96943 -28.0744
-0.36701 -28.2095
-0.828697 -30.539
-4.00615 -30.1621
2.40955 -23.3891
3.09974 -22.3369
2.65804 -30.4449
-16.039 -9.9681
-16.7032 -9.97242
-17.7456 -10.9948
1.49913 -35.3488
2.07816 -26.9136
-9.16965 -31.1747
-8.76027 -29.2968
-0.505882 -39.3765
-2.58415 -37.9664
-7.12241 -33.4219
-8.00513 -35.8591
-0.661446 -36.5191
-12.3035 -8.14132
-14.65 -8.65897
-13.596 -8.75755
1.32946 -22.5355
1.8186 -23.7515
-13.7246 -14.0818
-9.04278 -21.2497
-1.9811 -24.3893
0.674778 -21.2206
0.474966 -22.7013
-2.07658 -26.3575
-9.64207 -22.7742
-14.6141 -14.6397
2.79485 -19.5686
3.84257 -27.1702
-22.813 -16.9434
-22.2038 -13.4962
-18.6482 -10.8441
-19.5293 -14.8262
4.84074 -28.0999
5.21404 -33.825
4.20753 -32.7071
3.36406 -26.9624
3.33325 -21.0657
2.93621 -18.6978
-23.9011 -19.4149
-13.7025 -28.3629
-13.2307 -26.4319
-23.6808 -27.1845
3.81781 -41.8131
0.30375 -52.9522
-8.68727 -39.5197
-1.70833 -41.7975
4.6034 -38.488
-11.0648 -7.94292
-12.6508 -8.09298
-12.6375 -7.77035
-12.9781 -8.02419
-10.6077 -6.75635
-10.2681 -6.64803
-9.82315 -6.34238
-11.2329 -7.54512
1.76094 -19.1836
2.44637 -17.4026
2.59483 -16.9824
1.81642 -19.7276
-10.4542 -8.00693
-10.9362 -9.14347
-11.1496 -13.7308
-8.60012 -16.3852
-4.1347 -19.2827
-1.37625 -20.8375
-1.95184 -21.9101
-4.81191 -20.442
-9.31886 -17.5253
-11.5116 -14.2175
-11.5808 -8.7702
-10.838 -7.70332
2.68436 -16.469
4.24695 -21.4687
-30.2546 -24.41
-25.0866 -14.1393
-27.2418 -17.2034
6.23193 -28.2742
6.23322 -31.7992
3.91996 -21.2018
2.59649 -14.9382
-24.1195 -30.7527
-24.194 -39.7009
6.63992 -45.3708
-11.4626 -47.089
-24.6156 -48.9747
-9.26409 -40.9511
2.21294 -46.7541
-7.74158 -5.54357
-8.84243 -6.16677
-8.98537 -6.10106
-7.85479 -5.41973
-7.3245 -5.28324
-7.34397 -5.18776
2.08098 -15.875
1.75086 -15.6218
-7.64851 -6.82482
-5.7077 -11.3841
-0.55007 -16.137
-1.41532 -16.826
-6.23762 -11.6435
-7.63895 -6.31331
1.79857 -10.3348
2.22542 -11.9596
2.64833 -14.2781
3.14306 -14.595
4.39536 -16.013
5.72499 -20.9501
-26.0591 -38.6818
-32.0464 -15.1339
-29.0608 -26.633
6.92321 -26.5394
7.06563 -28.1328
5.8053 -23.1858
4.46961 -18.8656
3.46001 -16.0886
2.30598 -12.4374
1.66315 -9.17663
-28.7729 -42.3378
-28.9341 -55.8901
7.8696 -33.6412
7.18333 -61.155
-27.5604 -64.886
8.16509 -45.5473
7.6625 -31.6389
-15.867 -52.9757
4.51423 -55.6391
-4.01192 -3.87518
-4.38027 -3.71762
-5.4904 -4.47802
-4.71564 -4.45211
-6.38495 -4.56713
-5.92272 -4.61738
-6.07356 -4.21144
-6.07334 -4.3104
-4.90106 -3.74529
-5.22136 -3.73213
-4.60434 -4.09227
-5.26453 -4.03524
-3.75892 -3.46988
-4.1975 -3.77851
1.87599 -14.1725
2.05191 -13.7587
2.14757 -12.0075
1.56422 -8.95575
2.16246 -11.604
1.93019 -14.1945
0.929824 -15.1722
-5.17015 -4.83682
-4.03476 -6.45345
-1.68059 -10.0103
0.367729 -12.1494
-1.06807 -13.2617
-2.4917 -10.393
-4.67251 -6.27026
-4.77821 -4.16856
0.689056 -4.76623
1.45048 -8.24718
1.95416 -9.23512
2.89604 -11.1709
4.00418 -13.4472
0.778875 -87.5754
-24.7 -13.2264
-14.8559 -1.78598
-25.3465 -10.1851
-3.25817 -80.0879
6.0283 -20.8942
5.80363 -19.9784
4.03677 -14.6225
2.4451 -11.7285
0.829827 -5.52481
1.47923 -112.774
-8.94387 -86.3516
0.964909 -108.946
-3.97003 -92.4852
6.21037 -35.3636
-15.9267 -90.019
-52.1804 -105.236
6.03261 -29.1749
-49.9703 -92.5003
-4.2025 -71.3742
-0.507921 -2.18556
-1.88401 -2.90039
-3.38099 -2.89686
-3.86429 -2.70084
-3.54297 -2.54489
-2.43122 -2.6003
-0.58604 -2.36632
3.01434 -9.76033
1.14903 -6.26679
1.57513 -6.97342
2.13479 -10.6763
-0.29833 -2.78191
3.22007 -7.7647
4.63844 -6.69078
3.58528 -8.29929
1.27211 -8.59765
-0.427044 -2.60158
0.70212 -2.94866
0.678463 -3.84281
0.16888 -2.12704
0.461361 -3.55722
0.433758 -3.55533
0.848691 -5.40941
0.733027 -4.61023
1.10046 -5.75788
1.16185 -5.699
1.32636 -5.95611
1.11659 -5.23975
-22.2579 -37.1226
-11.6739 -3.75776
-10.5368 -3.36272
-22.9335 -26.0864
2.31485 -8.15774
2.87851 -9.78079
3.07422 -10.9293
2.11986 -9.24206
2.64794 -15.0668
2.4819 -13.5928
2.23469 -9.65586
2.79514 -10.1302
2.83531 -9.6812
2.20492 -7.94296
2.2048 -8.08609
1.66509 -6.86204
0.991537 -5.10733
1.18842 -6.0581
0.324423 -3.28151
0.451601 -3.32371
0.409765 -3.39191
0.293902 -2.83649
1.23345 -60.9394
1.43949 -81.2047
-1.35509 -108.338
1.01374 -59.2459
0.929806 -103.77
0.591903 -78.0978
0.888145 -18.1464
-3.2172 -16.4333
-2.26562 -126.69
1.61248 -17.7916
3.34571 -85.4513
-0.923904 -23.0049
2.40681 -1.19637
5.39299 1.65114
2.94638 -1.66872
0.429017 -1.46799
1.26735 -1.45219
-0.641136 -1.55038
-1.7305 -1.49601
-1.27073 -1.46409
-2.25728 -1.45552
-2.70327 -1.42936
-2.52528 -1.39283
-2.68884 -1.30228
-2.62366 -1.31148
-2.7074 -1.26521
-2.28669 -1.28668
-1.62872 -1.32859
-2.02771 -1.26154
-0.86117 -1.35591
0.808582 -1.48248
-0.230127 -1.31803
2.13774 -0.953664
5.9383 1.15026
2.78659 -1.06911
0.173165 -1.72985
0.175666 -1.99654
0.372874 -2.65133
0.318852 -2.53837
1.69874 -6.15131
3.47476 -2.02768
2.05681 -6.07766
3.22422 -7.20774
2.74588 -2.81059
5.8555 -0.0219008
3.70005 -4.00529
2.70341 -4.79844
5.22118 0.0401254
0.249191 -1.29481
0.215232 -1.17281
0.292996 0.29082
0.493993 -0.7029
0.389434 -0.789873
0.177316 0.0119593
2.34024 1.30502
11.1597 4.57932
2.82917 1.39028
2.60035 0.0236257
2.86736 -0.250486
8.81192 1.54201
5.36361 -4.35899
6.69957 -1.59476
0.951829 -2.04302
1.16276 -2.16425
-0.431456 -5.02733
0.471585 -5.15561
2.50197 -9.80028
2.17314 -9.49112
0.714465 -4.78349
0.373836 -3.16688
-0.336152 -1.5245
-1.42293 -2.64357
-3.00867 -2.53322
-3.68746 -2.54483
-3.70351 -2.80876
-2.66469 -2.92985
-0.723554 -2.81594
-1.77612 -1.60813
5.97893 -41.0657
4.22431 -52.8962
7.42856 -89.6811
8.04208 -92.4557
0.948828 -5.75566
2.79269 -11.4262
5.02828 -16.7442
5.06521 -19.5559
6.26193 -24.9705
5.1228 -17.0214
-23.7459 -27.7901
-21.1281 -37.598
2.90965 -10.348
2.46707 -10.5821
1.9436 -9.95365
1.04183 -6.2783
1.73959 -11.6855
3.46163 -10.3514
-28.9074 -65.2397
-31.0176 -77.7659
-28.1746 -8.80851
-8.52363 -7.87285
-4.1895 -15.149
-3.32788 -14.3639
-8.32923 -8.38533
0.852759 -18.4538
2.24041 -13.047
2.40312 -14.2192
1.3997 -17.8063
-6.92575 -5.0998
-7.74175 -5.46102
-6.92481 -4.96108
-8.60831 -5.83995
-9.26109 -6.28901
-8.42061 -5.98515
-7.16007 -5.37766
-4.92583 -45.0014
7.07156 -41.0235
4.75302 -58.2282
6.82574 -35.5455
-29.3153 -36.4468
-30.6631 -25.7265
3.0647 -16.7109
5.02624 -26.0317
-20.7659 -12.1504
-29.1246 -18.8526
5.23776 -22.1306
3.21607 -18.5872
-13.3856 -36.7489
-13.0808 -34.453
-14.7098 -9.8833
-14.4115 -19.9608
-5.10726 -25.6508
-4.56723 -24.0743
-13.7883 -18.5125
-13.6805 -10.2372
2.78831 -20.8674
2.28238 -20.5759
-12.6566 -7.73616
-16.6308 -9.64788
1.36724 -38.5779
-3.93135 -44.2817
1.68822 -32.1308
2.59642 -34.6788
0.679874 -26.8128
0.41056 -24.5847
-2.62749 -34.5298
-1.20922 -31.8996
2.84874 -26.1696
3.40885 -131.843
-2.40578 -1.68461
-14.3644 -31.0886
-5.74589 -28.309
-4.25237 -3.69792
5.38886 -57.9043
-1.78318 -2.35693
-22.6553 -178.312
-15.3231 -55.4251
-2.66262 -3.16149
-8.00128 -31.7561
2.28845 -82.5085
-0.167026 -91.6788
-12.9732 -91.3949
-11.6551 -74.4803
-7.43264 -144.682
-7.26981 -39.3671
-11.8858 -43.2928
-8.10545 -63.6707
3.70724 -83.4801
3.21235 -91.9759
0.745854 -67.3967
-4.37007 -58.5167
-3.30675 -50.094
-16.0905 -47.4487
-20.9867 -58.9073
-1.04455 -45.7319
3.01294 -75.6213
-0.174467 -95.9818
-10.6508 -77.0565
-13.0407 -96.558
-7.80153 -65.381
-7.29835 -39.4099
-11.863 -43.4167
-12.5255 -159.941
2.63842 -94.6136
4.28115 -86.6808
1.20589 -69.6595
-3.22841 -51.0497
-4.09545 -60.01
-0.94835 -46.6316
-16.137 -47.7931
-20.9763 -59.9519
3.44023 -78.1412
-14.5479 -9.89771
1.84813 -5.48102
8.80218 2.83784
6.83213 -0.673051
-79.3167 -152.954
-37.8308 -111.72
-58.3982 -86.1728
-22.8063 -28.7696
-16.5335 -13.226
-15.7058 -12.1336
7.06465 1.68835
0.58714 -5.57011
-58.2289 -96.8581
-78.1839 -155.263
-31.3475 -12.8702
6.61298 -1.02909
-16.198 -17.0347
-21.6962 -38.9431
-25.306 -80.1346
-22.6166 -113.544
1.52231 -86.4117
-81.337 -129.386
6.94332 -62.9256
-27.3782 -62.8171
-36.4106 -76.6496
-46.5447 -97.0503
-9.98789 -112.639
-56.6441 -128.321
4.04463 -83.241
-81.7854 -135.317
-41.3729 -89.8929
-36.8639 -79.8016
-23.5957 -102.284
-22.0149 -126.4
-3.57836 -99.9144
1.71127 -93.294
-17.1561 -85.8006
-26.1674 -89.6734
-7.06332 -98.2512
-31.8529 -114.023
0.123789 -91.8484
-19.5577 -75.1126
3.20034 -97.0585
-13.3334 -62.842
-6.45096 -73.9081
-15.8752 -55.6022
-24.2833 -153.446
5.86755 -99.419
1.82866 -87.666
-20.4649 -5.47744
-11.6031 -2.58985
-18.7138 -8.79029
5.34842 -1.30504
-24.0738 -17.8511
-26.3202 -9.1769
-22.1906 -6.16584
-20.1541 -7.03384
-19.2389 -11.0859
-12.2043 -2.96546
-22.8605 -23.2965
-25.9982 -10.578
4.04644 -99.8454
-4.85125 -79.9901
-9.25496 -72.5345
-22.9895 -149.475
-11.8115 -65.2988
3.34114 -89.4943
5.23056 -96.8519
-25.2734 -55.5244
-15.1504 -64.6481
-4.74757 -56.8702
-10.3091 -49.0568
-31.0267 -71.1367
-16.4123 -73.5061
-0.328721 -74.061
-3.50428 -64.3351
-27.5027 -57.0099
-20.4576 -50.8994
-14.2639 -44.6895
-18.9967 -42.8082
-23.7876 -39.88
-26.7545 -36.7502
-27.5224 -46.0349
-27.5009 -28.0772
-29.4223 -34.3004
-28.0477 -53.1685
-19.061 -33.8229
-27.0488 -38.241
-26.7993 -32.0367
-23.5628 -33.3901
-18.6097 -30.7224
-18.9035 -23.2275
-18.6712 -37.218
-27.3324 -23.0129
-23.7889 -24.9693
-19.4 -25.6906
-19.3197 -19.3921
-28.9498 -21.3215
-25.4919 -18.1604
-22.3302 -15.7022
-24.0504 -14.8932
-25.5985 -16.3429
-27.009 -16.2013
-23.594 -13.7149
-20.9144 -12.0338
-22.8811 -13.0607
-19.4869 -11.4706
-23.0442 -21.8287
-27.0617 -25.6528
-26.7278 -21.1768
-29.5809 -30.2065
-29.6263 -21.3564
-25.8891 -17.7359
-18.4096 -17.3777
-22.3329 -15.0538
-19.1974 -11.8048
-14.8128 -9.99713
-16.1983 -9.80132
-19.4748 -13.3495
-18.4345 -14.0058
-18.0602 -73.2777
-4.62027 -91.6951
-17.2553 -93.5006
2.36603 -83.7589
-27.0344 -73.2243
-20.342 -61.2363
-9.6504 -63.4204
0.493161 -46.791
-1.97007 -67.2444
-3.05131 -49.0394
-25.1893 -67.3406
-33.7662 -53.3248
-2.87415 -48.0062
-1.95891 -65.4243
0.393209 -45.8966
2.10663 -81.0716
-25.5701 -65.0893
-32.9179 -54.6499
-9.31969 -62.7811
-17.2921 -91.7516
-4.47775 -89.0216
-17.7676 -72.2558
38.3067 18.9946
28.6057 1.3721
-29.8955 -20.4902
-28.5225 -13.3872
-27.0416 -17.7488
-29.646 -11.3376
-26.0071 -27.4947
-30.0053 -26.3431
-30.9856 -20.3005
-25.607 -40.7666
-25.0516 -47.1284
-28.9101 -35.059
-25.0203 -59.9819
-22.2971 -42.3788
-5.31741 -82.0972
-16.2292 -69.5438
-11.9754 -65.1987
-7.46546 -75.6507
-12.0799 -79.4009
-1.23464 -88.1538
-22.8099 -71.9704
-18.1269 -54.1389
-27.0908 -48.1927
-22.6759 -60.3389
-21.8857 -53.7716
-29.8455 -66.1632
-23.1273 -38.7953
-27.7049 -37.5742
-28.3507 -46.6459
-30.5417 -23.0788
-31.1045 -17.3009
-31.1631 -19.3491
-29.504 -14.1553
-30.5062 -12.854
-30.9729 -17.6943
-29.7721 -28.2159
-25.2092 -24.8088
-27.9623 -18.0712
-28.3173 -28.7633
-24.7174 -52.5824
-22.4133 -57.0926
-29.4302 -60.5918
-10.9763 -58.5299
-26.5368 -47.6422
-21.9225 -44.4064
-15.7348 -41.6685
-28.5768 -16.8765
-29.4644 -18.191
-26.0999 -15.7456
-30.8391 -22.253
-30.3452 -18.6444
-31.3945 -14.685
-31.4031 -17.3381
-31.6317 -16.502
-7.40677 -16.8363
-4.61871 -22.3339
-4.29476 -11.3034
-2.04918 -46.1181
-0.411846 -34.4394
-2.73769 -9.57164
-4.05209 -2.74631
-6.30919 -1.93627
-10.2421 -17.75
-7.63669 -76.3725
-4.00032 -58.7601
-10.191 -40.8725
3.97951 -64.4333
-15.4308 -28.4509
-7.8824 -87.2515
2.16396 -98.1596
-41.1139 -238.285
-46.5901 -55.4353
-27.4862 -103.709
-4.89102 -117.3
-24.8925 -110.371
-64.8785 -207.052
-46.5547 -52.5427
-50.4942 -250.02
-27.2505 -113.082
-25.5934 -120.73
-7.00906 -124.017
-62.4708 -223.382
-49.6969 -119.639
-37.0231 -142.741
-14.0817 -130.615
-112.429 -201.418
-47.8862 -198.049
1.79038 -99.6224
-7.17554 -106.549
-39.7023 -100.624
-60.0454 -109.447
3.62821 -73.9948
5.62014 -61.9722
4.93983 -72.4262
5.97321 -47.8372
6.28633 -52.9313
2.10647 -67.8623
-2.56459 -79.4466
1.29405 -89.6541
4.69073 -67.9504
-26.6196 -70.7427
-32.6227 -69.7599
-32.7014 -78.0733
-28.9917 -64.415
-32.3276 -71.0214
-40.8917 -84.828
-39.4502 -86.4572
-13.6423 -76.2339
-19.3893 -72.2647
-1.23338 -95.2819
1.95951 -85.3657
-2.13695 -99.3666
4.2052 -69.3466
-7.95096 -124.108
-14.203 -101.373
-4.57782 -87.4114
-42.4015 -155.096
-65.1441 -160.349
-77.3095 -130.303
-88.8114 -244.617
-114.243 -211.561
-58.8391 -119.861
-60.546 -114.187
-26.6473 -134.615
-11.0019 -151.873
-47.1112 -93.4019
-41.9781 -84.9563
-39.1225 -87.6273
-34.0891 -83.027
-36.2085 -79.077
-27.1176 -84.5606
-31.1049 -94.1668
-54.2618 -101.754
-43.9463 -97.2844
-43.9239 -132.596
-38.6326 -143.97
-18.6066 -139.941
-9.35293 -116.898
-37.5394 -116.017
-37.1935 -104.147
-32.719 -96.2722
-28.8965 -89.7843
-11.5647 -95.3152
-26.3073 -135.71
-49.7554 -143.907
-55.3279 -118.431
-43.5666 -103.006
-15.736 -115.972
-38.6658 -92.1216
-32.2437 -83.2577
-17.0154 -86.946
-28.0219 -77.1619
-10.0658 -67.6313
-4.79647 -64.0445
-10.1484 -60.7138
-10.3711 -54.9826
-4.95952 -50.9618
-15.517 -58.9058
0.634402 -79.4967
3.66054 -68.4104
6.10824 -70.5073
2.6239 -65.2852
5.48457 -60.1346
5.60064 -58.1631
-7.00193 -81.4361
-9.47879 -69.0222
-2.4653 -69.3725
-7.89037 -74.0249
0.848794 -61.6543
-16.3172 -81.3873
-23.1248 -68.9994
-13.0207 -65.5778
-1.1985 -58.278
-7.62943 -61.3535
-15.7247 -54.0595
-19.1784 -62.1129
2.057 -55.782
-5.22008 -56.0971
-6.97906 -51.0868
-2.27821 -48.6643
0.19763 -56.3279
2.92065 -51.3884
-1.05124 -51.5877
6.05806 -47.6317
4.86526 -44.075
-1.25555 -45.8949
0.836177 -62.8539
0.0541274 -44.6189
-3.10682 -25.5465
1.39706 -41.1068
-4.36885 -14.327
-1.85732 -12.0072
2.64519 -32.6761
-3.02096 -57.2273
-8.58527 -14.3403
-5.12477 -13.3299
-9.69578 -30.2313
-4.1616 -0.717122
-5.40422 -59.2098
-12.2733 -14.0783
-7.32083 -4.54925
-16.2186 -45.9086
-25.4202 -20.6231
-9.97046 -77.0056
-7.09575 0.354091
-11.0228 -1.87633
0.350161 -20.5258
-0.817344 -11.9602
0.481204 -9.27709
-27.212 23.9947
-59.3341 -94.7499
0.687831 -9.51813
3.45302 -29.7167
-22.8173 -51.0054
-10.3439 -99.6196
-30.4135 -34.041
-9.06858 0.645041
-14.5777 7.29676
-1.75973 -18.5085
0.109052 -9.33419
-1.36381 -9.00938
0.505968 -9.64811
-25.2335 48.8404
-59.6346 -79.9831
2.61613 -33.8208
1.05811 -5.65442
0.303112 -2.89187
0.395289 -3.36374
0.250775 -2.83741
-0.0170303 -0.921282
-0.0920905 -0.773569
0.466884 -3.43499
1.94842 -8.7557
1.91078 -8.18322
1.3204 -5.97363
0.525457 -3.57865
0.138292 -2.76897
0.398099 -3.51346
-0.16725 -0.482868
-0.128591 -0.542676
2.23141 -9.17102
2.20639 -8.02274
0.64572 -3.97012
0.586724 -3.9942
0.43688 -3.88093
-0.0360239 -0.331266
-0.178086 -0.0730102
0.714901 -4.07743
3.58745 -12.4595
3.69214 -12.0296
2.49051 -8.9983
0.882987 -4.71652
0.694102 -3.9772
1.0326 -4.85181
-0.656592 -0.615313
-0.664463 -0.494005
3.89565 -13.4213
2.55801 -9.95214
0.734132 -5.07371
1.09943 -5.21081
0.926276 -5.19546
-0.916746 -0.321804
-0.858352 -0.278352
0.924765 -5.0854
3.99488 -14.5761
3.54896 -14.6793
2.34809 -11.7932
1.09663 -7.42292
1.06043 -5.32873
1.17892 -7.23681
-1.10612 -0.146874
-0.948364 -0.127055
3.86529 -16.6743
2.3414 -12.3778
0.969253 -5.05048
1.21674 -8.12784
0.871873 -5.0228
-0.647167 -0.638819
-0.437733 -0.819864
1.22452 -7.75125
4.51824 -20.0232
4.11113 -17.0025
2.63724 -10.1694
1.25332 -5.63889
0.687016 -4.90437
1.04168 -5.48128
-0.350948 -0.94368
-0.341015 -1.63774
4.66972 -17.5225
2.56834 -9.0681
0.702054 -4.05502
0.888269 -4.8121
0.610397 -3.99423
-0.0572113 -1.21392
-0.437282 -2.30856
1.05579 -4.92458
4.00345 -13.4868
3.78879 -12.3642
1.19119 -5.68077
0.317177 -3.13251
0.243271 -2.75104
0.427217 -3.20619
-0.513582 -0.698202
-0.581278 -0.666764
0.095998 -2.7126
2.05314 -7.64308
2.09535 -8.20033
1.1111 -5.79654
0.355128 -3.22813
0.391365 -3.15443
0.410577 -3.28204
-0.68473 -0.4508
-0.743232 -0.397273
0.332733 -3.11602
1.85417 -8.03894
1.77061 -8.17321
-0.966836 -0.215461
0.230438 -2.74431
0.277759 -2.82933
0.285844 -2.85834
1.35277 -7.16123
-0.825012 -0.177268
-24.8429 -95.1587
-7.52307 -97.5278
-10.9841 -84.1066
4.10049 -21.4933
3.96519 -23.7001
2.02117 -15.944
6.12808 -34.4286
5.62453 -24.0307
-27.9267 -104.28
-30.1134 -120.196
-49.521 -110.015
4.34514 -24.9692
1.5988 -17.4544
3.64368 -26.2338
5.17413 -43.6151
6.20008 -30.3041
-22.8931 -115.691
-10.2944 -106.557
-27.1834 -101.934
-14.7675 -101.898
2.59221 -11.6687
1.86741 -8.77474
1.04893 -6.03088
1.66082 -8.71855
3.13254 -11.2909
1.93914 -7.47038
2.84948 -10.752
3.40456 -13.0866
4.48722 -15.7866
4.21717 -15.213
2.809 -10.0277
4.42731 -14.4909
5.34859 -18.5856
5.42221 -19.9552
4.53096 -15.0261
2.95864 -10.517
4.54497 -16.0414
6.09642 -23.2801
5.47325 -19.1244
2.00337 -8.47563
1.21985 -5.93731
2.16682 -8.42187
2.89132 -10.8699
2.66663 -10.9584
1.33367 -6.91623
0.893041 -5.25116
1.55586 -7.42531
2.18955 -9.93978
1.93385 -9.65618
-21.1707 -63.9967
-21.6568 -57.9285
8.11837 -37.8662
6.9631 -37.8966
6.80541 -30.7782
6.91738 -44.0695
6.25075 -25.8839
7.44175 -36.7347
7.26577 -43.7343
-26.9284 -77.1213
-30.6273 -71.5853
3.14138 -13.6855
2.93276 -13.9607
2.80063 -14.1686
3.28256 -16.4634
5.04824 -21.0165
4.95511 -18.8242
4.24608 -16.7817
5.44859 -20.0706
3.64474 -15.1307
4.8085 -22.3326
5.42571 -24.6943
7.23347 -30.1976
6.83103 -25.3235
6.44401 -24.3559
6.15948 -22.1035
7.24516 -34.126
7.33588 -30.2146
6.49352 -23.7323
7.03677 -26.972
6.10096 -21.5637
7.16714 -29.4292
7.35324 -34.6322
6.86761 -30.9652
5.00447 -18.5522
4.19838 -14.7855
4.92992 -17.0373
3.70738 -13.0405
3.40395 -11.9415
4.49956 -15.3398
5.43399 -19.0421
5.48317 -21.5708
4.85594 -18.9543
2.82328 -12.5161
2.53986 -11.9221
2.50843 -12.3554
3.19675 -16.5381
7.86876 -52.9486
6.52444 -51.1473
5.05337 -59.9858
4.21714 -20.0837
3.93026 -17.4979
3.72635 -18.586
3.45671 -18.9888
4.381 -23.6502
6.69142 -30.0404
6.31057 -25.7197
6.10224 -27.2874
5.51325 -28.9552
6.53775 -36.4077
6.00704 -24.5011
6.25395 -23.8502
6.58509 -27.4244
6.51994 -31.8999
5.70599 -25.2534
5.63189 -39.9268
3.56325 -42.4544
1.56148 -42.7236
3.11351 -38.5954
2.34328 -47.0455
4.97926 -43.7242
3.56324 -49.5433
5.29809 -38.8289
6.78373 -40.2771
5.93142 -51.4006
0.0831038 -43.316
4.21827 -26.5504
3.69317 -23.9915
2.93912 -23.9647
2.60359 -29.4633
4.3395 -35.6905
5.38362 -35.0788
5.23894 -32.3092
4.67648 -29.2526
2.84343 -35.5862
4.98416 -31.0194
5.53895 -28.2174
5.6821 -31.0421
5.05965 -25.0553
5.9498 -34.736
3.99876 -34.3238
3.749 -31.3362
4.72558 -21.8263
4.55506 -24.8043
3.60552 -23.8075
3.65408 -20.0547
4.57719 -37.6336
3.00876 -38.3917
3.66253 -29.8806
3.00127 -32.4275
4.16854 -16.2225
3.4696 -13.6104
3.60475 -13.6691
3.19216 -13.4955
4.57188 -19.2714
3.72027 -18.0646
3.52521 -15.4966
4.1269 -18.7985
2.91162 -9.897
1.99811 -7.46695
3.15944 -10.8787
0.371131 -3.3178
2.29945 -8.56999
0.0906549 -2.66139
0.363781 -3.30728
1.40987 -5.96118
-1.12031 -0.136554
-0.931667 -0.0651072
7.76534 -51.8366
7.3224 -39.8688
6.57272 -48.8395
7.22944 -34.4294
6.58463 -51.5936
7.19324 -39.6171
7.97994 -38.7724
7.35231 -44.833
0 0
0 0
0 0
0 0
0 0
0 0
0 0
0 0
0 0
0 0
0 0
0 0
0 0
0 0
0 0
0 0
0 0
0 0
0 0
0 0
0 0
0 0
0 0
0 0
0 0
0 0
0 0
0 0
0 0
0 0
0 0
0 0
0 0
0 0
0 0
0 0
0 0
0 0
0 0
0 0
0 0
0 0
0 0
0 0
0 0
0 0
0 0
0 0
0 0
0 0
0 0
0 0
0 0
0 0
0 0
0 0
0 0
0 0
0 0
0 0
0 0
0 0
0 0
0 0
0 0
0 0
0 0
0 0
0 0
0 0
0 0
0 0
0 0
0 0
0 0
0 0
0 0
0 0
0 0
0 0
0 0
0 0
0 0
0 0
0 0
0 0
0 0
0 0
0 0
0 0
0 0
0 0
0 0
0 0
0 0
0 0
0 0
0 0
0 0
0 0
0 0
0 0
0 0
0 0
0 0
0 0
0 0
0 0
0 0
0 0
0 0
0 0
0 0
0 0
0 0
0 0
0 0
0 0
0 0
0 0
0 0
0 0
0 0
0 0
0 0
0 0
0 0
0 0
0 0
0 0
0 0
0 0
0 0
0 0
0 0
0 0
0 0
0 0
0 0
0 0
0 0
0 0
0 0
0 0
0 0
0 0
0 0
0 0
0 0
0 0
0 0
0 0
0 0
0 0
0 0
0 0
0 0
0 0
0 0
0 0
0 0
0 0
0 0
0 0
0 0
0 0
0 0
0 0
0 0
0 0
0 0
0 0
0 0
0 0
0 0
0 0
0 0
0 0
0 0
0 0
0 0
0 0
0 0
0 0
0 0
0 0
0 0
0 0
0 0
0 0
0 0
0 0
0 0
0 0
0 0
0 0
0 0
0 0
0 0
0 0
0 0
0 0
0 0
0 0
0 0
0 0
0 0
0 0
0 0
0 0
0 0
0 0
0 0
0 0
0 0
0 0
0 0
0 0
0 0
0 0
0 0
0 0
0 0
0 0
0 0
0 0
0 0
0 0
0 0
0 0
0 0
0 0
0 0
0 0
0 0
0 0
0 0
0 0
0 0
0 0
0 0
0 0
0 0
0 0
0 0
0 0
0 0
0 0
0 0
0 0
0 0
0 0
0 0
0 0
0 0
0 0
0 0
0 0
0 0
0 0
0 0
0 0
0 0
0 0
0 0
0 0
0 0
0 0
0 0
0 0
0 0
0 0
0 0
0 0
0 0
0 0
0 0
0 0
0 0
0 0
0 0
0 0
0 0
0 0
0 0
0 0
0 0
0 0
0 0
0 0
0 0
0 0
0 0
0 0
0 0
0 0
0 0
0 0
0 0
0 0
0 0
0 0
0 0
0 0
0 0
0 0
0 0
0 0
0 0
0 0
0 0
0 0
0 0
0 0
0 0
0 0
0 0
0 0
0 0
0 0
0 0
0 0
0 0
0 0
0 0
0 0
0 0
0 0
0 0
0 0
0 0
0 0
0 0
0 0
0 0
0 0
0 0
0 0
0 0
0 0
0 0
0 0
0 0
0 0
0 0
0 0
0 0
0 0
0 0
0 0
0 0
0 0
0 0
0 0
0 0
0 0
0 0
0 0
0 0
0 0
0 0
0 0
0 0
0 0
0 0
0 0
0 0
0 0
0 0
0 0
0 0
0 0
0 0
0 0
0 0
0 0
0 0
0 0
0 0
0 0
0 0
0 0
0 0
0 0
0 0
0 0
0 0
0 0
0 0
0 0
0 0
0 0
0 0
0 0
0 0
0 0
0 0
0 0
0 0
0 0
0 0
0 0
0 0
0 0
0 0
0 0
0 0
0 0
0 0
0 0
0 0
0 0
0 0
0 0
0 0
0 0
0 0
0 0
0 0
0 0
0 0
0 0
0 0
0 0
0 0
0 0
0 0
0 0
0 0
0 0
0 0
0 0
0 0
0 0
0 0
0 0
0 0
0 0
0 0
0 0
0 0
0 0
0 0
0 0
0 0
0 0
0 0
0 0
0 0
0 0
0 0
0 0
0 0
0 0
0 0
0 0
0 0
0 0
0 0
0 0
0 0
0 0
0 0
0 0
0 0
0 0
0 0
0 0
0 0
0 0
0 0
0 0
0 0
0 0
0 0
0 0
0 0
0 0
0 0
0 0
0 0
0 0
0 0
0 0
0 0
0 0
0 0
0 0
0 0
0 0
0 0
0 0
0 0
0 0
0 0
0 0
0 0
0 0
0 0
0 0
0 0
0 0
0 0
0 0
0 0
0 0
0 0
0 0
0 0
0 0
0 0
0 0
0 0
0 0
0 0
0 0
0 0
0 0
0 0
0 0
0 0
0 0
0 0
0 0
0 0
0 0
0 0
0 0
0 0
0 0
0 0
0 0
0 0
0 0
0 0
0 0
0 0
0 0
0 0
0 0
0 0
0 0
0 0
0 0
0 0
0 0
0 0
0 0
0 0
0 0
0 0
0 0
0 0
0 0
0 0
0 0
0 0
0 0
0 0
0 0
0 0
0 0
0 0
0 0
0 0
0 0
0 0
0 0
0 0
0 0
0 0
0 0
0 0
0 0
0 0
0 0
0 0
0 0
0 0
0 0
0 0
0 0
0 0
0 0
0 0
0 0
0 0
0 0
0 0
0 0
0 0
0 0
0 0
0 0
0 0
0 0
0 0
0 0
0 0
0 0
0 0
0 0
0 0
0 0
0 0
0 0
0 0
0 0
0 0
0 0
0 0
0 0
0 0
0 0
0 0
0 0
0 0
0 0
0 0
0 0
0 0
0 0
0 0
0 0
0 0
0 0
0 0
0 0
0 0
0 0
0 0
0 0
0 0
0 0
0 0
0 0
0 0
0 0
0 0
0 0
0 0
0 0
0 0
0 0
0 0
0 0
0 0
0 0
0 0
0 0
0 0
0 0
0 0
0 0
0 0
0 0
0 0
0 0
0 0
0 0
0 0
0 0
0 0
0 0
0 0
0 0
0 0
0 0
0 0
0 0
0 0
0 0
0 0
0 0
0 0
0 0
0 0
0 0
0 0
0 0
0 0
0 0
0 0
0 0
0 0
0 0
0 0
0 0
0 0
0 0
0 0
0 0
0 0
0 0
0 0
0 0
0 0
0 0
0 0
0 0
0 0
0 0
0 0
0 0
0 0
0 0
0 0
0 0
0 0
0 0
0 0
0 0
0 0
0 0
0 0
0 0
0 0
0 0
0 0
0 0
0 0
0 0
0 0
0 0
0 0
0 0
0 0
0 0
0 0
0 0
0 0
0 0
0 0
0 0
0 0
0 0
0 0
0 0
0 0
0 0
0 0
0 0
0 0
0 0
0 0
0 0
0 0
0 0
0 0
0 0
0 0
0 0
0 0
0 0
0 0
0 0
0 0
0 0
0 0
0 0
0 0
0 0
0 0
0 0
0 0
0 0
0 0
0 0
0 0
0 0
0 0
0 0
0 0
0 0
0 0
0 0
0 0
0 0
0 0
0 0
0 0
0 0
0 0
0 0
0 0
0 0
0 0
0 0
0 0
0 0
0 0
0 0
0 0
0 0
0 0
0 0
0 0
0 0
0 0
0 0
0 0
0 0
0 0
0 0
0 0
0 0
0 0
0 0
0 0
0 0
0 0
0 0
0 0
0 0
0 0
0 0
0 0
0 0
0 0
0 0
0 0
0 0
0 0
0 0
0 0
0 0
0 0
0 0
0 0
0 0
0 0
0 0
0 0
0 0
0 0
0 0
0 0
0 0
0 0
0 0
0 0
0 0
0 0
0 0
0 0
0 0
0 0
0 0
0 0
0 0
0 0
0 0
0 0
0 0
0 0
0 0
0 0
0 0
0 0
0 0
0 0
0 0
0 0
0 0
0 0
0 0
0 0
0 0
0 0
0 0
0 0
0 0
0 0
0 0
0 0
0 0
0 0
0 0
0 0
0 0
0 0
0 0
0 0
0 0
0 0
0 0
0 0
0 0
0 0
0 0
0 0
0 0
0 0
0 0
0 0
0 0
0 0
0 0
0 0
0 0
0 0
0 0
0 0
0 0
0 0
0 0
0 0
0 0
0 0
0 0
0 0
0 0
0 0
0 0
0 0
0 0
0 0
0 0
0 0
0 0
0 0
0 0
0 0
0 0
0 0
0 0
0 0
0 0
0 0
0 0
0 0
0 0
0 0
0 0
0 0
0 0
0 0
0 0
0 0
0 0
0 0
0 0
0 0
0 0
0 0
0 0
0 0
0 0
0 0
0 0
0 0
0 0
0 0
0 0
0 0
0 0
0 0
0 0
0 0
0 0
0 0
0 0
0 0
0 0
0 0
0 0
0 0
0 0
0 0
0 0
0 0
0 0
0 0
0 0
0 0
0 0
0 0
0 0
0 0
0 0
0 0
0 0
0 0
0 0
0 0
0 0
0 0
0 0
0 0
0 0
0 0
0 0
0 0
0 0
0 0
0 0
0 0
0 0
0 0
0 0
0 0
0 0
0 0
0 0
0 0
0 0
0 0
0 0
0 0
0 0
0 0
0 0
0 0
0 0
0 0
0 0
0 0
0 0
0 0
0 0
0 0
0 0
0 0
0 0
0 0
0 0
0 0
0 0
0 0
0 0
0 0
0 0
0 0
0 0
0 0
0 0
0 0
0 0
0 0
0 0
0 0
0 0
0 0
0 0
0 0
0 0
0 0
0 0
0 0
0 0
0 0
0 0
0 0
0 0
0 0
0 0
0 0
0 0
0 0
0 0
0 0
0 0
0 0
0 0
0 0
0 0
0 0
0 0
0 0
0 0
0 0
0 0
0 0
0 0
0 0
0 0
0 0
0 0
0 0
0 0
0 0
0 0
0 0
0 0
0 0
0 0
0 0
0 0
0 0
0 0
0 0
0 0
0 0
0 0
0 0
0 0
0 0
0 0
0 0
0 0
0 0
0 0
0 0
0 0
0 0
0 0
0 0
0 0
0 0
0 0
0 0
0 0
0 0
0 0
0 0
0 0
0 0
0 0
0 0
0 0
0 0
0 0
0 0
0 0
0 0
0 0
0 0
0 0
0 0
0 0
0 0
0 0
0 0
0 0
0 0
0 0
0 0
0 0
0 0
0 0
0 0
0 0
0 0
0 0
0 0
0 0
0 0
0 0
0 0
0 0
0 0
0 0
0 0
0 0
0 0
0 0
0 0
0 0
0 0
0 0
0 0
0 0
0 0
0 0
0 0
0 0
0 0
0 0
0 0
0 0
0 0
0 0
0 0
0 0
0 0
0 0
0 0
0 0
0 0
0 0
0 0
0 0
0 0
0 0
0 0
0 0
0 0
0 0
0 0
0 0
0 0
0 0
0 0
0 0
0 0
0 0
0 0
0 0
0 0
0 0
0 0
0 0
0 0
0 0
0 0
0 0
0 0
0 0
0 0
0 0
0 0
0 0
0 0
0 0
0 0
0 0
0 0
0 0
0 0
0 0
0 0
0 0
0 0
0 0
0 0
0 0
0 0
0 0
0 0
0 0
0 0
0 0
0 0
0 0
0 0
0 0
0 0
0 0
0 0
0 0
0 0
0 0
0 0
0 0
0 0
0 0
0 0
0 0
0 0
0 0
0 0
0 0
0 0
0 0
0 0
0 0
0 0
0 0
0 0
0 0
0 0
0 0
0 0
0 0
0 0
0 0
0 0
0 0
0 0
0 0
0 0
0 0
0 0
0 0
0 0
0 0
0 0
0 0
0 0
0 0
0 0
0 0
0 0
0 0
0 0
0 0
0 0
0 0
0 0
0 0
0 0
0 0
0 0
0 0
0 0
0 0
0 0
0 0
0 0
0 0
0 0
0 0
0 0
0 0
0 0
0 0
0 0
0 0
0 0
0 0
0 0
0 0
0 0
0 0
0 0
0 0
0 0
0 0
0 0
0 0
0 0
0 0
0 0
0 0
0 0
0 0
0 0
0 0
0 0
0 0
0 0
0 0
0 0
0 0
0 0
0 0
0 0
0 0
0 0
0 0
0 0
0 0
0 0
0 0
0 0
0 0
0 0
0 0
0 0
0 0
0 0
0 0
0 0
0 0
0 0
0 0
0 0
0 0
0 0
0 0
0 0
0 0
0 0
0 0
0 0
0 0
0 0
0 0
0 0
0 0
0 0
0 0
0 0
0 0
0 0
0 0
0 0
0 0
0 0
0 0
0 0
0 0
0 0
0 0
0 0
0 0
0 0
0 0
0 0
0 0
0 0
0 0
0 0
0 0
0 0
0 0
0 0
0 0
0 0
0 0
0 0
0 0
0 0
0 0
0 0
0 0
0 0
0 0
0 0
0 0
0 0
0 0
0 0
0 0
0 0
0 0
0 0
0 0
0 0
0 0
0 0
0 0
0 0
0 0
0 0
0 0
0 0
0 0
0 0
0 0
0 0
0 0
0 0
0 0
0 0
0 0
0 0
0 0
0 0
0 0
0 0
0 0
0 0
0 0
0 0
0 0
0 0
0 0
0 0
0 0
0 0
0 0
0 0
0 0
0 0
0 0
0 0
0 0
0 0
0 0
0 0
0 0
0 0
0 0
0 0
0 0
0 0
0 0
0 0
0 0
0 0
0 0
0 0
0 0
0 0
0 0
0 0
0 0
0 0
0 0
0 0
0 0
0 0
0 0
0 0
0 0
0 0
0 0
0 0
0 0
0 0
0 0
0 0
0 0
0 0
0 0
0 0
0 0
0 0
0 0
0 0
0 0
0 0
0 0
0 0
0 0
0 0
0 0
0 0
0 0
0 0
0 0
0 0
0 0
0 0
0 0
0 0
0 0
0 0
0 0
0 0
0 0
0 0
0 0
0 0
0 0
0 0
0 0
0 0
0 0
0 0
0 0
0 0
0 0
0 0
0 0
0 0
0 0
0 0
0 0
0 0
0 0
0 0
0 0
0 0
0 0
0 0
0 0
0 0
0 0
0 0
0 0
0 0
0 0
0 0
0 0
0 0
0 0
0 0
0 0
0 0
0 0
0 0
0 0
0 0
0 0
0 0
0 0
0 0
0 0
0 0
0 0
0 0
0 0
0 0
0 0
0 0
0 0
0 0
0 0
0 0
0 0
0 0
0 0
0 0
0 0
0 0
0 0
0 0
0 0
0 0
0 0
0 0
0 0
0 0
0 0
0 0
0 0
0 0
0 0
0 0
0 0
0 0
0 0
0 0
0 0
0 0
0 0
0 0
0 0
0 0
0 0
0 0
0 0
0 0
0 0
0 0
0 0
0 0
0 0
0 0
0 0
0 0
0 0
0 0
0 0
0 0
0 0
0 0
0 0
0 0
0 0
0 0
0 0
0 0
0 0
0 0
0 0
0 0
0 0
0 0
0 0
0 0
0 0
0 0
0 0
0 0
0 0
0 0
0 0
0 0
0 0
0 0
0 0
0 0
0 0
0 0
0 0
0 0
0 0
0 0
0 0
0 0
0 0
0 0
0 0
0 0
0 0
0 0
0 0
0 0
0 0
0 0
0 0
0 0
0 0
0 0
0 0
0 0
0 0
0 0
0 0
0 0
0 0
0 0
0 0
0 0
0 0
0 0
0 0
0 0
0 0
0 0
0 0
0 0
0 0
0 0
0 0
0 0
0 0
0 0
0 0
0 0
0 0
0 0
0 0
0 0
0 0
0 0
0 0
0 0
0 0
0 0
0 0
0 0
0 0
0 0
0 0
0 0
0 0
0 0
0 0
0 0
0 0
0 0
0 0
0 0
0 0
0 0
0 0
0 0
0 0
0 0
0 0
0 0
0 0
0 0
0 0
0 0
0 0
0 0
0 0
0 0
0 0
0 0
0 0
0 0
0 0
0 0
0 0
0 0
0 0
0 0
0 0
0 0
0 0
0 0
0 0
0 0
0 0
0 0
0 0
0 0
0 0
0 0
0 0
0 0
0 0
0 0
0 0
0 0
0 0
0 0
0 0
0 0
0 0
0 0
0 0
0 0
0 0
0 0
0 0
0 0
0 0
0 0
0 0
0 0
0 0
0 0
0 0
0 0
0 0
0 0
0 0
0 0
0 0
0 0
0 0
0 0
0 0
0 0
0 0
0 0
0 0
0 0
0 0
0 0
0 0
0 0
0 0
0 0
0 0
0 0
0 0
0 0
0 0
0 0
0 0
0 0
0 0
0 0
0 0
0 0
0 0
0 0
0 0
0 0
0 0
0 0
0 0
0 0
0 0
0 0
0 0
0 0
0 0
0 0
0 0
0 0
0 0
0 0
0 0
0 0
0 0
0 0
0 0
0 0
0 0
0 0
0 0
0 0
0 0
0 0
0 0
0 0
0 0
0 0
0 0
0 0
0 0
0 0
0 0
0 0
0 0
0 0
0 0
0 0
0 0
0 0
0 0
0 0
0 0
0 0
0 0
0 0
0 0
0 0
0 0
0 0
0 0
0 0
0 0
0 0
0 0
0 0
0 0
0 0
0 0
0 0
0 0
0 0
0 0
0 0
0 0
0 0
0 0
0 0
0 0
0 0
0 0
0 0
0 0
0 0
0 0
0 0
0 0
0 0
0 0
0 0
0 0
0 0
0 0
0 0
0 0
0 0
0 0
0 0
0 0
0 0
0 0
0 0
0 0
0 0
0 0
0 0
0 0
0 0
0 0
0 0
0 0
0 0
0 0
0 0
0 0
0 0
0 0
0 0
0 0
0 0
0 0
0 0
0 0
0 0
0 0
0 0
0 0
0 0
0 0
0 0
0 0
0 0
0 0
0 0
0 0
0 0
0 0
0 0
0 0
0 0
0 0
0 0
0 0
0 0
0 0
0 0
0 0
0 0
0 0
0 0
0 0
0 0
0 0
0 0
0 0
0 0
0 0
0 0
0 0
0 0
0 0
0 0
0 0
0 0
0 0
0 0
0 0
0 0
0 0
0 0
0 0
0 0
0 0
0 0
0 0
0 0
0 0
0 0
0 0
0 0
0 0
0 0
0 0
0 0
0 0
0 0
0 0
0 0
0 0
0 0
0 0
0 0
0 0
0 0
0 0
0 0
0 0
0 0
0 0
0 0
0 0
0 0
0 0
0 0
0 0
0 0
0 0
0 0
0 0
0 0
0 0
0 0
0 0
0 0
0 0
0 0
0 0
0 0
0 0
0 0
0 0
0 0
0 0
0 0
0 0
0 0
0 0
0 0
0 0
0 0
0 0
0 0
0 0
0 0
0 0
0 0
0 0
0 0
0 0
0 0
0 0
0 0
0 0
0 0
0 0
0 0
0 0
0 0
0 0
0 0
0 0
0 0
0 0
0 0
0 0
0 0
0 0
0 0
0 0
0 0
0 0
0 0
0 0
0 0
0 0
0 0
0 0
0 0
0 0
0 0
0 0
0 0
0 0
0 0
0 0
0 0
0 0
0 0
0 0
0 0
0 0
0 0
0 0
0 0
0 0
0 0
0 0
0 0
0 0
0 0
0 0
0 0
0 0
0 0
0 0
0 0
0 0
0 0
0 0
0 0
0 0
0 0
0 0
0 0
0 0
0 0
0 0
0 0
0 0
0 0
0 0
0 0
0 0
0 0
0 0
0 0
0 0
0 0
0 0
0 0
0 0
0 0
0 0
0 0
0 0
0 0
0 0
0 0
0 0
0 0
0 0
0 0
0 0
0 0
0 0
0 0
0 0
0 0
0 0
0 0
0 0
0 0
0 0
0 0
0 0
0 0
0 0
0 0
0 0
0 0
0 0
0 0
0 0
0 0
0 0
0 0
0 0
0 0
0 0
0 0
0 0
0 0
0 0
0 0
0 0
0 0
0 0
0 0
0 0
0 0
0 0
0 0
0 0
0 0
0 0
0 0
0 0
0 0
0 0
0 0
0 0
0 0
0 0
0 0
0 0
0 0
0 0
0 0
0 0
0 0
0 0
0 0
0 0
0 0
0 0
0 0
0 0
0 0
0 0
0 0
0 0
0 0
0 0
0 0
0 0
0 0
0 0
0 0
0 0
0 0
0 0
0 0
0 0
0 0
0 0
0 0
0 0
0 0
0 0
0 0
0 0
0 0
0 0
0 0
0 0
0 0
0 0
0 0
0 0
0 0
0 0
0 0
0 0
0 0
0 0
0 0
0 0
0 0
0 0
0 0
0 0
0 0
0 0
0 0
0 0
0 0
0 0
0 0
0 0
0 0
0 0
0 0
0 0
0 0
0 0
0 0
0 0
0 0
0 0
0 0
0 0
0 0
0 0
0 0
0 0
0 0
0 0
0 0
0 0
      </DataArray> 
      <DataArray type="Float64" NumberOfComponents="1" Name="CauchyShearStress" format="ascii">
-5.15414
4.52551
-1.50043
0.429334
0.228098
0.307653
0.219092
0.102549
-0.0338972
-0.0565452
-0.0530638
-0.0847413
-0.116284
-0.0858223
-0.0415061
-0.0319005
-0.0340494
0.0182215
0.0619217
0.0601565
0.0460089
0.0838258
0.0959442
0.0337721
-0.0474362
-0.0620385
-0.129937
-0.461618
-0.582107
-0.756653
0.520136
0.0149583
0.214621
0.493624
-5.80858
0.0323329
0.185963
0.220093
0.201859
0.0780454
0.0693539
0.136482
0.211503
0.204698
0.291416
0.234045
0.318461
0.407681
0.464582
0.463685
0.500151
0.512281
0.536057
0.232492
-0.12263
-0.242126
-0.372935
-0.472361
-0.569409
-0.461833
0.731133
1.02608
2.03792
-24.3164
-12.1857
-5.17909
-7.81613
-9.68174
-13.9085
0.178396
-23.3829
-20.3299
-15.4937
24.6269
-2.10879
-16.653
24.5091
-4.84758
12.5718
5.36825
7.9028
9.7158
13.9326
-0.300431
-0.964998
-1.15029
-2.40982
0.00155252
-0.100912
0.223211
0.392487
0.703702
0.726706
0.139667
-0.135968
-0.240719
-0.352125
-0.446699
-0.503765
-0.543437
-0.560693
-0.600469
-0.528746
-0.511383
-0.49424
-0.441633
-0.450821
-0.335462
-0.206452
-0.156372
-0.198303
0.559615
1.09303
6.06844
1.63848
-13.2531
-7.706
-13.4052
14.9621
8.60548
3.69421
3.6898
-3.28026
-0.303601
-12.721
12.7259
-3.03749
-3.32567
-6.31954
-5.96766
6.76654
-5.29955
5.92731
-5.80505
-5.95629
6.43179
6.46173
-5.13034
-4.88308
-5.73953
-2.86053
2.1424
2.97959
6.50599
5.42768
7.3523
-6.66805
-7.70212
-8.08133
-7.74535
8.49868
7.12766
-3.00556
0.664428
2.78633
-4.98909
5.17458
-3.77513
-4.39226
-5.05067
-4.63709
4.89884
5.56678
5.00356
3.99341
-4.75374
-4.87856
-4.22021
-2.15302
0.931478
4.30436
-4.39774
-4.2912
5.01852
5.18493
4.59453
4.51188
5.16195
7.06473
-6.27402
-7.29771
-5.63938
-8.35077
-9.35402
8.33452
4.79192
-3.44214
-2.33994
-0.225958
-1.14476
0.8993
2.22432
1.55493
3.13938
-4.48704
-4.61652
4.52592
4.58387
-3.60824
-3.07662
-3.3766
-2.97554
-3.36599
-4.19209
4.4793
3.81043
3.39008
3.58384
3.12822
3.57713
-4.39228
-4.17709
-5.74045
0.126557
3.27549
-2.6968
3.03654
4.31391
4.07423
8.69319
-10.5816
-2.28626
-11.5727
12.0993
9.76542
6.86417
-3.48075
-2.56195
-0.903557
0.636914
1.94229
3.15383
-4.30062
4.19574
-3.03665
-2.12225
-2.99458
3.13013
2.30799
3.12793
-3.49724
-3.80333
-3.87277
-3.54416
-1.96005
-1.4457
-14.3537
-2.56977
11.2198
-0.34472
0.352412
2.28481
3.17646
3.55863
3.62054
2.94431
11.5402
-11.4261
1.46371
4.45273
-14.3854
-3.8239
-3.11606
13.3792
4.31372
-3.29531
-3.31403
-2.42144
-2.99152
-1.22178
-1.77937
0.152543
-0.3739
1.15412
0.708432
2.3639
1.8081
3.32232
2.80676
-3.38717
-3.9431
-4.1212
3.42767
3.92687
3.89728
3.04033
-2.90255
-1.33093
-1.23832
-1.97189
1.99465
1.47675
1.43094
3.08205
-2.06671
-2.84408
-2.49108
-1.9776
-0.719012
-25.283
-9.59606
-0.763837
6.09968
26.752
1.92269
-1.89211
1.889
3.15972
2.08855
18.9363
9.75901
-16.0049
-10.0426
10.0123
-16.4506
1.38896
-7.62114
7.84359
11.2461
-3.3671
-2.1053
-1.13112
-0.223192
0.601368
1.43699
2.67911
-3.75129
-2.83862
3.21228
3.16202
-1.82026
-1.36072
-3.35484
2.62604
1.05184
1.87724
-2.22034
2.48164
-0.661504
-1.2099
-1.07733
-1.52769
-1.17259
-1.36097
-1.11693
-0.894016
-0.483092
-47.1073
-6.91911
5.62617
42.3143
0.129661
0.900933
2.03328
2.77589
6.22634
-5.36902
-2.76876
-1.81005
-0.812558
0.0568008
0.688424
0.979286
0.869191
1.44472
0.600041
0.782102
0.908851
1.00674
14.5996
24.1108
13.6248
-14.2626
-19.2427
-24.0153
9.99773
12.5404
13.9016
-8.99044
-20.0398
-14.0855
-1.83232
-3.32923
-1.3044
-1.12561
-1.14081
-0.791632
-0.739518
-0.789076
-0.421481
-0.285737
-0.365356
0.0434565
0.181624
0.114089
0.47145
0.568672
0.535011
0.835048
0.81739
0.870967
1.49671
3.22282
1.63279
-0.807132
-0.743736
1.1563
1.27185
-3.66799
-4.01736
3.49278
3.55897
3.77294
-0.757727
-1.21946
1.38507
1.09872
-1.29489
1.19288
-1.84873
-1.47166
1.29444
1.64232
-2.87594
-5.974
-2.97771
2.91319
3.1149
4.87791
4.03251
-4.72653
2.83192
-3.17659
0.168629
-0.0541312
3.83657
-4.02898
2.42931
-1.60142
3.54375
1.92279
1.00079
0.2191
-0.664496
-1.59124
-2.69268
-3.59952
-11.5529
16.77
-18.4497
18.7486
1.84269
2.39627
0.401544
-4.37665
5.2451
0.226312
19.7393
-24.4252
-1.13616
-2.43563
-3.16992
-2.55057
2.10034
-2.83474
8.84235
-4.74445
-2.03518
2.59066
2.2287
-1.87789
-2.50617
4.02841
4.13022
-4.36649
-4.00344
3.52813
2.65091
1.25495
0.00677073
-1.82406
-3.20906
-3.58562
9.9013
1.77888
-3.43529
-2.28386
-9.79498
6.6525
4.12207
3.9679
2.35317
-2.53316
-3.05281
-4.51855
9.55945
-8.71227
3.55926
4.74955
5.33327
-4.73343
-4.22195
-3.62773
4.8765
-4.87593
1.83934
-0.501898
6.87197
-9.61867
6.13211
-6.09745
5.64636
-5.25213
7.38504
-6.65873
-5.35256
-25.8717
-2.63775
-29.4842
-20.7936
-3.20995
-15.326
2.36583
20.0676
38.6545
3.56307
23.4566
20.9516
-22.5197
-34.0027
-34.7702
-35.395
-18.2416
-23.2334
-26.6868
-20.3367
-19.7028
-18.6886
-21.6845
-16.3755
-28.0886
-35.1715
-11.9388
-16.5613
20.6218
35.3953
32.3644
26.8224
18.3659
23.3711
21.2844
17.8375
20.4289
18.8578
16.6152
21.8173
12.1122
28.2999
35.3582
16.815
18.3561
1.61112
6.30387
2.0716
55.8998
15.3049
64.4284
27.9663
11.5651
-21.628
-8.50995
-1.82007
-66.1021
-54.7228
-25.2705
-2.71392
-14.767
-33.1007
18.7683
19.1346
3.39955
11.2835
-2.93635
14.3008
10.206
-17.6517
-9.868
-24.2016
2.58814
3.72434
-3.6016
-14.811
0.0104688
1.15715
-12.8132
-15.2769
-6.68369
1.45114
9.77164
-5.77655
15.0148
9.00602
26.1451
37.7806
37.736
25.2941
27.565
20.6128
21.0017
2.64421
2.19699
6.70205
-0.159564
12.0235
1.75013
-1.42281
-5.28866
-9.21084
-3.55913
-16.0707
-5.43477
-23.0203
-36.3523
-38.3709
-23.9109
-26.8545
-20.1713
-19.2888
13.0065
15.0019
11.2251
11.7312
-10.0498
-16.1711
-7.45847
-10.5628
10.7924
12.4352
11.5101
11.122
10.5847
10.2104
11.7897
7.61751
8.90057
10.5711
9.10779
-10.0694
-8.63632
-8.89525
-8.00245
-5.90444
-9.83196
5.95059
6.74104
6.89844
5.03943
4.9685
4.35968
3.68931
2.79497
-2.37548
-1.26876
-1.07782
-0.159861
1.2882
-1.33334
-5.54989
-6.52587
-5.02687
-7.58763
-3.83724
-3.3418
-4.41542
-3.17494
-2.42921
-3.39958
-1.73402
-3.46366
-3.93104
15.6141
13.6103
16.7252
15.2233
20.2923
23.4287
18.8728
10.1093
13.9777
9.58462
49.1632
55.6605
-9.41525
-13.7527
-9.87703
-15.0341
-47.3845
-54.0055
-18.654
-16.3772
-13.2957
-15.739
18.27
2.82406
7.23469
5.11015
8.42593
0.91874
15.3726
8.93839
5.18345
13.5827
13.2011
11.3346
11.2801
18.3295
17.822
12.3997
20.4326
-19.0375
-11.3624
-17.4451
-8.66772
-19.8592
-12.3687
-11.8605
-14.284
-8.38517
-19.2081
-12.0191
-10.7369
-6.79308
-4.8696
-4.22532
-5.1005
-2.33483
-2.57805
-8.66255
-12.0848
-8.90842
-10.8362
-12.6667
-13.749
-12.962
-13.6291
-11.2684
-11.9287
-10.8781
0.842204
2.49628
1.60606
4.21494
-0.785569
0.282133
2.72504
-0.473729
13.8017
17.3183
8.86383
20.1828
16.1507
7.28566
4.52252
5.69343
15.6527
28.1437
24.2626
29.2083
18.4629
23.1386
30.0899
19.1237
-40.847
-61.326
-46.5424
-27.0512
-45.9722
-99.4781
66.4447
25.2936
45.3684
43.9506
18.6895
93.7473
19.9084
4.20462
4.78437
3.14169
-35.6779
-24.1907
-0.852515
14.1604
8.17184
-6.83224
-8.41235
-0.489877
-13.3379
-7.68502
3.94067
8.17949
-6.38788
-17.6774
16.2862
12.0907
14.1936
11.2111
9.92584
8.97367
15.0022
15.0517
16.2602
-2.38347
10.2593
7.15351
10.3598
-0.412587
-14.0844
-6.67206
-15.9443
-6.98102
-14.1806
32.1833
6.82955
3.34283
-9.01351
-8.98366
17.4163
-9.48246
-9.19276
-15.718
-4.62493
-9.15435
-16.1961
-18.1223
-8.795
-1.05684
6.37505
-13.9523
-12.4939
-10.5614
0.550176
1.33137
-1.2028
-1.74547
-5.55966
0.845236
8.35791
-4.38239
1.88252
4.24972
2.80046
5.72449
5.78571
5.28505
13.1848
11.3038
13.1396
12.3929
10.6115
14.2508
-3.32995
-1.3352
3.86328
-5.11928
0.0733127
9.92303
-11.5131
-13.3078
-9.25896
-11.779
-6.95301
-16.3603
-15.2048
-14.7186
-9.30873
-12.0367
-13.612
-14.4802
-6.11586
-10.9616
-11.3446
-9.14329
7.69058
5.82083
8.89873
2.85983
4.2302
8.34787
7.43334
-18.3563
-17.2585
-15.4172
-11.0723
-8.42815
-12.9554
-22.2647
-14.0448
-11.6729
-24.3789
-2.82259
-25.3564
-16.8337
-4.55406
-27.4563
-25.5278
-34.2893
-4.77338
-6.13214
-11.4203
-7.14305
-5.14619
-16.6105
-64.9834
-4.3668
-10.4604
33.8127
41.8024
31.089
6.02742
7.23552
11.4271
5.72574
5.85935
4.67893
15.8551
61.032
13.5057
1.15889
0.221907
0.415564
0.150315
-0.119472
-0.0286067
0.534681
1.97042
1.60235
0.927932
0.267215
0.129507
0.236194
-0.00862834
-0.148368
1.68471
0.329871
0.040258
0.174896
0.0269931
-0.154868
-0.0801401
0.229224
0.628215
0.216617
-0.328067
-0.248992
-0.0305875
-0.337716
0.606371
0.571672
-0.305284
-2.167
-0.938094
-0.742697
-1.11507
0.461311
0.373602
-0.586696
-3.05997
-3.53379
-4.03716
-2.44201
-1.37126
-2.90701
0.214237
0.0963414
-4.84126
4.46466
1.31135
2.79803
1.06773
-0.604993
-0.716931
3.3913
5.8094
4.09989
2.29848
0.838593
0.943218
0.676313
-0.708784
-0.421494
3.57324
0.451648
0.0659434
0.268121
0.0371276
-0.267118
0.021158
0.360236
0.643987
0.203607
-0.683182
-0.158737
-0.0661375
-0.25176
0.505407
0.505851
-0.00520306
-0.795088
-1.05608
-1.21645
-0.388049
-0.336993
-0.482822
0.498254
0.457482
-0.274812
-1.7659
-1.92386
0.508358
-0.321025
-0.379541
-0.481625
-2.15632
0.355137
19.3017
9.70025
11.7684
-6.52313
-8.34563
-7.12923
-9.49703
-5.9495
-15.4109
-17.638
-19.4009
7.97058
8.03022
10.1524
13.0618
7.50847
-0.244355
-10.2206
-0.781437
6.89439
2.74271
2.28823
1.60634
2.57481
1.30088
0.822492
1.43061
2.1642
1.17921
-1.95523
-1.23441
-1.35561
-0.637198
-3.05431
1.42534
1.39868
2.1166
3.37285
0.969254
-1.59432
-0.98952
-1.42459
-1.52854
-2.19254
-1.87716
-1.26106
-1.92467
-2.43569
-2.79767
14.9098
14.0372
-3.52765
-5.97545
-5.20272
-7.39683
-3.86303
-0.794902
-0.681229
-16.4193
-14.4299
2.97316
3.37651
3.59907
3.8464
2.76592
2.05366
2.54782
1.30355
2.79453
3.53637
3.09714
-1.22796
-2.51958
-0.843553
0.334857
0.983736
0.47907
0.90373
1.72005
-0.0289562
3.48516
-0.455727
-1.31617
-1.75362
-1.29554
-1.05793
-1.52213
-0.972039
-0.321939
-0.547355
-2.22125
-2.4919
-2.98166
-3.00856
-3.34278
-4.06322
-3.53611
0.0892582
1.23865
3.74136
3.35328
3.90429
4.24752
4.18227
1.59962
1.43978
2.61084
3.57621
2.50296
-2.06116
-0.964052
-1.50832
-2.48097
-2.9032
3.38132
5.73887
6.93355
5.80125
-6.82335
-4.12479
-5.25161
-3.98079
-2.20506
-2.7324
-7.60791
4.57011
4.70444
5.0604
5.60502
4.91618
3.95408
4.02127
4.45498
5.91158
-4.34755
-3.55441
-3.52622
-3.73284
-3.34935
-5.19909
-5.23364
-3.59044
-4.30177
-4.78675
-4.33127
-4.86708
-5.93685
5.15696
5.56219
-2.47409
-2.48823
-2.00837
-2.76774
-3.0767
-3.87186
-3.27152
-3.60177
-0.484604
-0.129995
-0.255477
-0.0508944
-0.702968
-0.0362144
-0.0460792
-0.41292
0.286158
0.133056
4.22672
6.76254
7.55007
4.49722
0.247572
-0.414546
2.59583
0.572433
0
0
0
0
0
0
0
0
0
0
0
0
0
0
0
0
0
0
0
0
0
0
0
0
0
0
0
0
0
0
0
0
0
0
0
0
0
0
0
0
0
0
0
0
0
0
0
0
0
0
0
0
0
0
0
0
0
0
0
0
0
0
0
0
0
0
0
0
0
0
0
0
0
0
0
0
0
0
0
0
0
0
0
0
0
0
0
0
0
0
0
0
0
0
0
0
0
0
0
0
0
0
0
0
0
0
0
0
0
0
0
0
0
0
0
0
0
0
0
0
0
0
0
0
0
0
0
0
0
0
0
0
0
0
0
0
0
0
0
0
0
0
0
0
0
0
0
0
0
0
0
0
0
0
0
0
0
0
0
0
0
0
0
0
0
0
0
0
0
0
0
0
0
0
0
0
0
0
0
0
0
0
0
0
0
0
0
0
0
0
0
0
0
0
0
0
0
0
0
0
0
0
0
0
0
0
0
0
0
0
0
0
0
0
0
0
0
0
0
0
0
0
0
0
0
0
0
0
0
0
0
0
0
0
0
0
0
0
0
0
0
0
0
0
0
0
0
0
0
0
0
0
0
0
0
0
0
0
0
0
0
0
0
0
0
0
0
0
0
0
0
0
0
0
0
0
0
0
0
0
0
0
0
0
0
0
0
0
0
0
0
0
0
0
0
0
0
0
0
0
0
0
0
0
0
0
0
0
0
0
0
0
0
0
0
0
0
0
0
0
0
0
0
0
0
0
0
0
0
0
0
0
0
0
0
0
0
0
0
0
0
0
0
0
0
0
0
0
0
0
0
0
0
0
0
0
0
0
0
0
0
0
0
0
0
0
0
0
0
0
0
0
0
0
0
0
0
0
0
0
0
0
0
0
0
0
0
0
0
0
0
0
0
0
0
0
0
0
0
0
0
0
0
0
0
0
0
0
0
0
0
0
0
0
0
0
0
0
0
0
0
0
0
0
0
0
0
0
0
0
0
0
0
0
0
0
0
0
0
0
0
0
0
0
0
0
0
0
0
0
0
0
0
0
0
0
0
0
0
0
0
0
0
0
0
0
0
0
0
0
0
0
0
0
0
0
0
0
0
0
0
0
0
0
0
0
0
0
0
0
0
0
0
0
0
0
0
0
0
0
0
0
0
0
0
0
0
0
0
0
0
0
0
0
0
0
0
0
0
0
0
0
0
0
0
0
0
0
0
0
0
0
0
0
0
0
0
0
0
0
0
0
0
0
0
0
0
0
0
0
0
0
0
0
0
0
0
0
0
0
0
0
0
0
0
0
0
0
0
0
0
0
0
0
0
0
0
0
0
0
0
0
0
0
0
0
0
0
0
0
0
0
0
0
0
0
0
0
0
0
0
0
0
0
0
0
0
0
0
0
0
0
0
0
0
0
0
0
0
0
0
0
0
0
0
0
0
0
0
0
0
0
0
0
0
0
0
0
0
0
0
0
0
0
0
0
0
0
0
0
0
0
0
0
0
0
0
0
0
0
0
0
0
0
0
0
0
0
0
0
0
0
0
0
0
0
0
0
0
0
0
0
0
0
0
0
0
0
0
0
0
0
0
0
0
0
0
0
0
0
0
0
0
0
0
0
0
0
0
0
0
0
0
0
0
0
0
0
0
0
0
0
0
0
0
0
0
0
0
0
0
0
0
0
0
0
0
0
0
0
0
0
0
0
0
0
0
0
0
0
0
0
0
0
0
0
0
0
0
0
0
0
0
0
0
0
0
0
0
0
0
0
0
0
0
0
0
0
0
0
0
0
0
0
0
0
0
0
0
0
0
0
0
0
0
0
0
0
0
0
0
0
0
0
0
0
0
0
0
0
0
0
0
0
0
0
0
0
0
0
0
0
0
0
0
0
0
0
0
0
0
0
0
0
0
0
0
0
0
0
0
0
0
0
0
0
0
0
0
0
0
0
0
0
0
0
0
0
0
0
0
0
0
0
0
0
0
0
0
0
0
0
0
0
0
0
0
0
0
0
0
0
0
0
0
0
0
0
0
0
0
0
0
0
0
0
0
0
0
0
0
0
0
0
0
0
0
0
0
0
0
0
0
0
0
0
0
0
0
0
0
0
0
0
0
0
0
0
0
0
0
0
0
0
0
0
0
0
0
0
0
0
0
0
0
0
0
0
0
0
0
0
0
0
0
0
0
0
0
0
0
0
0
0
0
0
0
0
0
0
0
0
0
0
0
0
0
0
0
0
0
0
0
0
0
0
0
0
0
0
0
0
0
0
0
0
0
0
0
0
0
0
0
0
0
0
0
0
0
0
0
0
0
0
0
0
0
0
0
0
0
0
0
0
0
0
0
0
0
0
0
0
0
0
0
0
0
0
0
0
0
0
0
0
0
0
0
0
0
0
0
0
0
0
0
0
0
0
0
0
0
0
0
0
0
0
0
0
0
0
0
0
0
0
0
0
0
0
0
0
0
0
0
0
0
0
0
0
0
0
0
0
0
0
0
0
0
0
0
0
0
0
0
0
0
0
0
0
0
0
0
0
0
0
0
0
0
0
0
0
0
0
0
0
0
0
0
0
0
0
0
0
0
0
0
0
0
0
0
0
0
0
0
0
0
0
0
0
0
0
0
0
0
0
0
0
0
0
0
0
0
0
0
0
0
0
0
0
0
0
0
0
0
0
0
0
0
0
0
0
0
0
0
0
0
0
0
0
0
0
0
0
0
0
0
0
0
0
0
0
0
0
0
0
0
0
0
0
0
0
0
0
0
0
0
0
0
0
0
0
0
0
0
0
0
0
0
0
0
0
0
0
0
0
0
0
0
0
0
0
0
0
0
0
0
0
0
0
0
0
0
0
0
0
0
0
0
0
0
0
0
0
0
0
0
0
0
0
0
0
0
0
0
0
0
0
0
0
0
0
0
0
0
0
0
0
0
0
0
0
0
0
0
0
0
0
0
0
0
0
0
0
0
0
0
0
0
0
0
0
0
0
0
0
0
0
0
0
0
0
0
0
0
0
0
0
0
0
0
0
0
0
0
0
0
0
0
0
0
0
0
0
0
0
0
0
0
0
0
0
0
0
0
0
0
0
0
0
0
0
0
0
0
0
0
0
0
0
0
0
0
0
0
0
0
0
0
0
0
0
0
0
0
0
0
0
0
0
0
0
0
0
0
0
0
0
0
0
0
0
0
0
0
0
0
0
0
0
0
0
0
0
0
0
0
0
0
0
0
0
0
0
0
0
0
0
0
0
0
0
0
0
0
0
0
0
0
0
0
0
0
0
0
0
0
0
0
0
0
0
0
0
0
0
0
0
0
0
0
0
0
0
0
0
0
0
0
0
0
0
0
0
0
0
0
0
0
0
0
0
0
0
0
0
0
0
0
0
0
0
0
0
0
0
0
0
0
0
0
0
0
0
0
0
0
0
0
0
0
0
0
0
0
0
0
0
0
0
0
0
0
0
0
0
0
0
0
0
0
0
0
0
0
0
0
0
0
0
0
0
0
0
0
0
0
0
0
0
0
0
0
0
0
0
0
0
0
0
0
0
0
0
0
0
0
0
0
0
0
0
0
0
0
0
0
0
0
0
0
0
0
0
0
0
0
0
0
0
0
0
0
0
0
0
0
0
0
0
0
0
0
0
0
0
0
0
0
0
0
0
0
0
0
0
0
0
0
0
0
0
0
0
0
0
0
0
0
0
0
0
0
0
0
0
0
0
0
0
0
0
0
0
0
0
0
0
0
0
0
0
0
0
0
0
0
0
0
0
0
0
0
0
0
0
0
0
0
0
0
0
0
0
0
0
0
0
0
0
0
0
0
0
0
0
0
0
0
0
0
0
0
0
0
0
0
0
0
0
0
0
0
0
0
0
0
0
0
0
0
0
0
0
0
0
0
0
0
0
0
0
0
0
0
0
0
0
0
0
0
0
0
0
0
0
0
0
0
0
0
0
0
0
0
0
0
0
0
0
0
0
0
0
0
0
0
0
0
0
0
0
0
0
0
0
0
0
0
0
0
0
0
0
0
0
0
0
0
0
0
0
0
0
0
0
0
0
0
0
0
0
0
0
0
0
0
0
0
0
0
0
0
0
0
0
0
0
0
0
0
0
0
0
0
0
0
0
0
0
0
0
0
0
0
0
0
0
0
0
0
0
0
0
0
0
0
0
0
0
0
0
0
0
0
0
0
0
0
0
0
0
0
0
0
0
0
0
0
0
0
0
0
0
0
0
0
0
0
0
0
0
0
0
0
0
0
0
0
0
0
0
0
0
0
0
0
0
0
0
0
0
0
0
0
0
0
0
0
0
0
0
0
0
0
0
0
0
0
0
0
0
0
0
0
0
0
0
0
0
0
0
0
0
0
0
0
0
0
0
0
0
0
0
0
0
0
0
0
0
0
0
0
0
0
0
0
0
0
0
0
0
0
0
0
0
0
0
0
0
0
0
0
0
0
0
0
0
0
0
0
0
0
0
0
0
0
0
0
0
0
0
0
0
0
0
0
0
0
0
0
0
0
0
0
0
0
0
0
0
0
0
0
0
0
0
0
0
0
0
0
0
0
0
0
0
0
0
0
0
0
0
0
0
0
0
0
0
0
0
0
0
0
0
0
0
0
0
0
0
0
0
0
0
0
0
0
0
0
0
0
0
0
0
0
0
0
0
0
0
0
0
0
0
0
0
0
0
0
0
0
0
0
0
0
0
0
0
0
0
0
0
0
0
0
0
0
0
0
0
0
0
0
0
0
0
0
0
0
0
0
0
0
0
0
0
0
0
0
0
0
0
0
0
0
0
0
0
0
0
0
0
0
0
0
0
0
0
0
0
0
0
0
0
0
0
0
0
0
0
0
0
0
0
0
0
0
0
0
0
0
0
0
0
0
0
0
0
0
0
0
0
0
0
0
0
0
0
0
0
0
0
0
0
0
0
0
0
0
0
0
0
0
0
0
0
0
0
0
0
0
0
0
0
0
0
0
0
0
0
0
0
0
0
0
0
0
0
0
0
0
0
0
0
0
0
0
0
0
0
0
0
0
0
0
0
0
0
0
0
0
0
0
0
0
0
0
0
0
0
0
0
0
0
0
0
0
0
0
0
0
0
0
0
0
0
0
0
0
0
0
0
0
0
0
0
0
0
0
0
0
0
0
0
0
0
0
0
0
0
0
0
0
0
0
0
0
0
0
0
      </DataArray> 
      <DataArray type="Float64" NumberOfComponents="1" Name="NormalFibers" format="ascii">
0
0
0
0
0
0
0
0
0
0
0
0
0
0
0
0
0
0
0
0
0
0
0
0
0
0
0
0
0
0
0
0
0
0
0
0
0
0
0
0
0
0
0
0
0
0
0
0
0
0
0
0
0
0
0
0
0
0
0
0
0
0
0
0
0
0
0
0
0
0
0
0
0
0
0
0
0
0
0
0
0
0
0
0
0
0
0
0
0
0
0
0
0
0
0
0
0
0
0
0
0
0
0
0
0
0
0
0
0
0
0
0
0
0
0
0
0
0
0
0
0
0
0
0
0
0
0
0
0
0
0
0
0
0
0
0
0
0
0
0
0
0
0
0
0
0
0
0
0
0
0
0
0
0
0
0
0
0
0
0
0
0
0
0
0
0
0
0
0
0
0
0
0
0
0
0
0
0
0
0
0
0
0
0
0
0
0
0
0
0
0
0
0
0
0
0
0
0
0
0
0
0
0
0
0
0
0
0
0
0
0
0
0
0
0
0
0
0
0
0
0
0
0
0
0
0
0
0
0
0
0
0
0
0
0
0
0
0
0
0
0
0
0
0
0
0
0
0
0
0
0
0
0
0
0
0
0
0
0
0
0
0
0
0
0
0
0
0
0
0
0
0
0
0
0
0
0
0
0
0
0
0
0
0
0
0
0
0
0
0
0
0
0
0
0
0
0
0
0
0
0
0
0
0
0
0
0
0
0
0
0
0
0
0
0
0
0
0
0
0
0
0
0
0
0
0
0
0
0
0
0
0
0
0
0
0
0
0
0
0
0
0
0
0
0
0
0
0
0
0
0
0
0
0
0
0
0
0
0
0
0
0
0
0
0
0
0
0
0
0
0
0
0
0
0
0
0
0
0
0
0
0
0
0
0
0
0
0
0
0
0
0
0
0
0
0
0
0
0
0
0
0
0
0
0
0
0
0
0
0
0
0
0
0
0
0
0
0
0
0
0
0
0
0
0
0
0
0
0
0
0
0
0
0
0
0
0
0
0
0
0
0
0
0
0
0
0
0
0
0
0
0
0
0
0
0
0
0
0
0
0
0
0
0
0
0
0
0
0
0
0
0
0
0
0
0
0
0
0
0
0
0
0
0
0
0
0
0
0
0
0
0
0
0
0
0
0
0
0
0
0
0
0
0
0
0
0
0
0
0
0
0
0
0
0
0
0
0
0
0
0
0
0
0
0
0
0
0
0
0
0
0
0
0
0
0
0
0
0
0
0
0
0
0
0
0
0
0
0
0
0
0
0
0
0
0
0
0
0
0
0
0
0
0
0
0
0
0
0
0
0
0
0
0
0
0
0
0
0
0
0
0
0
0
0
0
0
0
0
0
0
0
0
0
0
0
0
0
0
0
0
0
0
0
0
0
0
0
0
0
0
0
0
0
0
0
0
0
0
0
0
0
0
0
0
0
0
0
0
0
0
0
0
0
0
0
0
0
0
0
0
0
0
0
0
0
0
0
0
0
0
0
0
0
0
0
0
0
0
0
0
0
0
0
0
0
0
0
0
0
0
0
0
0
0
0
0
0
0
0
0
0
0
0
0
0
0
0
0
0
0
0
0
0
0
0
0
0
0
0
0
0
0
0
0
0
0
0
0
0
0
0
0
0
0
0
0
0
0
0
0
0
0
0
0
0
0
0
0
0
0
0
0
0
0
0
0
0
0
0
0
0
0
0
0
0
0
0
0
0
0
0
0
0
0
0
0
0
0
0
0
0
0
0
0
0
0
0
0
0
0
0
0
0
0
0
0
0
0
0
0
0
0
0
0
0
0
0
0
0
0
0
0
0
0
0
0
0
0
0
0
0
0
0
0
0
0
0
0
0
0
0
0
0
0
0
0
0
0
0
0
0
0
0
0
0
0
0
0
0
0
0
0
0
0
0
0
0
0
0
0
0
0
0
0
0
0
0
0
0
0
0
0
0
0
0
0
0
0
0
0
0
0
0
0
0
0
0
0
0
0
0
0
0
0
0
0
0
0
0
0
0
0
0
0
0
0
0
0
0
0
0
0
0
0
0
0
0
0
0
0
0
0
0
0
0
0
0
0
0
0
0
0
0
0
0
0
0
0
0
0
0
0
0
0
0
0
0
0
0
0
0
0
0
0
0
0
0
0
0
0
0
0
0
0
0
0
0
0
0
0
0
0
0
0
0
0
0
0
0
0
0
0
0
0
0
0
0
0
0
0
0
0
0
0
0
0
0
0
0
0
0
0
0
0
0
0
0
0
0
0
0
0
0
0
0
0
0
0
0
0
0
0
0
0
0
0
0
0
0
0
0
0
0
0
0
0
0
0
0
0
0
0
0
0
0
0
0
0
0
0
0
0
0
0
0
0
0
0
0
0
0
0
0
0
0
0
0
0
0
0
0
0
0
0
0
0
0
0
0
0
0
0
0
0
0
0
0
0
0
0
0
0
0
0
0
0
0
0
0
0
0
0
0
0
0
0
0
0
0
0
0
0
0
0
0
0
0
0
0
0
0
0
0
0
0
0
0
0
0
0
0
0
0
0
0
0
0
0
0
0
0
0
0
0
0
0
0
0
0
0
0
0
0
0
0
0
0
0
0
0
0
0
0
0
0
0
0
0
0
0
0
0
0
0
0
0
0
0
0
0
0
0
0
0
0
0
0
0
0
0
0
0
0
0
0
0
0
0
0
0
0
0
0
0
0
0
0
0
0
0
0
0
0
0
0
0
0
0
0.00654016
0.00654016
0.0349568
0.0349568
-0.112465
-0.112465
-0.0566491
-0.0566491
-0.00311738
-0.00311738
-0.0534743
-0.0534743
0.0032537
0.0032537
0.024999
0.024999
-0.139618
-0.139618
-0.0176015
-0.0176015
-0.0456943
-0.0456943
-0.0691213
-0.0691213
-0.119755
-0.119755
0.0307648
0.0307648
-0.0566947
-0.0566947
0.0798905
0.0798905
-0.0477726
-0.0477726
-0.00373626
-0.00373626
0.0465811
0.0465811
-0.0293031
-0.0293031
-0.0167717
-0.0167717
-0.0707586
-0.0707586
-0.274657
-0.274657
-0.0272961
-0.0272961
-0.0351653
-0.0351653
-0.0245546
-0.0245546
-0.0167671
-0.0167671
-0.00412935
-0.00412935
-0.137138
-0.137138
0.0117622
0.0117622
0.0110898
0.0110898
0.0132187
0.0132187
-0.185003
-0.185003
-0.0296592
-0.0296592
-0.206662
-0.206662
-0.0110679
-0.0110679
-0.0435511
-0.0435511
-0.0158207
-0.0158207
0.00961226
0.00961226
-0.0538601
-0.0538601
-0.0407137
-0.0407137
0.0670249
0.0670249
-0.062561
-0.062561
-0.0565689
-0.0565689
-0.197692
-0.197692
-0.0542008
-0.0542008
-0.0326642
-0.0326642
-0.034799
-0.034799
-0.0222714
-0.0222714
-0.0217639
-0.0217639
0.098164
0.098164
-0.0317837
-0.0317837
0.0183421
0.0183421
-0.162658
-0.162658
-0.00543878
-0.00543878
-0.0166004
-0.0166004
-0.0815693
-0.0815693
-0.102354
-0.102354
-0.00686556
-0.00686556
-0.0211314
-0.0211314
-0.0792575
-0.0792575
0.0579074
0.0579074
0.00064547
0.00064547
-0.0781308
-0.0781308
-0.0577703
-0.0577703
-0.0574591
-0.0574591
-0.0586591
-0.0586591
0.0549249
0.0549249
0.0764856
0.0764856
-0.127567
-0.127567
-0.0874835
-0.0874835
-0.0284018
-0.0284018
-0.211239
-0.211239
0.0513647
0.0513647
-0.106428
-0.106428
-0.000380453
-0.000380453
-0.0318875
-0.0318875
-0.00393213
-0.00393213
-0.0806905
-0.0806905
-0.0600926
-0.0600926
-0.137284
-0.137284
0.0130232
0.0130232
-0.0731904
-0.0731904
-0.193463
-0.193463
-0.121371
-0.121371
-0.0977581
-0.0977581
-0.0272662
-0.0272662
-0.0087526
-0.0087526
0.0282004
0.0282004
-0.00601048
-0.00601048
-0.0276176
-0.0276176
-0.00115503
-0.00115503
0.050206
0.050206
-0.103244
-0.103244
-0.162842
-0.162842
-0.0118344
-0.0118344
0.00750994
0.00750994
-0.0415424
-0.0415424
-0.254914
-0.254914
-0.0551539
-0.0551539
-0.00144735
-0.00144735
-0.0701032
-0.0701032
-0.0287194
-0.0287194
-0.0559801
-0.0559801
-0.010438
-0.010438
0.00990563
0.00990563
-0.19127
-0.19127
-0.0471838
-0.0471838
-0.0326452
-0.0326452
-0.0376061
-0.0376061
-0.1193
-0.1193
0.0940781
0.0940781
0.0614342
0.0614342
0.014114
0.014114
0.0470911
0.0470911
-0.0114818
-0.0114818
-0.00541237
-0.00541237
-0.0829544
-0.0829544
-0.131406
-0.131406
0.0136953
0.0136953
-0.00605363
-0.00605363
-0.025145
-0.025145
0.0144017
0.0144017
-0.0426096
-0.0426096
-0.0670302
-0.0670302
-0.153549
-0.153549
-0.00567208
-0.00567208
-0.00658574
-0.00658574
0.0040295
0.0040295
-0.19759
-0.19759
-0.101431
-0.101431
0.0337033
0.0337033
0.00511579
0.00511579
-0.0269432
-0.0269432
0.0569727
0.0569727
-0.0350423
-0.0350423
-0.00681568
-0.00681568
-0.0754118
-0.0754118
-0.0866405
-0.0866405
-0.0302123
-0.0302123
-0.00956151
-0.00956151
-0.0427329
-0.0427329
-0.00753048
-0.00753048
-0.0207949
-0.0207949
-0.0151342
-0.0151342
-0.00955838
-0.00955838
-0.0281487
-0.0281487
0.0163425
0.0163425
-0.0255848
-0.0255848
-0.0849929
-0.0849929
-0.0161965
-0.0161965
-0.0100541
-0.0100541
0.0231271
0.0231271
-0.162994
-0.162994
-0.140736
-0.140736
-0.386789
-0.386789
-0.191009
-0.191009
-0.145559
-0.145559
0.0025074
0.0025074
-0.0254726
-0.0254726
-0.0742897
-0.0742897
0.0521904
0.0521904
-0.0354784
-0.0354784
0.037032
0.037032
-0.00726758
-0.00726758
-0.0480173
-0.0480173
-0.0793991
-0.0793991
0.0275803
0.0275803
-0.0647677
-0.0647677
-0.0387967
-0.0387967
-0.0290724
-0.0290724
-0.0927707
-0.0927707
-0.0889522
-0.0889522
-0.0118558
-0.0118558
0.00573975
0.00573975
-0.0548854
-0.0548854
-0.0147797
-0.0147797
-0.0744945
-0.0744945
-0.0667047
-0.0667047
-0.0907237
-0.0907237
-0.0118212
-0.0118212
-0.0167769
-0.0167769
-0.00153047
-0.00153047
-0.172861
-0.172861
-0.0976778
-0.0976778
-0.196833
-0.196833
-0.00865815
-0.00865815
-0.010308
-0.010308
0.0354885
0.0354885
0.0169118
0.0169118
0.0396384
0.0396384
0.0695513
0.0695513
-0.0607884
-0.0607884
-0.0667299
-0.0667299
0.00357132
0.00357132
-0.020971
-0.020971
-0.000997565
-0.000997565
-0.0164269
-0.0164269
-0.0428306
-0.0428306
0.0200341
0.0200341
-0.0252585
-0.0252585
-0.131717
-0.131717
-0.0107559
-0.0107559
0.0451212
0.0451212
-0.020228
-0.020228
-0.263144
-0.263144
0.0445236
0.0445236
0.0115966
0.0115966
-0.0193513
-0.0193513
-0.0994729
-0.0994729
-0.00399038
-0.00399038
-0.0179962
-0.0179962
-0.111958
-0.111958
-0.0522118
-0.0522118
0.0442335
0.0442335
-0.0253075
-0.0253075
-0.0505058
-0.0505058
-0.12636
-0.12636
0.0742075
0.0742075
0.0735657
0.0735657
-0.00286044
-0.00286044
-0.154066
-0.154066
0.0172019
0.0172019
-0.0390001
-0.0390001
-0.059954
-0.059954
-0.0113387
-0.0113387
0.000406793
0.000406793
-0.0165728
-0.0165728
-0.121398
-0.121398
-0.0377627
-0.0377627
-0.0112121
-0.0112121
-0.0101932
-0.0101932
-0.0394644
-0.0394644
-0.156978
-0.156978
0.00449761
0.00449761
-0.0331582
-0.0331582
-0.047663
-0.047663
-0.198659
-0.198659
-0.139891
-0.139891
-0.121345
-0.121345
-0.0359213
-0.0359213
-0.00817107
-0.00817107
-0.00713491
-0.00713491
0.0802468
0.0802468
-0.00346515
-0.00346515
-0.0159374
-0.0159374
-0.00957495
-0.00957495
0.0724895
0.0724895
-0.141469
-0.141469
-0.0621224
-0.0621224
-0.0103265
-0.0103265
-0.189195
-0.189195
-0.192361
-0.192361
-0.00720434
-0.00720434
-0.21381
-0.21381
-0.00204088
-0.00204088
-0.124496
-0.124496
0.0379888
0.0379888
-0.0185897
-0.0185897
-0.000843418
-0.000843418
-0.0316285
-0.0316285
-0.288468
-0.288468
-0.0367968
-0.0367968
-0.016533
-0.016533
-0.0372135
-0.0372135
-0.129172
-0.129172
-0.0601686
-0.0601686
-0.0593615
-0.0593615
0.0876915
0.0876915
-0.0116125
-0.0116125
-0.145813
-0.145813
-0.0171738
-0.0171738
-0.00750756
-0.00750756
-0.190302
-0.190302
-0.0262536
-0.0262536
-0.153531
-0.153531
-0.018687
-0.018687
-0.0040301
-0.0040301
-0.0754715
-0.0754715
0.0285703
0.0285703
0.0018903
0.0018903
-0.0454726
-0.0454726
-0.0569439
-0.0569439
-0.0407365
-0.0407365
-0.0734578
-0.0734578
-0.175157
-0.175157
0.0563272
0.0563272
-0.154205
-0.154205
0.00823473
0.00823473
-0.181081
-0.181081
-0.0533413
-0.0533413
-0.072774
-0.072774
-0.00967566
-0.00967566
0.0318595
0.0318595
-0.207768
-0.207768
0.0417826
0.0417826
0.0156719
0.0156719
0.0816168
0.0816168
-0.175051
-0.175051
-0.0521764
-0.0521764
-0.00317819
-0.00317819
-0.0927759
-0.0927759
-0.129865
-0.129865
-0.0355644
-0.0355644
-0.159614
-0.159614
-0.0628605
-0.0628605
-0.018416
-0.018416
-0.0298729
-0.0298729
0.0330091
0.0330091
-0.143555
-0.143555
0.055766
0.055766
-0.0459463
-0.0459463
0.000827061
0.000827061
-0.0572874
-0.0572874
0.00856318
0.00856318
0.0305722
0.0305722
-0.0526265
-0.0526265
-0.0873907
-0.0873907
-0.132586
-0.132586
0.0078081
0.0078081
-0.194171
-0.194171
0.037611
0.037611
-0.0252442
-0.0252442
-0.0774108
-0.0774108
-0.123864
-0.123864
-0.169661
-0.169661
-0.15773
-0.15773
-0.0211208
-0.0211208
-0.0753978
-0.0753978
-0.00105113
-0.00105113
-0.011776
-0.011776
-0.21277
-0.21277
-0.0221458
-0.0221458
0.0680898
0.0680898
0.0322179
0.0322179
-0.0251129
-0.0251129
-0.00163481
-0.00163481
0.00137871
0.00137871
-0.000346249
-0.000346249
-0.0611494
-0.0611494
-0.0583283
-0.0583283
0.0147909
0.0147909
-0.0102311
-0.0102311
-0.0881288
-0.0881288
0.0196689
0.0196689
-0.0472478
-0.0472478
-0.0306664
-0.0306664
-0.0359654
-0.0359654
-0.0161572
-0.0161572
-0.0153637
-0.0153637
-0.10923
-0.10923
-0.0112819
-0.0112819
0.00713853
0.00713853
-0.00600598
-0.00600598
0.0747082
0.0747082
-0.0885314
-0.0885314
-0.0713899
-0.0713899
-0.0635289
-0.0635289
-0.073046
-0.073046
-0.0261266
-0.0261266
-0.110269
-0.110269
-0.119491
-0.119491
-0.0560806
-0.0560806
-0.231297
-0.231297
0.0366133
0.0366133
-0.0164983
-0.0164983
-0.0113798
-0.0113798
0.0746587
0.0746587
0.0373292
0.0373292
-0.0107413
-0.0107413
-0.000517107
-0.000517107
-0.020439
-0.020439
-0.0225501
-0.0225501
-0.0879526
-0.0879526
-0.0586974
-0.0586974
-0.0588833
-0.0588833
-0.05286
-0.05286
-0.0783061
-0.0783061
-0.018532
-0.018532
0.0197158
0.0197158
0.0553979
0.0553979
-0.0370644
-0.0370644
-0.0563095
-0.0563095
-0.0230923
-0.0230923
-0.334427
-0.334427
0.00956374
0.00956374
0.0359349
0.0359349
-0.176292
-0.176292
0.042764
0.042764
-0.0276034
-0.0276034
0.0233905
0.0233905
-0.304306
-0.304306
-0.0374748
-0.0374748
0.0337344
0.0337344
-0.218429
-0.218429
-0.102518
-0.102518
-0.0563067
-0.0563067
-0.21827
-0.21827
-0.0213127
-0.0213127
-0.0205666
-0.0205666
-0.0719019
-0.0719019
-0.302609
-0.302609
-0.0749906
-0.0749906
-0.0089181
-0.0089181
-0.0237398
-0.0237398
0.00554236
0.00554236
-0.150853
-0.150853
-0.0797251
-0.0797251
0.0126555
0.0126555
-0.0682705
-0.0682705
-0.0267169
-0.0267169
-0.0245502
-0.0245502
-0.114007
-0.114007
-0.124053
-0.124053
-0.177104
-0.177104
-0.00259846
-0.00259846
-0.0403659
-0.0403659
-0.0686299
-0.0686299
-0.037375
-0.037375
-0.0435754
-0.0435754
0.00433482
0.00433482
-0.0592168
-0.0592168
0.023888
0.023888
-0.0431724
-0.0431724
-0.0337049
-0.0337049
-0.0137434
-0.0137434
0.0421646
0.0421646
-0.0961289
-0.0961289
-0.123433
-0.123433
-0.0124643
-0.0124643
-0.140102
-0.140102
-0.0329432
-0.0329432
-0.218554
-0.218554
-0.362765
-0.362765
0.0216658
0.0216658
0.0408257
0.0408257
0.0214573
0.0214573
-0.0868617
-0.0868617
0.000875689
0.000875689
-0.00456299
-0.00456299
-0.149099
-0.149099
-0.00998287
-0.00998287
-0.0114035
-0.0114035
0.00607422
0.00607422
-0.00730917
-0.00730917
-0.0875298
-0.0875298
-0.240982
-0.240982
-0.00507255
-0.00507255
-0.0004366
-0.0004366
-0.024904
-0.024904
-0.027099
-0.027099
-0.181243
-0.181243
-0.00903364
-0.00903364
-0.138123
-0.138123
0.00695021
0.00695021
-0.0646282
-0.0646282
-0.0427637
-0.0427637
0.0249657
0.0249657
-0.0369687
-0.0369687
0.0146207
0.0146207
0.0125867
0.0125867
-0.0338879
-0.0338879
-0.00660804
-0.00660804
-0.0466386
-0.0466386
-0.0505479
-0.0505479
-0.0161759
-0.0161759
0.0414566
0.0414566
-0.037952
-0.037952
-0.0600142
-0.0600142
0.0406766
0.0406766
-0.00874005
-0.00874005
-0.107508
-0.107508
-0.00459019
-0.00459019
-0.0694016
-0.0694016
-0.207054
-0.207054
-0.0271347
-0.0271347
-0.0515957
-0.0515957
-0.0905089
-0.0905089
0.0608465
0.0608465
0.022698
0.022698
-0.0499861
-0.0499861
0.0153538
0.0153538
-0.0065803
-0.0065803
-0.0560178
-0.0560178
-0.0474161
-0.0474161
-0.0446292
-0.0446292
-0.0111188
-0.0111188
0.000302724
0.000302724
-0.0405525
-0.0405525
-0.0423597
-0.0423597
-0.0147033
-0.0147033
-0.0286412
-0.0286412
-0.300124
-0.300124
-0.0103167
-0.0103167
-0.0359022
-0.0359022
-0.0460182
-0.0460182
-0.0199922
-0.0199922
0.0221241
0.0221241
-0.0263641
-0.0263641
-0.0432168
-0.0432168
0.0204754
0.0204754
0.00695985
0.00695985
-0.0708483
-0.0708483
-0.05338
-0.05338
-0.135442
-0.135442
-0.0217363
-0.0217363
0.00536891
0.00536891
-0.0176187
-0.0176187
-0.0140128
-0.0140128
-0.0819669
-0.0819669
-0.0099377
-0.0099377
-0.0285199
-0.0285199
-0.0266311
-0.0266311
-0.153784
-0.153784
-0.016813
-0.016813
-0.0178088
-0.0178088
-0.0409253
-0.0409253
-0.128134
-0.128134
-0.0041358
-0.0041358
-0.144574
-0.144574
-0.00448273
-0.00448273
-0.186154
-0.186154
-0.154459
-0.154459
-0.000673221
-0.000673221
0.0383896
0.0383896
0.0122982
0.0122982
-0.113633
-0.113633
-0.00344402
-0.00344402
-0.0340685
-0.0340685
-0.176005
-0.176005
0.0489904
0.0489904
-0.112567
-0.112567
-0.039789
-0.039789
-0.105167
-0.105167
-0.146866
-0.146866
0.0636505
0.0636505
-0.0231329
-0.0231329
-0.0583973
-0.0583973
-0.0133594
-0.0133594
-0.0626943
-0.0626943
-0.0147061
-0.0147061
-0.0195699
-0.0195699
-0.0398779
-0.0398779
-0.107769
-0.107769
-0.0703879
-0.0703879
0.00702225
0.00702225
-0.11973
-0.11973
-0.0512518
-0.0512518
-0.0602913
-0.0602913
-0.0923469
-0.0923469
-0.117782
-0.117782
-0.073253
-0.073253
0.0238414
0.0238414
-0.271701
-0.271701
0.0141474
0.0141474
-0.0690532
-0.0690532
-0.031445
-0.031445
-0.170403
-0.170403
-0.0995837
-0.0995837
0.0511301
0.0511301
-0.0885082
-0.0885082
-0.129917
-0.129917
-0.0388803
-0.0388803
-0.112732
-0.112732
-0.1815
-0.1815
0.0558942
0.0558942
-0.0413348
-0.0413348
-0.000188449
-0.000188449
-0.014456
-0.014456
-0.156412
-0.156412
-0.150582
-0.150582
-0.00766068
-0.00766068
-0.0448487
-0.0448487
0.0287531
0.0287531
-0.108968
-0.108968
-0.00794362
-0.00794362
-0.246279
-0.246279
-0.177926
-0.177926
-0.0269191
-0.0269191
-0.0280947
-0.0280947
-0.148642
-0.148642
-0.0587391
-0.0587391
0.0882407
0.0882407
-0.126606
-0.126606
0.0822251
0.0822251
-0.0337205
-0.0337205
-0.0319557
-0.0319557
-0.143775
-0.143775
-0.0194257
-0.0194257
-0.00502117
-0.00502117
-0.02874
-0.02874
-0.0417121
-0.0417121
-0.0338003
-0.0338003
-0.0340833
-0.0340833
0.0015402
0.0015402
-0.0222483
-0.0222483
-0.0906429
-0.0906429
-0.0297867
-0.0297867
-0.0371348
-0.0371348
-0.0260527
-0.0260527
-0.0123078
-0.0123078
-0.0445822
-0.0445822
0.0158699
0.0158699
-0.0304346
-0.0304346
0.00537933
0.00537933
-0.0181616
-0.0181616
-0.197724
-0.197724
-0.0361384
-0.0361384
-0.0581756
-0.0581756
0.0322153
0.0322153
-0.0162768
-0.0162768
0.0114677
0.0114677
-0.0327922
-0.0327922
-0.15807
-0.15807
-0.0116852
-0.0116852
-0.131996
-0.131996
-0.028982
-0.028982
-0.00581272
-0.00581272
-0.0341814
-0.0341814
-0.034205
-0.034205
-0.0321541
-0.0321541
-0.0439113
-0.0439113
-0.0677925
-0.0677925
0.066721
0.066721
0.00211798
0.00211798
-0.0052812
-0.0052812
-0.068237
-0.068237
0.0409004
0.0409004
-0.0187409
-0.0187409
-0.0104643
-0.0104643
-0.0375994
-0.0375994
-0.0317193
-0.0317193
-0.00521235
-0.00521235
-0.0234708
-0.0234708
-0.00103097
-0.00103097
-0.0128102
-0.0128102
-0.04575
-0.04575
0.00877765
0.00877765
-0.0856462
-0.0856462
-0.0420533
-0.0420533
0.0853497
0.0853497
-0.0113159
-0.0113159
0.0269201
0.0269201
-0.0263706
-0.0263706
-0.233042
-0.233042
-0.197113
-0.197113
-0.084296
-0.084296
0.0516296
0.0516296
-0.130354
-0.130354
-0.00322867
-0.00322867
-0.0142483
-0.0142483
-0.0159254
-0.0159254
-0.0043806
-0.0043806
-0.0348967
-0.0348967
-0.0440352
-0.0440352
-0.0130921
-0.0130921
-0.0637862
-0.0637862
-0.291388
-0.291388
-0.0223316
-0.0223316
-0.0343816
-0.0343816
-0.0231819
-0.0231819
-0.0793022
-0.0793022
0.0248332
0.0248332
-0.130622
-0.130622
-0.00627345
-0.00627345
0.0375959
0.0375959
-0.00648569
-0.00648569
-0.015954
-0.015954
-0.203292
-0.203292
-0.203022
-0.203022
-0.176651
-0.176651
-0.00327901
-0.00327901
0.00831254
0.00831254
-0.0391704
-0.0391704
-0.00926729
-0.00926729
-0.0135447
-0.0135447
-0.0154494
-0.0154494
-0.00768105
-0.00768105
0.0481253
0.0481253
-0.217886
-0.217886
-0.0132184
-0.0132184
-0.00141873
-0.00141873
-0.00773792
-0.00773792
-0.0189459
-0.0189459
-0.0101928
-0.0101928
0.0165139
0.0165139
-0.122112
-0.122112
-0.0259204
-0.0259204
-0.0688488
-0.0688488
-0.132353
-0.132353
-0.0449464
-0.0449464
-0.177151
-0.177151
-0.0592779
-0.0592779
-0.0565623
-0.0565623
-0.0043362
-0.0043362
-0.0209537
-0.0209537
0.0472044
0.0472044
0.0687289
0.0687289
-0.0143364
-0.0143364
-0.00758468
-0.00758468
0.0150691
0.0150691
-0.0918865
-0.0918865
-0.00866346
-0.00866346
0.0343898
0.0343898
-0.0334492
-0.0334492
-0.00015841
-0.00015841
-0.0129649
-0.0129649
-0.0186447
-0.0186447
-0.169534
-0.169534
0.0680274
0.0680274
-0.00925671
-0.00925671
-0.0625653
-0.0625653
-0.0933651
-0.0933651
-0.102833
-0.102833
-0.013615
-0.013615
-0.00781288
-0.00781288
-0.12607
-0.12607
0.0174177
0.0174177
-0.168123
-0.168123
-0.220243
-0.220243
0.0173938
0.0173938
-0.0141883
-0.0141883
-0.156312
-0.156312
-0.0298296
-0.0298296
-0.0394033
-0.0394033
-0.0653272
-0.0653272
-0.0213809
-0.0213809
0.0355502
0.0355502
-0.146506
-0.146506
-0.0572173
-0.0572173
0.0226395
0.0226395
-0.127846
-0.127846
-0.0348267
-0.0348267
-0.0295447
-0.0295447
-0.0128639
-0.0128639
-0.0103793
-0.0103793
-0.0411597
-0.0411597
-0.0759554
-0.0759554
-0.0146427
-0.0146427
0.038348
0.038348
-0.357371
-0.357371
0.00455033
0.00455033
-0.0184113
-0.0184113
-0.0516369
-0.0516369
0.0225189
0.0225189
-0.0496508
-0.0496508
-0.0239628
-0.0239628
-0.034133
-0.034133
-0.00466864
-0.00466864
0.0103213
0.0103213
0.00678067
0.00678067
0.0125841
0.0125841
-0.179464
-0.179464
-0.0495327
-0.0495327
0.00692738
0.00692738
0.0474091
0.0474091
0.00951401
0.00951401
0.0451636
0.0451636
-0.0219314
-0.0219314
0.0107895
0.0107895
-0.0218691
-0.0218691
-0.024958
-0.024958
-0.305721
-0.305721
0.0167942
0.0167942
-0.256719
-0.256719
0.043345
0.043345
0.00298308
0.00298308
-0.0474232
-0.0474232
-0.0260363
-0.0260363
-0.0821795
-0.0821795
-0.0926331
-0.0926331
-0.0303607
-0.0303607
-0.003753
-0.003753
0.0470714
0.0470714
-0.107894
-0.107894
-0.0279353
-0.0279353
-0.023308
-0.023308
0.0645469
0.0645469
0.00133324
0.00133324
-0.00592286
-0.00592286
0.00068207
0.00068207
-0.0105566
-0.0105566
-0.0681413
-0.0681413
-0.145398
-0.145398
-0.166886
-0.166886
-0.0255322
-0.0255322
0.0346546
0.0346546
-0.169754
-0.169754
-0.0663825
-0.0663825
0.0634314
0.0634314
-0.00798517
-0.00798517
0.00155771
0.00155771
-0.046817
-0.046817
-0.0382618
-0.0382618
-0.010838
-0.010838
-0.162416
-0.162416
0.0981304
0.0981304
-0.116221
-0.116221
-0.0107868
-0.0107868
-0.049701
-0.049701
-0.213483
-0.213483
0.00861043
0.00861043
-0.0407762
-0.0407762
-0.186756
-0.186756
0.0701905
0.0701905
-0.00508986
-0.00508986
0.00977632
0.00977632
-0.0295568
-0.0295568
0.0399058
0.0399058
-0.00259021
-0.00259021
-0.00796958
-0.00796958
-0.0550868
-0.0550868
-0.0898359
-0.0898359
-0.273522
-0.273522
-0.213745
-0.213745
0.0253164
0.0253164
-0.202063
-0.202063
-0.0392134
-0.0392134
-0.019468
-0.019468
0.00270551
0.00270551
-0.0637628
-0.0637628
0.0152033
0.0152033
-0.00808338
-0.00808338
0.0130989
0.0130989
-0.00711733
-0.00711733
0.000147028
0.000147028
-0.0552099
-0.0552099
-0.0332693
-0.0332693
-0.0071602
-0.0071602
-0.108072
-0.108072
0.00523264
0.00523264
-0.0413091
-0.0413091
-0.047835
-0.047835
0.0347635
0.0347635
-0.0543799
-0.0543799
-0.0252969
-0.0252969
0.0543962
0.0543962
0.0141557
0.0141557
0.0502583
0.0502583
-0.0660426
-0.0660426
-0.00260516
-0.00260516
-0.137262
-0.137262
-0.0415879
-0.0415879
-0.203668
-0.203668
-0.11103
-0.11103
-0.203972
-0.203972
-0.0163586
-0.0163586
-0.141923
-0.141923
0.00476007
0.00476007
-0.0373609
-0.0373609
-0.179055
-0.179055
-0.203954
-0.203954
0.03046
0.03046
-0.0409511
-0.0409511
0.0375655
0.0375655
0.0484838
0.0484838
-0.0749757
-0.0749757
-0.190215
-0.190215
-0.0067481
-0.0067481
0.0172544
0.0172544
0.0124137
0.0124137
0.0368081
0.0368081
-0.101224
-0.101224
-0.0373547
-0.0373547
0.00405963
0.00405963
-0.0376666
-0.0376666
-0.0415199
-0.0415199
-0.0521181
-0.0521181
0.020372
0.020372
-0.112376
-0.112376
-0.0136807
-0.0136807
-0.0124354
-0.0124354
-0.025292
-0.025292
-0.0369817
-0.0369817
-0.0107292
-0.0107292
-0.123591
-0.123591
-0.175642
-0.175642
-0.0267893
-0.0267893
-0.00617558
-0.00617558
-0.0396535
-0.0396535
0.00835397
0.00835397
-0.182058
-0.182058
-0.0026864
-0.0026864
0.0511596
0.0511596
-0.221052
-0.221052
-0.00394717
-0.00394717
-0.0563434
-0.0563434
-0.062237
-0.062237
-0.137837
-0.137837
-0.0310527
-0.0310527
-0.0337387
-0.0337387
-0.00471024
-0.00471024
-0.156752
-0.156752
-0.0395363
-0.0395363
-0.105071
-0.105071
0.00322853
0.00322853
-0.0152959
-0.0152959
0.0177136
0.0177136
0.0261052
0.0261052
-0.0742439
-0.0742439
0.00495413
0.00495413
0.00532916
0.00532916
0.0039192
0.0039192
0.00103407
0.00103407
-0.00670404
-0.00670404
-0.042959
-0.042959
-0.0433401
-0.0433401
-0.0916781
-0.0916781
-0.0142054
-0.0142054
0.0419215
0.0419215
-0.0475358
-0.0475358
-0.142529
-0.142529
0.0318848
0.0318848
-0.0468652
-0.0468652
-0.015696
-0.015696
-0.0434974
-0.0434974
-0.0319258
-0.0319258
-0.0256389
-0.0256389
-0.0141669
-0.0141669
-0.118944
-0.118944
-0.0161573
-0.0161573
-0.0255945
-0.0255945
-0.0250028
-0.0250028
-0.148249
-0.148249
-0.239838
-0.239838
-0.0310319
-0.0310319
-0.0157951
-0.0157951
-0.152633
-0.152633
-0.0346164
-0.0346164
-0.0151228
-0.0151228
-0.0997638
-0.0997638
-0.107092
-0.107092
-0.0444252
-0.0444252
-0.0101414
-0.0101414
-0.0838652
-0.0838652
0.0141618
0.0141618
0.0288213
0.0288213
0.00282317
0.00282317
-0.00886725
-0.00886725
-0.029443
-0.029443
0.0287419
0.0287419
0.0752213
0.0752213
-0.153531
-0.153531
-0.0216478
-0.0216478
-0.0294415
-0.0294415
-0.0650997
-0.0650997
-0.0471099
-0.0471099
0.0175847
0.0175847
-0.0538307
-0.0538307
0.0286204
0.0286204
-0.124989
-0.124989
-0.178268
-0.178268
0.0844318
0.0844318
-0.142926
-0.142926
-0.172763
-0.172763
-0.114265
-0.114265
-0.0603005
-0.0603005
-0.0225895
-0.0225895
-0.0223979
-0.0223979
-0.0868972
-0.0868972
-0.0604617
-0.0604617
0.00168934
0.00168934
-0.0200853
-0.0200853
-0.00970165
-0.00970165
0.0193871
0.0193871
-0.0562292
-0.0562292
-0.125483
-0.125483
-0.261815
-0.261815
-0.180821
-0.180821
-0.101467
-0.101467
-0.0698796
-0.0698796
-0.311081
-0.311081
-0.0148029
-0.0148029
-0.134629
-0.134629
0.0319319
0.0319319
-0.0045324
-0.0045324
-0.180856
-0.180856
-0.0597949
-0.0597949
-0.0521782
-0.0521782
-0.138614
-0.138614
-0.0115668
-0.0115668
-0.0187004
-0.0187004
-0.0112476
-0.0112476
-0.02692
-0.02692
-0.136422
-0.136422
-0.0172117
-0.0172117
-0.0134142
-0.0134142
-0.0122818
-0.0122818
-0.00266513
-0.00266513
-0.102425
-0.102425
-0.00610943
-0.00610943
-0.186768
-0.186768
-0.306976
-0.306976
-0.031407
-0.031407
0.0260143
0.0260143
-0.0562354
-0.0562354
-0.0583841
-0.0583841
-0.0216642
-0.0216642
-0.0773383
-0.0773383
0.0146732
0.0146732
-0.0145669
-0.0145669
-0.011094
-0.011094
-0.00901716
-0.00901716
-0.00780773
-0.00780773
-0.00613448
-0.00613448
-0.00484047
-0.00484047
-0.00360613
-0.00360613
-0.00249007
-0.00249007
-0.00156289
-0.00156289
-0.000632229
-0.000632229
0.000148031
0.000148031
0.000842869
0.000842869
0.00151566
0.00151566
0.00193488
0.00193488
0.00231787
0.00231787
0.00267359
0.00267359
0.00280862
0.00280862
0.00293347
0.00293347
0.00286472
0.00286472
0.00284714
0.00284714
0.00258762
0.00258762
0.00219366
0.00219366
0.00189911
0.00189911
0.00135743
0.00135743
0.000759738
0.000759738
-7.11071e-05
-7.11071e-05
-0.000770614
-0.000770614
-0.00152834
-0.00152834
-0.00273329
-0.00273329
-0.00370681
-0.00370681
-0.00546462
-0.00546462
-0.00646885
-0.00646885
-0.00756485
-0.00756485
-0.0101484
-0.0101484
-0.0121031
-0.0121031
-0.012805
-0.012805
-0.0151811
-0.0151811
-0.0196493
-0.0196493
-0.0216056
-0.0216056
-0.0238653
-0.0238653
-0.0295502
-0.0295502
-0.0349397
-0.0349397
-0.041141
-0.041141
-0.0499339
-0.0499339
-0.065069
-0.065069
-0.0798544
-0.0798544
-0.110172
-0.110172
-0.129861
-0.129861
-0.0631285
-0.0631285
0.00767041
0.00767041
-0.0184444
-0.0184444
-0.0270133
-0.0270133
-0.0216365
-0.0216365
-0.0217446
-0.0217446
-0.0204465
-0.0204465
-0.027823
-0.027823
-0.0399698
-0.0399698
-0.0473426
-0.0473426
-0.0551241
-0.0551241
-0.0624971
-0.0624971
-0.067656
-0.067656
-0.0688951
-0.0688951
-0.0670801
-0.0670801
-0.0636357
-0.0636357
-0.0583915
-0.0583915
-0.0519956
-0.0519956
-0.0447748
-0.0447748
-0.0381024
-0.0381024
-0.0316544
-0.0316544
-0.0266514
-0.0266514
-0.0244545
-0.0244545
-0.022292
-0.022292
-0.012749
-0.012749
-0.0118381
-0.0118381
-0.0102447
-0.0102447
-0.0078017
-0.0078017
-0.00648066
-0.00648066
-0.00558564
-0.00558564
-0.00369631
-0.00369631
-0.00287277
-0.00287277
-0.0015186
-0.0015186
-0.000753353
-0.000753353
-6.74568e-05
-6.74568e-05
0.000791832
0.000791832
0.00135459
0.00135459
0.00188624
0.00188624
0.00216262
0.00216262
0.00264528
0.00264528
0.00275933
0.00275933
0.00285566
0.00285566
0.00278746
0.00278746
0.00287802
0.00287802
0.00263412
0.00263412
0.00229136
0.00229136
0.0019906
0.0019906
0.00141857
0.00141857
0.000865355
0.000865355
0.000171878
0.000171878
-0.000660487
-0.000660487
-0.00150826
-0.00150826
-0.00254986
-0.00254986
-0.00365729
-0.00365729
-0.00495232
-0.00495232
-0.00619218
-0.00619218
-0.00764836
-0.00764836
-0.0091917
-0.0091917
-0.0112577
-0.0112577
-0.0148052
-0.0148052
-0.0218907
-0.0218907
-0.024522
-0.024522
-0.0266833
-0.0266833
-0.0317695
-0.0317695
-0.0380934
-0.0380934
-0.0452149
-0.0452149
-0.0527252
-0.0527252
-0.0590681
-0.0590681
-0.0644096
-0.0644096
-0.0678415
-0.0678415
-0.0690626
-0.0690626
-0.0676326
-0.0676326
-0.0635434
-0.0635434
-0.0544338
-0.0544338
-0.0450794
-0.0450794
-0.0355451
-0.0355451
-0.0286159
-0.0286159
-0.0246699
-0.0246699
-0.0191058
-0.0191058
-0.0197446
-0.0197446
-0.0213772
-0.0213772
-0.0174818
-0.0174818
-0.00558304
-0.00558304
-0.0526248
-0.0526248
-0.121096
-0.121096
-0.119459
-0.119459
-0.0873002
-0.0873002
-0.061706
-0.061706
-0.0524829
-0.0524829
-0.0393377
-0.0393377
-0.0342324
-0.0342324
-0.0309046
-0.0309046
-0.0245926
-0.0245926
-0.0206832
-0.0206832
-0.0193706
-0.0193706
-0.0162853
-0.0162853
      </DataArray> 
    </PointData>
    <CellData>
    </CellData>
  </Piece>
  </UnstructuredGrid>
</VTKFile>
