<?xml version="1.0"?>
<VTKFile type="UnstructuredGrid">
  <UnstructuredGrid>
  <Piece NumberOfPoints="3487"  NumberOfCells="1698">
    <Points>
      <DataArray type="Float64" NumberOfComponents="3" format="ascii">
39.9741 48.9583 0
60.0259 48.9582 0
40.6344 49.0888 0
41.2963 49.2105 0
41.9597 49.3232 0
42.6246 49.4269 0
43.2909 49.5217 0
43.9583 49.6076 0
44.6269 49.6844 0
45.2964 49.7522 0
45.9668 49.811 0
46.6379 49.8608 0
47.3096 49.9015 0
47.9818 49.9332 0
48.6543 49.9558 0
49.3271 49.9694 0
50 49.974 0
50.673 49.9694 0
51.3458 49.9558 0
52.0183 49.9332 0
52.6905 49.9015 0
53.3622 49.8608 0
54.0333 49.811 0
54.7037 49.7522 0
55.3732 49.6844 0
56.0417 49.6075 0
56.7092 49.5217 0
57.3754 49.4269 0
58.0403 49.3231 0
58.7038 49.2104 0
59.3657 49.0888 0
39.9996 49.9738 0
39.998 49.7198 0
39.9933 49.4659 0
39.9853 49.2121 0
19.9927 69.9669 0
39.9978 50.2355 0
39.9926 50.4971 0
39.979 50.8755 0
39.9582 51.2536 0
39.9155 51.7999 0
39.8578 52.3449 0
39.7479 53.1303 0
39.607 53.9107 0
39.3485 55.0287 0
39.0263 56.1303 0
38.754 56.9147 0
38.4494 57.6873 0
38.1129 58.4466 0
37.7452 59.1913 0
37.1591 60.2405 0
36.5111 61.2525 0
35.8034 62.2238 0
-0.00387562 49.9635 0
17.3822 69.7952 0
14.8165 69.2842 0
12.3395 68.4428 0
9.99332 67.2853 0
7.81839 65.8316 0
11.5011 31.875 0
0.19651 47.1439 0
0.792547 44.3808 0
1.77235 41.7294 0
0 0 0
0.137435 3.72761 0
0.553704 7.43501 0
1.24606 11.1012 0
2.21052 14.7052 0
3.11146 17.3614 0
50 -0.0248537 0
5.1116 0 0
10.2232 0 0
15.3348 0 0
100 0 0
57.3898 -0.0240738 0
64.7797 -0.0212277 0
72.169 -0.0152894 0
88.4989 31.8749 0
99.8626 3.72759 0
99.4463 7.43495 0
98.754 11.1011 0
97.7895 14.7052 0
96.8886 17.3614 0
100.004 49.9635 0
99.8035 47.1439 0
99.2075 44.3808 0
98.2277 41.7294 0
80.0073 69.9669 0
99.8333 52.574 0
99.3233 55.1399 0
98.4828 57.6172 0
97.326 59.9637 0
95.8729 62.1391 0
60.0004 49.9738 0
77.4965 69.8094 0
75.0254 69.3379 0
72.633 68.5601 0
70.3571 67.488 0
68.8716 66.5842 0
67.4702 65.5547 0
66.1635 64.4073 0
64.9614 63.1508 0
64.1966 62.2238 0
63.4889 61.2525 0
62.8409 60.2404 0
62.2548 59.1913 0
61.5507 57.6874 0
60.9737 56.1302 0
60.6515 55.0288 0
60.3931 53.9106 0
60.2521 53.1302 0
60.002 49.7198 0
60.0067 49.4658 0
60.0147 49.212 0
52.8219 30.2238 0
26.5164 37.046 0
40.3231 24.3438 0
24.9199 22.5867 0
71.9507 22.6205 0
72.7078 44.1166 0
54.8081 24.1713 0
15.3132 47.6 0
38.3625 49.589 0
23.6322 65.4343 0
7.70673 7.76118 0
91.9351 7.73996 0
29.1808 57.0662 0
37.1897 52.0633 0
28.0903 47.3663 0
29.73 48.3272 0
71.5143 46.8502 0
30.9892 49.2253 0
70.5121 48.3295 0
31.6343 45.8069 0
30.8876 47.2652 0
70.0637 46.8371 0
68.9856 45.1572 0
31.2949 50.3215 0
30.9095 51.5466 0
28.1919 49.3264 0
45.3053 41.431 0
53.8461 41.0523 0
56.0315 40.6012 0
73.1249 47.6084 0
70.1105 49.5715 0
68.3383 42.5821 0
32.3055 42.912 0
26.1369 45.848 0
27.675 44.8488 0
30.2997 43.4723 0
70.4185 42.7828 0
72.6765 46.116 0
44.8464 43.2239 0
51.4313 42.1304 0
55.4125 42.717 0
32.4525 49.2594 0
68.5515 49.8057 0
39.4714 42.2158 0
35.4343 43.5354 0
32.8936 46.7049 0
33.5782 48.4543 0
67.1026 48.4004 0
67.9834 46.6366 0
65.0785 43.1991 0
60.4248 41.8537 0
32.3728 51.5807 0
28.2227 51.1881 0
41.771 37.4355 0
46.8205 37.8407 0
52.0504 40.0145 0
58.6846 39.3841 0
26.6137 52.0889 0
24.3074 50.524 0
74.221 50.1281 0
71.1596 50.8266 0
69.1353 52.4057 0
67.9103 52.5373 0
59.7713 36.5025 0
66.5115 40.8246 0
34.0995 41.2008 0
36.0131 35.9322 0
23.1873 47.3494 0
21.6451 43.4451 0
28.3463 41.9541 0
74.3184 44.8749 0
76.6311 48.7358 0
43.0511 43.8121 0
46.2666 43.0976 0
49.9679 43.1456 0
48.4318 42.9284 0
51.7637 44.1835 0
54.0899 44.2993 0
52.907 44.5949 0
56.2753 43.8482 0
33.8839 49.5505 0
33.7869 51.0658 0
66.5312 51.8829 0
66.5926 49.8897 0
41.8284 44.0499 0
40.6987 43.7879 0
38.4554 43.3961 0
37.1373 44.0026 0
35.3433 45.7138 0
34.3249 46.9959 0
66.0245 46.7205 0
65.0216 45.4444 0
63.1949 43.6869 0
61.7095 43.2362 0
58.8824 43.6485 0
57.5422 43.9644 0
33.4015 52.291 0
29.1764 53.911 0
40.8239 31.154 0
50.886 36.1545 0
55.6734 34.4358 0
23.5724 53.6436 0
76.908 52.1108 0
70.2292 53.5163 0
66.4 53.1252 0
65.4861 35.3161 0
30.937 34.7313 0
19.4528 47.4774 0
26.1191 40.1883 0
72.0198 34.2498 0
72.0604 41.5417 0
77.4833 45.4834 0
43.1649 45.2546 0
45.8078 44.8905 0
48.7642 44.9815 0
51.4436 45.6102 0
53.7698 45.7261 0
56.2196 45.5467 0
34.9126 50.2607 0
65.0823 50.4776 0
40.8124 45.2303 0
38.3645 45.5746 0
36.028 47.4632 0
64.1409 47.2084 0
61.6525 45.4817 0
58.8268 45.347 0
36.0736 52.5347 0
34.924 53.3005 0
33.51 53.8154 0
31.9128 55.6122 0
26.1115 59.0956 0
23.0138 57.5043 0
32.3807 22.8386 0
47.0335 26.8407 0
63.1517 23.1913 0
20.0049 55.2161 0
80.1739 54.4811 0
75.7864 55.983 0
71.9246 56.3283 0
69.0797 55.6429 0
65.766 54.1335 0
64.0906 53.9743 0
68.17 29.1471 0
26.7579 30.2318 0
17.2519 51.9477 0
14.6033 42.6304 0
22.3852 34.216 0
84.8864 47.0612 0
84.7061 52.2245 0
75.1812 38.0954 0
81.2112 44.1214 0
42.4549 46.5855 0
41.4141 46.3941 0
44.9642 46.4306 0
43.6776 46.3477 0
47.7355 46.3718 0
46.3845 46.3043 0
50.62 46.6852 0
49.2717 46.5891 0
53.0511 47.0805 0
51.7633 47.0966 0
55.5142 46.693 0
54.234 46.7849 0
58.0629 46.6472 0
56.7811 46.8092 0
36.374 48.7863 0
36.0286 49.7892 0
35.9316 51.3046 0
63.3803 52.2381 0
63.8252 51.2255 0
63.8867 49.2323 0
63.8367 48.3287 0
40.2843 46.132 0
39.3686 46.3123 0
38.0505 46.9187 0
37.3925 47.5041 0
62.8338 47.0526 0
62.0185 46.7268 0
60.533 46.2762 0
59.4032 46.3313 0
38.0651 52.7322 0
36.1821 54.0592 0
34.0846 56.9262 0
29.6134 60.0062 0
22.8917 61.5676 0
21.7295 15.5036 0
39.9571 16.3662 0
48.9005 11.6577 0
56.9488 17.1014 0
76.6556 15.7485 0
15.6519 57.2741 0
84.5064 57.7104 0
73.3962 59.677 0
66.5111 55.7961 0
62.4501 53.7417 0
82.9385 7.87778 0
79.7558 22.722 0
16.3106 7.95754 0
18.3363 22.4313 0
10.7295 46.9715 0
16.5684 36.1603 0
15.5023 30.5415 0
89.394 49.8527 0
83.3298 31.3896 0
81.5816 39.4657 0
41.9269 47.4872 0
44.2543 47.7615 0
46.892 47.9119 0
49.5913 48.0755 0
52.2275 48.1554 0
54.7955 48.0473 0
57.3575 47.7935 0
37.3931 49.8302 0
37.9231 51.502 0
62.1847 50.9928 0
62.5796 49.0766 0
39.9703 47.4761 0
38.3966 48.2418 0
38.5125 49.012 0
61.7645 48.7111 0
61.7143 47.8472 0
59.7691 47.5765 0
38.8924 51.2609 0
61.3447 51.1961 0
39.2027 53.0409 0
38.4693 53.6021 0
38.179 54.7118 0
37.0294 55.4776 0
36.5283 57.2523 0
34.8829 58.7783 0
33.3789 60.6389 0
30.7664 62.7545 0
28.0102 64.9115 0
27.1627 7.92446 0
38.6537 8.49802 0
59.8789 8.72586 0
71.7729 8.01234 0
19.2577 64.8857 0
14.96 63.1571 0
10.7587 60.3734 0
6.30955 57.334 0
6.01343 51.3987 0
94.2191 52.4971 0
93.2996 57.5525 0
89.3132 60.8934 0
84.5594 63.4005 0
79.4512 65.0658 0
74.5547 64.0909 0
70.2494 62.8018 0
66.8153 61.3416 0
65.2055 58.666 0
62.7076 57.3346 0
62.0671 55.8041 0
61.7767 54.6943 0
61.0664 52.9581 0
93.4819 14.5864 0
89.7947 20.7916 0
86.1195 25.1732 0
6.26463 14.5786 0
13.0017 24.6315 0
9.79054 20.7789 0
5.77033 45.8276 0
5.65845 40.8812 0
12.2919 34.8951 0
94.2171 47.375 0
88.1235 37.2553 0
93.352 42.6402 0
41.0911 48.2532 0
40.4301 48.1271 0
42.132 48.4445 0
43.463 48.6431 0
42.7962 48.5527 0
44.7496 48.726 0
46.0894 48.8526 0
45.4187 48.7983 0
47.4404 48.9201 0
48.7851 48.9744 0
48.1124 48.9563 0
50.1334 49.0705 0
51.479 49.0524 0
50.8063 49.0705 0
52.7668 49.0362 0
54.1095 48.9457 0
53.4387 49 0
55.3897 48.8538 0
56.7255 48.6912 0
56.0587 48.7815 0
58.0074 48.5292 0
59.3326 48.2949 0
58.6715 48.421 0
39.3783 51.7123 0
39.3281 52.258 0
60.941 52.1752 0
60.8908 51.6295 0
38.017 50.5919 0
39.1364 49.7738 0
61.7896 50.1834 0
61.8145 49.6147 0
60.9745 49.818 0
39.5144 48.3073 0
39.1705 48.4266 0
60.9491 48.3854 0
60.4625 48.2398 0
39.4723 50.8022 0
60.4957 50.8201 0
39.493 50.1623 0
39.4895 50.4239 0
60.4785 50.4419 0
60.475 50.1802 0
39.643 49.5853 0
39.6303 49.0775 0
39.6399 49.3313 0
60.4999 49.6115 0
60.503 49.3575 0
60.5126 49.1038 0
60.9993 49.2493 0
39.2864 49.1968 0
60.9496 50.3867 0
38.9864 50.3508 0
60.899 47.5214 0
39.0546 47.6564 0
62.6296 49.9802 0
37.0477 50.8331 0
61.7397 52.0055 0
38.7984 52.171 0
58.6393 47.6315 0
56.0757 47.9554 0
53.5153 48.1393 0
50.9396 48.1716 0
48.243 47.9794 0
45.5409 47.8444 0
42.9677 47.6786 0
40.886 47.2958 0
89.1447 44.998 0
10.9283 41.1169 0
13.282 16.2478 0
85.8815 16.46 0
63.1604 55.4779 0
68.9031 58.6591 0
78.9249 60.075 0
89.273 55.1417 0
11.7862 53.085 0
19.2535 59.9046 0
66.7259 15.8994 0
30.7445 15.6103 0
26.3774 62.335 0
32.1756 58.1713 0
35.0325 54.825 0
37.3317 53.2935 0
62.5297 48.1729 0
37.7385 48.8272 0
75.9621 28.8305 0
20.4906 28.734 0
47.9126 19.459 0
60.167 45.031 0
63.138 45.9323 0
37.0464 46.181 0
39.6827 44.9682 0
65.1438 48.4844 0
65.0209 52.4708 0
34.8156 51.776 0
35.0095 48.7453 0
57.4865 45.6629 0
54.9526 45.4305 0
52.587 46.0217 0
50.3003 45.1987 0
47.228 44.7642 0
44.3875 45.0168 0
41.9422 45.4924 0
74.3497 42.8756 0
80.2562 49.0825 0
17.9981 43.528 0
21.3216 50.9942 0
34.4259 29.8693 0
59.9963 30.4259 0
67.7791 53.7795 0
73.3908 53.2258 0
54.4652 38.9365 0
46.5046 33.0901 0
26.2487 55.5985 0
31.9874 52.8059 0
69.7712 40.2077 0
30.9708 40.5775 0
57.5978 42.2659 0
63.2519 41.4415 0
66.9053 44.9567 0
33.6403 45.2466 0
37.2282 41.8242 0
41.7147 42.6075 0
68.0415 51.295 0
32.7582 50.3556 0
53.2271 43.1682 0
49.6355 41.0925 0
74.2872 46.8743 0
25.7216 43.3306 0
71.9627 48.3426 0
26.5522 48.3655 0
69.0615 48.3164 0
32.1468 48.1632 0
71.0659 45.3577 0
29.6284 46.3671 0
29.8316 50.2874 0
88.1688 34.5829 0
96.8836 39.2428 0
91.3077 35.9757 0
92.2272 38.8484 0
96.0832 38.077 0
88.4924 41.0063 0
3.11638 39.2428 0
11.8504 33.3451 0
9.99327 35.2432 0
3.91687 38.077 0
8.31667 37.7622 0
11.687 37.2506 0
11.3961 22.7053 0
10.9745 26.5778 0
9.36889 24.6518 0
11.8447 29.0838 0
4.16015 19.9627 0
5.35329 22.5007 0
8.23866 22.873 0
11.5362 18.5132 0
13.1417 20.4397 0
8.02749 17.6789 0
6.97525 20.3708 0
5.21225 17.2705 0
6.68712 24.9676 0
7.77978 26.7703 0
4.23753 14.6419 0
9.77321 15.4133 0
87.9572 22.9824 0
90.4238 24.6581 0
88.5861 26.8484 0
91.554 22.8793 0
95.8399 19.9626 0
94.6467 22.5007 0
87.7388 29.4046 0
86.0006 20.8167 0
87.8382 18.6257 0
91.6384 17.6892 0
94.661 17.2743 0
92.8174 20.3772 0
95.6358 14.6458 0
93.3129 24.9676 0
92.2202 26.7703 0
89.6818 15.5234 0
65.826 8.36809 0
62.3287 4.3521 0
68.2762 3.99511 0
54.94 4.35 0
79.5536 0 0
84.6652 0 0
75.6632 4.00453 0
69.2493 11.9556 0
63.3023 12.3126 0
32.9082 8.2102 0
31.1917 3.95107 0
36.9376 4.23828 0
23.8046 3.96091 0
20.4464 0 0
27.8311 -0.015233 0
44.3262 4.23594 0
34.6992 12.0541 0
28.9537 11.7672 0
81.6736 35.2641 0
85.445 34.7611 0
85.0604 38.3597 0
86.3221 31.7997 0
85.0239 42.4518 0
77.3125 34.1965 0
80.0566 31.3639 0
16.0377 33.0704 0
14.091 35.4921 0
13.8921 33.0231 0
14.1565 38.7322 0
13.5016 31.2086 0
17.5924 30.1913 0
18.7261 33.1695 0
16.5013 27.4974 0
14.0837 28.456 0
15.669 23.5313 0
15.8092 19.3395 0
19.4136 25.5825 0
81.6393 27.4344 0
82.9376 23.9475 0
84.877 28.8476 0
82.8186 19.5909 0
77.8587 25.7761 0
79.7969 11.8129 0
74.2139 11.881 0
77.3551 7.94604 0
71.6904 15.8238 0
81.2463 3.93853 0
84.4101 12.1688 0
81.2684 16.1043 0
52.9248 14.3793 0
54.3896 10.1913 0
58.4137 12.9136 0
49.4502 5.81631 0
61.8373 16.5 0
52.4307 18.2799 0
48.4066 15.5584 0
44.4287 14.0117 0
39.3056 12.4321 0
43.7773 10.0774 0
35.3509 15.9879 0
43.9349 17.9124 0
19.0201 11.7305 0
21.7371 7.94214 0
24.4464 11.7147 0
18.3783 3.97838 0
26.2373 15.5569 0
17.5058 15.8758 0
14.7962 12.1025 0
74.6661 34.2232 0
78.7752 37.6438 0
78.1054 41.2446 0
74.7654 40.4855 0
21.4381 31.4749 0
19.355 36.9133 0
17.0613 39.7423 0
19.7341 40.545 0
73.9908 31.5401 0
73.6004 36.1727 0
72.4762 39.1515 0
70.8955 37.2287 0
68.7529 34.7829 0
66.828 32.2315 0
70.0948 31.6985 0
62.7411 32.8711 0
64.0831 29.7864 0
72.066 28.9888 0
67.6285 37.762 0
32.6815 32.3004 0
35.2195 32.9007 0
33.4751 35.3317 0
33.4921 38.2549 0
36.6207 38.8781 0
30.954 37.6544 0
59.8838 33.4642 0
62.6287 35.9092 0
64.369 38.3787 0
61.5115 38.972 0
57.8349 32.4308 0
57.7223 35.4691 0
57.1183 37.7195 0
55.0693 36.6861 0
46.6625 35.4654 0
48.6953 34.6223 0
48.8533 36.9976 0
50.2608 38.6235 0
52.6756 37.5455 0
48.228 39.4666 0
38.8921 36.6838 0
38.4186 33.5431 0
41.2975 34.2947 0
37.6249 30.5116 0
43.6642 32.122 0
44.1378 35.2628 0
39.4997 39.6299 0
44.2958 37.6381 0
46.0629 39.6358 0
43.51 42.0193 0
47.4704 41.2618 0
43.5381 39.4332 0
41.7429 40.0215 0
90.8562 3.86995 0
87.4369 7.80916 0
86.3584 3.93963 0
88.9086 12.1004 0
89.7768 0 0
94.8884 0 0
95.9681 3.8703 0
96.4644 11.0112 0
92.7087 11.1631 0
95.6907 7.58767 0
91.0523 28.525 0
90.4408 29.3832 0
4.1302 7.5983 0
6.98552 11.1698 0
3.40887 11.0073 0
10.4941 12.0049 0
8.94771 28.5251 0
9.55925 29.3833 0
3.85285 3.88088 0
13.2662 3.97941 0
12.0086 7.85961 0
8.96473 3.88054 0
35.2203 -0.0211954 0
42.6101 -0.0240494 0
58.9798 23.6811 0
55.8784 20.6363 0
60.0502 20.1464 0
51.3604 21.8151 0
64.9387 19.5452 0
61.5739 26.8086 0
57.4022 27.2987 0
67.5511 22.9058 0
70.0603 25.8837 0
65.6608 26.1693 0
73.9564 25.7257 0
69.3382 19.2602 0
78.2058 19.2353 0
75.8531 22.6713 0
74.303 19.1842 0
23.3248 19.0449 0
21.6283 22.509 0
20.0329 18.9676 0
22.7052 25.6605 0
27.8323 19.0989 0
29.5694 26.5354 0
25.8391 26.4091 0
28.6504 22.7126 0
23.6243 29.4829 0
31.5627 19.2244 0
33.4034 26.3539 0
30.5919 30.0505 0
40.5736 27.7489 0
43.6783 25.5921 0
43.9287 28.9974 0
44.1179 21.9013 0
47.4731 23.1499 0
46.769 29.9654 0
37.3746 27.1066 0
36.169 19.6025 0
40.1402 20.355 0
36.352 23.591 0
26.6373 33.6389 0
24.4508 35.6309 0
24.5716 32.224 0
22.581 39.1991 0
28.8475 32.4814 0
28.7268 35.8887 0
28.7436 38.8117 0
51.854 33.1891 0
54.2476 32.3298 0
53.2797 35.2951 0
56.4091 30.3248 0
49.6633 31.6569 0
50.9208 25.5059 0
53.815 27.1975 0
49.9277 28.5322 0
6.55721 37.3664 0
6.98752 39.3216 0
5.22802 38.926 0
9.6224 39.4397 0
8.29329 40.9991 0
4.38739 40.062 0
4.79781 36.9707 0
5.75482 35.9296 0
7.54975 36.3606 0
10.8401 36.247 0
10.0018 37.5064 0
9.15491 36.5026 0
11.3076 39.1836 0
8.38814 35.1008 0
11.1425 35.0692 0
11.9894 36.0728 0
11.6728 30.4799 0
10.1889 30.2284 0
11.0167 29.6558 0
12.4231 26.8577 0
10.3961 28.8044 0
10.8362 31.0594 0
89.8111 30.2283 0
88.1189 30.6401 0
88.7751 29.8161 0
89.3956 28.9647 0
86.9292 27.289 0
89.1639 31.0593 0
85.8835 33.2804 0
87.2451 33.1916 0
86.8068 34.6723 0
87.4105 31.8375 0
88.334 33.2287 0
88.1462 35.919 0
86.7842 36.0084 0
84.3872 33.0755 0
84.826 31.5947 0
86.7764 39.683 0
86.7582 41.7292 0
85.0422 40.4057 0
88.8186 43.0021 0
87.0844 43.7249 0
83.3028 40.9588 0
83.321 38.9127 0
86.5919 37.8077 0
88.308 39.1307 0
79.493 34.7304 0
78.6845 32.7801 0
80.8649 33.314 0
76.6372 31.5135 0
78.0093 30.0973 0
81.6932 31.3768 0
82.5016 33.3268 0
81.6276 37.3649 0
80.2244 36.4539 0
14.1236 37.1121 0
12.9217 37.9915 0
12.889 36.3714 0
12.5423 39.9246 0
13.1915 35.1937 0
15.3297 35.8262 0
15.3625 37.4463 0
12.8713 33.1843 0
12.6764 32.2772 0
13.697 32.1158 0
11.6757 32.61 0
12.5014 31.542 0
14.5019 30.8751 0
14.6974 31.7824 0
13.0921 33.9593 0
12.0711 34.1201 0
16.8152 31.6309 0
18.1593 31.6804 0
17.3819 33.12 0
19.0415 29.4627 0
19.6085 30.9518 0
17.6474 34.665 0
16.3031 34.6153 0
15.7701 31.8059 0
16.5473 30.3664 0
13.7927 29.8323 0
12.6733 30.1459 0
12.9642 28.7697 0
13.5427 26.5438 0
14.7931 29.4986 0
16.0019 29.0195 0
17.0469 28.8443 0
18.496 28.1156 0
17.4188 24.9644 0
86.3079 29.1259 0
87.0301 30.6018 0
85.5995 30.3237 0
84.1033 30.1185 0
85.4983 27.0103 0
82.4845 29.412 0
80.8478 29.3991 0
80.6976 25.0782 0
78.8006 28.1324 0
80.1784 38.5548 0
79.8435 40.3551 0
78.4403 39.4442 0
76.6432 39.6701 0
76.2275 42.0601 0
76.9782 37.8696 0
15.6089 39.2373 0
15.8323 41.1864 0
14.3798 40.6812 0
17.5297 41.6351 0
16.3007 43.0793 0
12.7658 41.8738 0
16.8148 37.9512 0
19.5446 38.7291 0
18.3977 40.1436 0
18.2082 38.3278 0
18.8661 42.0365 0
17.9617 36.5368 0
20.8702 35.5647 0
20.968 38.0561 0
20.6896 41.995 0
21.1576 39.8721 0
24.5488 38.1226 0
22.4832 36.7075 0
19.8216 43.4866 0
22.1131 41.3221 0
24.1513 41.2648 0
23.6834 43.3879 0
79.6583 42.6831 0
79.3472 44.8024 0
77.7943 43.364 0
80.7337 46.6019 0
78.8698 47.283 0
75.9164 44.1795 0
81.3964 41.7935 0
90.3599 39.9275 0
92.7896 40.7442 0
90.9223 41.8232 0
94.5554 39.0454 0
95.1179 40.9415 0
91.2484 43.8192 0
90.1754 38.0518 0
93.255 36.473 0
93.7148 37.9096 0
91.7675 37.412 0
95.2023 36.9708 0
89.7157 36.6157 0
92.2623 35.4672 0
94.2453 35.9297 0
89.5684 33.9157 0
91.1377 34.6118 0
89.7383 35.2791 0
93.2169 34.9588 0
92.1225 34.0634 0
93.7846 45.0076 0
96.2798 43.5103 0
96.7123 45.8779 0
90.9673 33.2477 0
89.7575 32.5167 0
97.1105 48.6691 0
91.681 46.1864 0
10.4413 33.2964 0
10.9217 34.2939 0
9.51275 34.2456 0
6.78309 34.9588 0
7.87755 34.0633 0
5.71432 43.3544 0
3.2814 45.1041 0
3.22546 42.6308 0
2.88317 47.8953 0
9.03265 33.2477 0
10.2426 32.5167 0
8.34921 43.472 0
66.0104 60.0038 0
65.1521 61.297 0
64.3472 59.9592 0
65.8883 62.2462 0
60.1422 52.3448 0
60.0846 51.7999 0
63.7301 58.9286 0
67.0543 58.6626 0
67.8592 60.0004 0
68.5324 62.0717 0
68.8598 64.1782 0
67.1428 63.4481 0
70.3033 65.1449 0
60.0418 51.2535 0
60.0211 50.8754 0
69.5763 60.7305 0
77.003 64.5784 0
77.2383 67.2018 0
74.7901 66.7144 0
79.7293 67.5163 0
60.0075 50.497 0
60.0022 50.2354 0
72.4559 65.7894 0
76.7398 62.0829 0
79.1881 62.5704 0
82.0053 64.2331 0
84.8714 66.3423 0
82.3174 67.1749 0
87.2831 65.3428 0
94.1483 64.1063 0
92.1816 65.8315 0
81.7422 61.7377 0
91.3064 59.223 0
93.724 60.8293 0
91.7308 62.4998 0
95.3129 58.758 0
90.0067 67.2853 0
87.6605 68.4428 0
89.6599 64.0893 0
89.2931 58.0175 0
91.2863 56.347 0
93.7594 55.0248 0
96.7712 53.8184 0
96.3115 56.3462 0
97.1115 51.2303 0
85.1834 69.2842 0
82.6177 69.7952 0
91.7461 53.8194 0
6.16147 54.3663 0
3.49309 56.2369 0
3.345 53.2691 0
4.49174 58.6488 0
5.85173 64.1063 0
4.12706 62.1391 0
3.00473 50.681 0
8.89976 52.2419 0
9.04778 55.2094 0
8.53412 58.8537 0
8.30516 62.2398 0
6.08062 60.7201 0
10.376 63.8293 0
2.67397 59.9638 0
1.5172 57.6172 0
11.2724 56.7291 0
17.1089 64.0214 0
17.0371 67.0849 0
14.8882 66.2206 0
19.6252 67.4263 0
0.67667 55.1399 0
0.166725 52.574 0
12.4766 65.2211 0
17.1067 61.5308 0
19.2556 62.3951 0
29.3883 63.833 0
31.6481 64.1546 0
30.27 65.2331 0
32.9025 62.9527 0
35.0386 63.1509 0
33.8365 64.4074 0
28.8265 66.1998 0
27.1938 63.6232 0
28.5719 62.5447 0
34.1309 59.7086 0
35.697 60.0154 0
34.945 60.9457 0
36.3141 58.9848 0
32.5298 65.5547 0
31.1284 66.5842 0
34.2088 61.8949 0
32.7773 59.4051 0
33.5293 58.4748 0
29.6429 67.4881 0
37.1368 58.2218 0
37.4888 57.4698 0
37.7773 56.6913 0
35.7804 56.0386 0
27.367 68.5601 0
83.5593 35.0127 0
85.2528 36.5603 0
83.3669 36.8121 0
91.8066 51.1748 0
91.8056 48.6139 0
94.2181 49.9361 0
89.2694 47.4253 0
89.3335 52.4972 0
15.0645 34.2814 0
13.9915 34.2576 0
14.9649 33.0468 0
8.37138 49.185 0
5.89184 48.6131 0
8.24985 46.3996 0
10.8288 44.0441 0
11.2578 50.0282 0
15.2925 27.9767 0
14.7516 26.0642 0
83.2582 28.141 0
83.8792 26.3036 0
67.7071 57.2276 0
65.8583 57.231 0
64.183 57.072 0
64.8358 55.637 0
73.9755 61.884 0
72.4021 63.4464 0
71.8228 61.2394 0
71.1496 59.1681 0
76.1606 59.876 0
86.9098 59.3019 0
86.9363 62.147 0
84.5329 60.5554 0
81.7156 58.8927 0
86.8897 56.426 0
15.3059 60.2155 0
12.8593 61.7652 0
13.2052 58.8237 0
13.719 55.1796 0
17.4527 58.5893 0
31.4962 60.3225 0
32.0727 61.6967 0
30.1899 61.3803 0
27.9954 61.1706 0
30.8945 59.0887 0
35.3064 57.0892 0
35.7056 58.0153 0
34.4838 57.8523 0
33.1301 57.5488 0
34.5585 55.8756 0
78.0438 35.9202 0
76.2468 36.1459 0
84.7963 49.6428 0
87.1403 48.4569 0
87.0501 51.0386 0
87.0156 46.0297 0
86.9896 53.683 0
82.4812 50.6535 0
82.5713 48.0719 0
19.0406 35.0414 0
20.5556 33.6927 0
68.9914 57.151 0
67.7954 55.7195 0
67.1451 54.7878 0
68.4294 54.7112 0
73.8555 56.1556 0
74.5913 57.83 0
72.6604 58.0027 0
77.3557 58.029 0
70.4138 57.4937 0
72.6577 54.7771 0
74.5886 54.6044 0
82.44 53.3528 0
84.6063 54.9674 0
82.3402 56.0957 0
79.5494 57.278 0
80.2151 51.7817 0
18.6284 53.5819 0
17.8283 56.2451 0
16.4518 54.6108 0
19.6292 57.5603 0
14.519 52.5164 0
19.2867 51.471 0
20.6632 53.1051 0
24.5627 58.2999 0
24.5016 60.3316 0
22.9527 59.5359 0
26.2445 60.7153 0
24.6346 61.9513 0
21.0726 60.7361 0
21.1336 58.7044 0
24.6312 56.5514 0
26.1801 57.347 0
32.0442 56.8917 0
32.9987 56.2692 0
33.4727 55.2186 0
31.9501 54.209 0
84.9552 44.7564 0
83.0488 45.5913 0
83.1176 43.2867 0
71.0769 54.9223 0
70.5022 55.9856 0
69.6544 54.5796 0
69.0041 53.6479 0
71.81 53.3711 0
78.541 53.2959 0
77.9801 55.232 0
76.3472 54.0469 0
75.1494 52.6683 0
78.5821 50.5967 0
23.2931 55.5739 0
21.5093 56.3602 0
21.7886 54.4298 0
22.447 52.3189 0
24.9105 54.621 0
78.4437 48.9092 0
77.0572 47.1096 0
75.8852 46.1788 0
75.4591 47.8051 0
22.4162 45.3972 0
21.3201 47.4134 0
20.549 45.4613 0
22.2545 49.1718 0
20.3872 49.2358 0
18.7255 45.5027 0
24.4545 45.34 0
72.2752 52.0262 0
70.6944 52.1714 0
69.6005 51.0608 0
71.5611 49.5845 0
75.4261 49.4319 0
76.7696 50.4233 0
75.5645 51.1195 0
73.8059 51.6769 0
74.2541 48.5012 0
25.4606 51.3064 0
25.093 52.8662 0
23.9399 52.0838 0
26.4312 53.8437 0
22.8145 50.7591 0
25.4298 49.4448 0
26.583 50.2272 0
27.7125 54.7547 0
27.895 52.9999 0
29.504 52.0992 0
30.5819 53.3585 0
23.7474 48.9367 0
24.8698 47.8575 0
72.6903 50.4773 0
73.0918 49.2353 0
27.6462 58.0809 0
29.3971 58.5362 0
27.8625 59.5509 0
30.6782 57.6187 0
27.7147 56.3323 0
30.5446 54.7616 0
30.5468 56.3392 0
29.1786 55.4886 0
23.262 63.501 0
21.445 65.16 0
21.0747 63.2266 0
21.8124 67.7006 0
25.0048 63.8846 0
26.4923 67.1247 0
24.3034 67.3861 0
25.8212 65.1729 0
24.9746 69.338 0
22.5034 69.8094 0
14.9582 45.1152 0
13.0213 47.2858 0
12.6663 44.8009 0
13.5496 50.3424 0
16.6556 45.564 0
18.3523 49.7125 0
16.2825 49.7738 0
17.383 47.5388 0
58.4057 8.43097 0
60.0126 10.3462 0
79.5551 20.3976 0
77.063 20.5999 0
69.2654 14.1209 0
67.6136 15.9963 0
37.1758 13.527 0
34.8289 12.6667 0
72.2332 44.7441 0
70.4034 43.0408 0
36.6897 22.2646 0
37.288 24.6914 0
46.0442 8.42133 0
45.1546 10.7577 0
1.8645 10.446 0
4.0679 9.2644 0
16.1454 4.02031 0
14.3652 2.26673 0
37.7939 13.5993 0
37.7626 11.0997 0
72.2563 1.28339 0
69.7922 1.70298 0
65.3905 25.2599 0
65.8476 22.8026 0
17.0815 0.164098 0
19.1005 1.63683 0
30.7859 0.537989 0
29.036 2.32371 0
20.1371 29.1451 0
18.0125 27.8283 0
87.2349 23.0113 0
89.71 23.3675 0
80.4521 11.9675 0
79.0395 9.90529 0
53.5 14.5668 0
52.9735 17.0107 0
79.8904 20.806 0
77.3904 20.7616 0
95.4201 2.47592 0
96.8217 4.54575 0
40.3997 38.631 0
38.1915 39.8029 0
34.3514 27.2793 0
35.0137 29.6893 0
88.402 30.6424 0
87.7739 28.2248 0
42.4351 32.1541 0
44.3169 30.5085 0
26.0565 13.0098 0
26.8937 10.6545 0
40.5461 37.7059 0
42.7775 36.579 0
65.93 38.8809 0
67.4562 40.8608 0
21.6446 36.7519 0
24.1365 36.9525 0
87.3003 18.097 0
88.921 16.195 0
31.2933 10.1258 0
28.8584 10.693 0
60.2809 8.48649 0
61.5865 10.6186 0
62.4252 9.5561 0
60.9687 7.52406 0
18.7615 7.03628 0
18.1805 9.46631 0
63.05 44.04 0
62.3531 46.4407 0
84.3088 25.9926 0
83.6269 28.3961 0
47.3516 44.4808 0
49.2157 42.8151 0
30.7359 4.94775 0
33.1073 5.73814 0
37.2033 2.48614 0
36.9183 0.00256615 0
39.5346 0.735236 0
37.861 2.59254 0
66.8731 34.7313 0
64.6129 35.7987 0
25.2157 21.5059 0
23.6424 23.4483 0
89.2522 30.3647 0
86.9888 29.3019 0
74.2987 10.1871 0
76.6748 9.41164 0
80.3579 12.9013 0
81.7607 14.97 0
81.1071 17.0594 0
80.1989 19.3869 0
78.422 10.8459 0
79.7658 12.9535 0
67.6922 27.6811 0
65.1948 27.5735 0
62.4483 25.0955 0
60.0167 24.5157 0
61.7383 24.9207 0
62.5093 27.2987 0
69.5361 33.0791 0
67.0486 32.8315 0
82.5823 12.5858 0
85.0211 13.1393 0
51.4603 18.3704 0
53.5429 19.753 0
67.0064 16.1746 0
65.1793 14.468 0
20.0036 22.5571 0
20.4607 20.1005 0
53.068 24.2652 0
52.9596 21.7676 0
62.0925 34.158 0
64.0582 35.7025 0
67.9684 28.4446 0
69.9354 26.9026 0
27.334 19.5414 0
25.4075 17.9494 0
43.387 4.17837 0
43.9222 1.73638 0
90.2108 10.3342 0
88.4153 8.59484 0
67.9799 37.0053 0
68.6648 34.6016 0
9.54018 8.23683 0
11.9934 7.75323 0
49.9623 6.78058 0
52.3373 7.56125 0
81.1688 29.3786 0
83.1093 27.8035 0
43.1315 20.2203 0
45.5272 20.9332 0
73.0441 25.7336 0
75.2678 24.592 0
59.3216 18.7701 0
57.0739 19.8635 0
94.813 14.9511 0
92.3948 14.3153 0
8.75145 19.5625 0
11.2091 19.1012 0
17.4372 22.9055 0
15.7831 21.0323 0
16.9268 36.6962 0
18.1276 34.5043 0
59.7884 42.1977 0
57.5936 43.3942 0
84.6219 20.542 0
84.675 23.0397 0
9.90417 20.1863 0
7.80251 21.5409 0
16.8094 30.2339 0
15.1823 32.1308 0
46.6548 3.65391 0
48.1064 5.68927 0
57.791 40.6101 0
55.7503 42.0538 0
67.5349 37.2983 0
69.6066 38.6975 0
68.3683 7.72354 0
70.2513 6.08014 0
24.789 8.67299 0
27.2133 9.28118 0
16.1186 15.6255 0
15.2134 17.9547 0
96.9651 4.66485 0
94.4953 5.05312 0
25.2034 34.0848 0
26.0189 31.7222 0
16.8077 15.8286 0
17.9281 18.0618 0
86.8914 15.7869 0
88.5928 13.9565 0
26.9583 36.6603 0
28.2377 38.8072 0
45.0518 37.3279 0
42.7543 38.3128 0
25.9582 33.9357 0
28.4364 33.6067 0
70.5717 16.1616 0
72.5433 17.6991 0
49.8254 47.9353 0
50.9706 45.7131 0
82.777 18.5016 0
81.0975 16.6501 0
12.4219 5.63481 0
9.99818 5.02207 0
18.3027 2.68467 0
20.5316 1.55159 0
98.8835 4.28572 0
97.6846 6.47857 0
80.3143 37.6808 0
80.9131 35.2549 0
48.5375 3.85058 0
48.4455 1.35236 0
46.0854 5.51514 0
43.9286 6.77946 0
61.1201 38.3147 0
59.0301 39.686 0
81.2102 11.2137 0
81.791 8.78425 0
79.356 30.6853 0
77.0272 31.5935 0
52.3974 8.37288 0
50.9318 6.34755 0
25.867 30.2109 0
23.7319 28.9113 0
94.553 17.5278 0
96.8296 16.4952 0
29.5442 32.3585 0
31.8543 33.3131 0
65.8248 4.60919 0
65.8111 7.10907 0
53.2543 2.15277 0
51.4506 3.88394 0
14.5804 9.13134 0
15.1108 6.68983 0
7.22601 18.936 0
5.03512 17.7326 0
61.2246 40.6006 0
59.9033 42.7226 0
74.2211 7.43822 0
73.8034 4.97367 0
23.5463 30.5297 0
23.7873 28.0423 0
78.8106 6.9992 0
76.653 5.73489 0
79.0533 11.419 0
81.1665 12.7557 0
7.6449 2.54498 0
5.14578 2.61555 0
76.4715 16.1366 0
74.4896 14.6123 0
47.9007 9.58916 0
49.6882 11.3368 0
80.0425 2.0643 0
82.4991 1.60073 0
29.1445 30.1823 0
27.1888 28.6261 0
70.9998 16.5665 0
71.5502 14.129 0
4.54035 13.6223 0
6.49684 12.0657 0
40.575 0.436008 0
39.5311 2.70757 0
60.4221 12.6105 0
59.8528 15.0446 0
41.2128 3.78041 0
39.1729 5.22583 0
33.6266 29.6951 0
36.1193 29.8824 0
33.1675 21.1901 0
32.95 18.7001 0
79.6159 15.7002 0
80.1732 18.136 0
72.6873 34.9589 0
70.5529 33.6573 0
56.7323 8.51098 0
54.3231 7.84337 0
44.534 9.14072 0
43.2008 11.2556 0
82.5804 16.6567 0
83.6872 14.4168 0
11.589 0.314009 0
10.7007 2.64997 0
78.0355 16.2916 0
80.0662 17.7502 0
59.4216 3.2395 0
60.7503 5.35719 0
72.2689 1.41112 0
72.1925 3.90975 0
66.8021 2.88223 0
68.0721 0.728323 0
13.3392 3.78914 0
15.1556 2.07176 0
72.0008 26.7658 0
74.4586 27.2232 0
16.8329 17.6268 0
15.4215 19.6895 0
72.2317 38.5731 0
72.161 36.0748 0
43.4696 21.0071 0
41.2035 22.0623 0
57.2711 19.4766 0
57.5378 21.9622 0
64.7066 29.0213 0
67.1915 28.7496 0
24.6246 32.1203 0
27.031 31.4431 0
50.117 29.0174 0
49.1068 31.304 0
59.8208 37.4197 0
58.5557 35.2635 0
22.4137 29.2819 0
24.8298 28.64 0
39.6845 36.1348 0
37.2325 36.6213 0
5.92196 10.1013 0
3.8951 11.565 0
54.8103 21.0114 0
56.8458 22.4625 0
68.539 19.8455 0
68.8462 17.3651 0
42.0087 42.9226 0
42.7758 45.3018 0
19.0578 24.7374 0
16.9079 26.0131 0
69.26 4.32884 0
66.9102 3.47503 0
18.7236 12.9335 0
19.4267 10.5357 0
97.8411 0.550115 0
97.0185 2.9097 0
21.3144 0.625526 0
21.7787 3.07887 0
13.4505 6.01038 0
14.5855 8.23615 0
94.8055 5.82623 0
95.3397 3.38519 0
58.6807 11.8247 0
59.4844 14.1921 0
26.7188 40.1818 0
25.2267 42.1874 0
62.4468 18.9553 0
64.555 17.6127 0
9.53803 7.78168 0
11.949 7.11906 0
44.2727 18.3039 0
41.8829 19.037 0
89.0117 10.8724 0
91.4715 10.4239 0
65.5048 41.8427 0
63.0802 41.2336 0
51.2722 34.6206 0
53.686 33.971 0
12.7584 8.62576 0
14.7447 10.1428 0
75.0783 18.5958 0
72.5848 18.4136 0
69.1957 26.6266 0
69.6497 29.0845 0
19.5677 11.9039 0
21.8224 12.9831 0
36.8815 40.2628 0
34.4729 39.5939 0
29.2856 28.4848 0
30.9036 30.3896 0
12.3773 19.6933 0
13.5795 17.5022 0
42.0313 43.3673 0
39.6376 44.0883 0
34.22 5.32958 0
33.7203 7.77918 0
94.9449 17.1193 0
93.8566 14.8691 0
53.7825 26.4884 0
54.3628 28.92 0
68.3131 36.5188 0
67.535 38.894 0
71.2663 37.2374 0
69.322 38.808 0
30.445 15.721 0
32.6015 16.9843 0
62.757 8.25231 0
65.2424 8.52086 0
52.3975 17.5336 0
51.1271 19.6866 0
68.843 3.79786 0
68.9156 6.29679 0
23.9993 7.84523 0
26.033 9.29688 0
31.7528 14.8334 0
33.4687 16.6505 0
72.4569 6.14409 0
74.7309 5.10928 0
47.2196 15.4492 0
45.6754 17.4152 0
36.6546 42.0457 0
38.6859 40.5886 0
22.8018 10.5457 0
24.4436 8.65991 0
22.9478 37.9649 0
25.3272 37.1974 0
79.5753 20.6398 0
81.8265 21.7277 0
80.4563 16.2359 0
78.1827 15.1949 0
68.2028 34.4192 0
68.4465 36.9068 0
32.7529 27.1533 0
34.9846 28.2788 0
49.0974 3.80236 0
47.458 5.68976 0
34.1706 40.8382 0
32.8119 42.9365 0
47.6774 12.7847 0
48.1984 15.2298 0
50.259 19.002 0
51.6333 16.9138 0
33.8034 30.8342 0
34.4888 28.4304 0
2.37453 13.8545 0
4.85848 14.1387 0
40.0765 40.4414 0
40.8232 42.827 0
10.1321 16.2333 0
9.51274 18.6542 0
32.9104 16.275 0
31.8649 18.5458 0
43.2644 1.14997 0
45.6803 0.505736 0
37.1093 37.0425 0
39.3521 35.9384 0
81.2598 10.1706 0
81.7522 7.72177 0
30.4528 3.79657 0
28.2962 5.06175 0
49.4071 1.55996 0
47.611 3.29906 0
60.7881 31.4526 0
62.5643 33.2117 0
26.1534 37.4591 0
24.4748 35.6076 0
33.9336 3.37805 0
36.4216 3.62177 0
46.8623 29.2705 0
45.8381 31.5509 0
19.4573 36.3799 0
21.1854 38.1852 0
56.1296 28.4661 0
58.6289 28.5 0
92.8104 9.50042 0
95.2258 10.1466 0
22.0492 29.211 0
24.5214 29.5814 0
48.2764 17.9056 0
50.7293 18.3865 0
28.779 21.8472 0
27.7268 19.5805 0
88.6599 18.1188 0
91.0134 18.9639 0
85.3207 15.6094 0
82.8245 15.7576 0
59.5481 45.4115 0
60.8289 47.5584 0
89.5217 2.53456 0
89.727 5.02487 0
95.442 9.82869 0
93.3499 8.4597 0
64.4712 41.66 0
62.9824 43.6679 0
56.0279 26.256 0
58.3517 25.3355 0
71.0079 2.02869 0
71.0259 4.52854 0
51.4202 12.009 0
50.5042 9.68284 0
58.3458 28.0315 0
57.6706 25.6245 0
9.34078 7.88557 0
7.7945 5.92237 0
51.6919 13.6177 0
49.2097 13.3224 0
49.7134 24.5531 0
50.1429 27.0159 0
72.6318 28.5724 0
70.2283 27.8849 0
81.315 36.5444 0
79.0004 37.4884 0
80.7811 18.4054 0
81.4373 20.8165 0
63.0493 6.4888 0
60.7605 5.48289 0
49.6091 11.9857 0
47.1152 11.8145 0
44.4662 28.6906 0
42.0091 29.1495 0
88.6258 7.8507 0
88.0968 10.2925 0
72.3152 6.50273 0
71.0282 8.64467 0
87.6876 13.9872 0
88.6346 16.2998 0
36.5519 41.0801 0
38.2755 42.8906 0
62.5491 3.78623 0
63.7178 1.5763 0
39.9368 15.2836 0
40.0845 12.788 0
19.3794 6.49654 0
21.5207 5.20488 0
36.3585 46.0553 0
38.7232 46.8663 0
34.5537 31.5244 0
32.3199 32.6467 0
58.9264 19.7351 0
60.7203 21.4762 0
78.2705 16.3191 0
75.8464 15.7053 0
15.8293 29.1012 0
17.1943 27.0081 0
80.5517 1.67959 0
78.151 2.37534 0
37.6348 41.8832 0
35.1521 42.1767 0
84.0877 21.5239 0
84.5832 23.9728 0
86.5574 7.36551 0
86.2148 4.89067 0
44.7646 6.20953 0
46.5615 7.94764 0
84.1706 19.8636 0
84.0425 22.3586 0
71.9836 17.7143 0
74.4663 17.4207 0
77.1465 25.1631 0
76.5335 22.7405 0
97.1338 15.3236 0
94.6705 14.8947 0
38.3247 23.7926 0
40.4118 22.4167 0
40.9272 1.92255 0
39.8589 4.18279 0
60.1897 22.6908 0
57.8536 21.8012 0
23.1359 1.00588 0
24.5983 3.03065 0
71.9355 32.4007 0
69.4686 32.8048 0
44.1992 38.3983 0
42.2524 39.9665 0
34.144 4.53181 0
35.5917 6.56964 0
19.9406 15.6888 0
21.6862 17.477 0
1.50854 8.38461 0
3.19805 10.2266 0
85.629 25.1318 0
87.7437 23.7992 0
82.6918 14.9653 0
80.2658 14.3588 0
60.7586 3.42761 0
60.1652 5.85606 0
17.2691 24.4263 0
15.783 22.4174 0
51.8071 39.0828 0
50.5941 36.8969 0
59.7322 47.0494 0
62.0359 46.0786 0
81.7084 19.3273 0
82.007 21.8079 0
60.0713 15.2838 0
57.659 14.6282 0
21.572 24.6333 0
21.4612 27.1296 0
50.5589 36.8633 0
51.5037 34.5489 0
68.8564 24.3029 0
66.7906 22.8949 0
85.4429 32.2187 0
83.0935 33.0716 0
10.0341 12.7763 0
7.97231 14.1906 0
90.669 3.19862 0
88.5741 1.83422 0
85.5516 8.50849 0
87.7064 7.24156 0
32.9503 40.6559 0
33.1188 43.1498 0
16.5748 0.849874 0
18.9363 1.66935 0
80.4485 27.708 0
82.388 26.1315 0
21.4031 11.149 0
19.7253 9.29751 0
93.5173 17.1715 0
91.2205 16.183 0
19.3828 35.8682 0
19.2343 33.3739 0
17.9586 35.4981 0
20.2074 34.4057 0
76.6414 12.2058 0
75.0762 14.1533 0
20.8942 4.78831 0
18.5534 3.91165 0
26.302 34.0033 0
24.1444 32.7416 0
55.3272 7.2397 0
57.4744 5.9595 0
69.3394 3.98476 0
70.4304 6.23443 0
22.3954 17.1819 0
21.7047 14.781 0
89.4831 6.18013 0
86.9828 6.16717 0
60.1534 4.41722 0
57.6653 4.17306 0
86.673 11.4052 0
84.27 10.7132 0
80.9455 22.6937 0
82.1161 20.4863 0
69.8016 32.6668 0
69.0027 30.2983 0
42.4529 49.1328 0
40.5283 47.5372 0
30.6268 29.5754 0
31.5532 31.8966 0
19.9203 37.7094 0
20.2222 35.2287 0
64.2196 5.78948 0
62.4896 7.5938 0
91.4301 1.9816 0
90.9676 4.43713 0
85.7535 10.1894 0
87.232 12.2047 0
16.1131 1.2844 0
14.0764 2.7339 0
71.9649 36.8143 0
74.3898 36.2071 0
14.8959 16.3531 0
17.3182 16.9728 0
85.8908 31.0438 0
87.5764 32.8885 0
8.1169 22.1421 0
10.6144 22.0205 0
49.9333 35.7662 0
52.4259 35.5796 0
9.11299 20.6283 0
10.8356 18.8165 0
62.5465 32.124 0
60.2767 33.1707 0
37.5389 6.9607 0
39.0309 4.95468 0
9.77717 9.24207 0
11.9529 8.01019 0
60.1602 26.1452 0
57.662 26.2307 0
32.8265 17.3383 0
33.7723 19.6517 0
92.6062 11.5194 0
92.9358 13.9965 0
50.0439 4.57121 0
52.1266 5.95425 0
21.7569 11.9304 0
23.2192 13.9563 0
16.4482 4.9443 0
18.7623 3.99768 0
38.9355 33.9401 0
41.0724 32.6429 0
2.06111 5.00409 0
2.96299 2.67311 0
17.42 17.2137 0
16.391 19.4911 0
81.4748 37.7524 0
82.5019 35.4746 0
72.9231 12.668 0
74.7551 10.9687 0
66.3244 41.6227 0
63.9319 42.3475 0
63.7607 26.6039 0
65.7482 25.0884 0
49.8633 6.22209 0
48.3247 8.19258 0
60.1866 40.8897 0
62.4085 42.0352 0
23.3785 10.9729 0
24.479 13.2158 0
60.0981 31.3918 0
61.0442 33.7056 0
85.065 22.529 0
87.5644 22.4524 0
74.5969 19.9336 0
72.1704 19.3308 0
56.0534 12.5334 0
58.4974 13.0587 0
61.6779 4.38005 0
60.6274 2.11146 0
60.7171 47.658 0
58.219 47.754 0
50.647 16.9578 0
50.9637 19.4376 0
26.1225 33.3646 0
27.1111 31.0689 0
43.6883 22.7409 0
41.6339 21.317 0
70.2653 18.6779 0
72.7387 19.0425 0
72.5313 1.63052 0
72.7205 4.12328 0
33.3985 17.1897 0
35.0342 19.0793 0
55.2405 3.6588 0
57.6835 4.1903 0
62.7492 27.1167 0
60.2497 27.1417 0
59.574 35.6451 0
59.7204 33.1497 0
41.7287 31.4809 0
39.3453 32.2345 0
65.7236 33.9808 0
63.7005 32.5123 0
41.2692 36.3043 0
39.9661 38.4377 0
73.2561 29.8812 0
72.8226 32.3424 0
50.7636 40.3036 0
51.8572 42.5515 0
59.8242 10.1847 0
58.3233 8.18523 0
82.571 20.0838 0
84.8673 19.0954 0
66.2373 0.830145 0
68.7262 0.588409 0
72.7979 32.7878 0
74.6754 31.1381 0
66.5404 33.6728 0
65.2617 35.8203 0
67.8037 46.4026 0
68.5305 44.0111 0
63.7422 23.1416 0
64.8403 20.8963 0
80.4368 11.3447 0
82.0439 13.2594 0
30.976 20.5691 0
30.0274 18.257 0
25.2877 20.7939 0
26.8589 22.7372 0
53.9914 28.8314 0
56.4777 28.5745 0
85.7493 28.4287 0
85.2171 25.9879 0
37.915 1.93214 0
40.3933 2.26331 0
42.0918 29.6734 0
43.0774 27.376 0
19.9381 35.5166 0
22.4251 35.7703 0
84.4639 11.5829 0
86.9638 11.5211 0
30.5411 1.37764 0
33.0081 0.970828 0
61.9983 42.6032 0
59.8339 41.3522 0
40.0175 13.5796 0
38.0212 15.0845 0
71.9356 29.285 0
70.0892 27.5998 0
60.374 30.4183 0
59.6122 28.0374 0
6.61482 10.6975 0
5.74497 13.0405 0
33.6163 6.94898 0
32.0037 5.03929 0
57.3017 24.8862 0
59.739 24.3319 0
61.7622 28.1768 0
59.2746 28.4216 0
12.9906 2.04377 0
15.1469 3.30769 0
72.4147 5.06151 0
69.9257 4.82856 0
30.5109 6.3421 0
28.1124 7.04779 0
80.7917 3.76645 0
78.2942 3.88645 0
54.3883 36.1116 0
52.3757 37.5941 0
30.575 14.4015 0
32.9973 15.0182 0
80.5851 9.25386 0
82.8666 8.2323 0
11.972 31.7084 0
12.9671 29.4178 0
46.3794 5.49778 0
48.8283 6.001 0
2.75047 5.33753 0
5.24882 5.23903 0
10.2273 9.59442 0
11.2274 11.8841 0
4.35139 17.9097 0
6.60092 16.8182 0
29.3753 8.58023 0
26.876 8.52898 0
43.6971 2.17077 0
46.0026 3.13792 0
77.3505 2.85001 0
75.5818 4.61339 0
55.2197 26.914 0
57.4707 28.0009 0
24.7884 19.4507 0
26.9755 18.2391 0
12.7611 31.0305 0
14.0171 28.8709 0
13.7538 17.9395 0
15.6075 19.6157 0
31.5272 36.2059 0
33.6329 37.5526 0
85.118 19.0377 0
85.4433 16.5608 0
54.9632 42.5365 0
56.1401 40.331 0
56.8647 43.1917 0
54.3753 42.9638 0
69.3662 41.2686 0
68.4409 43.5905 0
81.6123 5.25567 0
81.1857 7.71653 0
67.3292 28.9024 0
69.4228 27.5371 0
23.3511 28.3971 0
20.8567 28.5634 0
76.5932 33.2492 0
74.7001 31.6166 0
40.4092 1.96578 0
41.9621 0.00648197 0
21.481 3.52323 0
19.279 2.3421 0
32.696 28.1728 0
34.5032 29.8993 0
39.7677 2.41165 0
37.9774 4.15678 0
68.588 6.38152 0
66.527 7.79555 0
7.19179 2.11631 0
8.72649 0.143092 0
59.0891 33.5829 0
57.1309 32.0291 0
22.6337 35.5616 0
24.1691 37.5334 0
76.7294 25.0646 0
76.1753 22.6279 0
8.88311 16.7819 0
9.72138 19.1357 0
27.0053 16.7896 0
28.4311 14.7361 0
31.9269 37.1359 0
32.7549 34.7773 0
22.1824 35.0758 0
19.9411 33.9697 0
73.343 37.2522 0
72.0199 35.1314 0
15.0371 2.09821 0
16.9743 0.5184 0
52.2307 12.3232 0
52.0972 9.82669 0
33.8177 8.88599 0
32.6843 6.65825 0
24.9648 41.9601 0
27.3533 41.221 0
57.5829 12.6882 0
59.8051 11.5437 0
84.2097 35.3172 0
82.4101 33.5823 0
40.397 47.3095 0
38.8831 45.3202 0
18.0715 12.2338 0
20.5252 12.7145 0
92.6895 8.19868 0
94.3725 6.35114 0
81.3904 33.1504 0
80.6771 30.7554 0
38.8193 14.9935 0
38.6818 17.4896 0
28.5687 11.6839 0
29.9524 13.7647 0
51.9123 39.6939 0
54.4032 39.9032 0
86.5758 28.1971 0
85.9041 25.7909 0
22.1588 2.37594 0
23.5592 4.44342 0
49.3552 3.35248 0
47.2373 2.0239 0
18.8455 19.8009 0
21.3244 20.1274 0
2.12426 9.05089 0
4.30535 7.82872 0
20.2602 3.63 0
18.8567 5.69799 0
62.9455 44.5886 0
65.1639 45.7414 0
34.4712 21.3438 0
36.5604 19.9707 0
94.5909 1.0366 0
93.9451 3.4505 0
49.7442 42.5675 0
49.3579 40.0976 0
58.6822 10.9634 0
56.3291 10.1194 0
36.6018 10.8663 0
34.3144 11.8754 0
56.828 44.0283 0
56.7524 46.5271 0
2.45866 12.6437 0
1.79809 10.2333 0
82.4201 4.99653 0
83.3133 2.66361 0
37.6734 47.4767 0
35.4147 46.4053 0
65.9853 39.701 0
68.3136 40.6117 0
24.6318 34.2345 0
27.1089 34.5709 0
68.4754 39.6119 0
70.8782 38.9221 0
13.7832 30.762 0
12.1722 28.8522 0
58.8656 44.5962 0
61.3002 45.164 0
24.3196 5.70534 0
24.1861 8.20066 0
81.1394 21.0138 0
78.7621 21.7875 0
29.8613 39.9035 0
29.5029 42.3772 0
23.6939 17.1524 0
21.4394 16.0729 0
2.75896 8.24929 0
4.98185 7.10483 0
48.0243 31.0212 0
49.9852 29.4709 0
87.0644 23.2427 0
84.6855 24.0118 0
34.6542 11.0673 0
32.3172 11.9554 0
47.5548 26.1965 0
46.0962 24.1665 0
67.4496 24.4492 0
65.4569 22.9397 0
58.2233 30.3188 0
56.8781 32.4255 0
32.3069 35.0618 0
34.6007 36.0552 0
57.4187 36.5264 0
56.0575 34.4296 0
26.6891 3.46499 0
28.808 2.13768 0
11.1625 26.7475 0
12.7012 24.7775 0
63.5263 33.2674 0
61.9275 35.1887 0
28.4757 11.5189 0
26.0279 12.0287 0
44.503 45.9659 0
42.004 46.033 0
30.8252 14.603 0
31.9529 16.8333 0
13.211 1.83521 0
15.3336 0.514451 0
76.1441 15.1133 0
73.8887 16.1905 0
12.6859 6.55729 0
13.3323 8.97056 0
35.4848 5.09282 0
36.3428 7.44076 0
54.0007 17.8638 0
51.5405 18.3058 0
31.307 8.62631 0
29.0039 7.65573 0
24.2815 6.7159 0
21.7893 6.91933 0
48.6133 3.8063 0
51.0484 4.37273 0
32.1462 13.9315 0
32.0837 11.4327 0
1.59607 3.47028 0
4.07521 3.79353 0
62.8188 44.479 0
60.5011 43.5418 0
42.6291 24.6348 0
40.135 24.4699 0
48.3438 30.9558 0
50.5239 32.1786 0
58.8869 35.5017 0
56.3967 35.7184 0
50.0158 46.7825 0
52.0712 45.3596 0
26.9466 5.80258 0
26.3115 8.22057 0
43.5081 36.2426 0
42.0874 34.1859 0
52.8806 28.1495 0
50.9822 29.7757 0
60.9599 40.1622 0
62.0946 42.3897 0
46.9301 23.85 0
45.6627 21.6953 0
19.2566 2.97481 0
18.5415 0.581779 0
48.2281 42.1023 0
49.1906 39.7952 0
47.8169 39.6913 0
45.3635 39.2127 0
73.2318 11.6521 0
72.6995 9.20985 0
52.5281 18.0287 0
50.7834 16.2384 0
25.0038 42.0113 0
27.4868 41.7186 0
51.9722 24.2887 0
50.5579 26.35 0
25.8205 30.5 0
28.2483 31.095 0
5.3799 8.03231 0
2.8998 7.71619 0
20.86 35.4321 0
18.7443 36.7641 0
31.8745 19.3432 0
34.1495 20.3783 0
30.0836 19.4233 0
27.7346 18.569 0
78.7422 17.6337 0
79.4814 20.0207 0
41.9065 32.3385 0
42.4527 29.8991 0
44.7874 12.7368 0
45.2486 10.2797 0
44.191 20.2748 0
46.0413 18.5939 0
36.1382 2.61675 0
35.7828 5.09126 0
94.4631 4.87689 0
95.2705 7.24224 0
41.9015 21.9828 0
40.3494 23.9426 0
57.7888 26.3578 0
55.7467 24.916 0
62.712 27.1475 0
65.1221 27.8112 0
8.56498 15.7034 0
8.48183 18.2007 0
70.8451 31.1254 0
68.4004 30.603 0
45.8781 35.8832 0
46.124 33.3955 0
87.0695 2.7576 0
88.7567 4.60201 0
22.5011 38.695 0
22.8752 41.1658 0
66.2481 43.3599 0
64.2179 41.9011 0
77.3548 12.0651 0
77.8919 14.5055 0
50.8449 47.203 0
49.1598 49.0497 0
14.903 13.4597 0
15.4104 11.0132 0
75.6325 19.0895 0
75.425 21.5796 0
59.0512 45.7918 0
61.1018 47.2219 0
83.7382 9.50443 0
86.1819 8.97571 0
6.97139 1.8073 0
4.47303 1.90063 0
80.7531 19.0876 0
82.5518 17.3527 0
13.6049 0.200188 0
11.1067 0.10583 0
14.8808 32.3235 0
17.2599 31.5564 0
14.2087 12.9135 0
15.5743 15.0058 0
66.6968 1.08821 0
64.235 1.52568 0
72.2797 24.6135 0
71.3232 26.9224 0
52.0215 31.6111 0
50.0646 30.0557 0
29.2979 29.3381 0
28.0299 27.1846 0
76.0822 25.5089 0
76.3154 23.021 0
88.1008 17.3178 0
90.3403 18.43 0
56.5918 9.22238 0
54.3024 10.2262 0
30.5946 42.5019 0
32.0831 44.51 0
49.5604 38.4325 0
50.1526 36.0038 0
33.5584 30.8064 0
35.7957 31.9208 0
51.2969 20.3578 0
50.1624 22.5854 0
48.0049 20.3633 0
46.7582 18.1966 0
56.3155 36.9171 0
54.2215 38.2822 0
27.9011 28.1728 0
28.4825 30.6034 0
32.5554 34.6494 0
33.191 37.0667 0
91.7283 14.7642 0
93.5616 16.464 0
6.70339 6.18531 0
6.38083 8.66343 0
30.576 35.9702 0
31.243 33.5613 0
65.2177 35.0747 0
64.2804 37.3918 0
70.8772 2.33831 0
72.4606 0.404658 0
72.2268 25.2141 0
72.7048 22.7612 0
12.9655 14.6924 0
14.9599 16.1989 0
48.3623 3.6221 0
50.7922 4.21069 0
17.3723 5.89709 0
17.5671 8.3873 0
6.49223 18.6421 0
4.00702 18.3695 0
31.8201 34.0765 0
32.0048 36.5691 0
59.3341 33.0492 0
59.036 35.5311 0
80.6038 24.5836 0
80.9907 27.0521 0
96.0263 18.446 0
96.4362 15.9807 0
81.6458 13.2387 0
84.1088 12.8074 0
31.396 34.6048 0
30.3148 32.3515 0
95.039 8.67567 0
94.1683 11.018 0
92.6658 17.9601 0
94.8803 16.8007 0
25.3069 38.0903 0
25.0125 35.6087 0
11.0998 27.3036 0
12.9011 29.0351 0
25.1859 17.2238 0
22.7268 17.6764 0
33.0311 22.4094 0
35.5235 22.5994 0
75.1176 23.2013 0
72.6181 23.2495 0
50.0609 27.7675 0
49.6795 30.2381 0
20.9727 18.7961 0
20.4576 21.2411 0
93.0563 7.24956 0
92.2329 9.60878 0
49.1247 48.3019 0
47.6812 46.2607 0
60.3075 39.2462 0
62.1885 37.6 0
68.5172 12.7559 0
66.4549 11.3424 0
74.7693 11.5971 0
72.6024 12.8421 0
59.6166 42.084 0
61.2506 43.976 0
83.0212 12.1023 0
83.6986 9.69792 0
12.3227 9.80656 0
11.2418 7.55391 0
46.2346 43.2213 0
44.2297 41.7283 0
78.0982 4.25029 0
75.6376 4.69059 0
79.2659 34.7948 0
79.731 32.3396 0
50.319 26.4861 0
47.8532 26.0768 0
15.897 15.0157 0
18.3681 14.6321 0
24.6626 1.90466 0
27.1512 2.13236 0
21.7795 5.9915 0
23.7355 4.43353 0
38.4264 26.9375 0
35.9807 27.4542 0
39.5907 38.1382 0
37.0952 37.9934 0
20.4213 23.3938 0
19.0279 21.3195 0
55.8236 8.84938 0
53.5458 9.87916 0
30.7844 38.9186 0
33.2317 38.4084 0
56.7859 41.9688 0
59.2578 41.5966 0
59.0639 12.568 0
61.5147 12.0765 0
84.7844 1.95808 0
82.4266 2.78826 0
54.6912 35.8963 0
52.9201 37.6604 0
27.8928 39.5536 0
30.3874 39.3884 0
56.9202 32.7779 0
56.6326 30.2947 0
77.6367 21.4024 0
75.7577 23.0503 0
36.6685 36.7365 0
36.0339 39.1543 0
70.689 32.5647 0
68.2206 32.959 0
48.9415 32.606 0
50.2826 30.4964 0
64.3972 19.5433 0
65.4062 21.8305 0
36.9037 30.7412 0
39.4029 30.7878 0
52.0988 3.21668 0
54.2072 4.5603 0
16.0891 27.084 0
13.887 25.9009 0
28.8125 37.851 0
26.3439 38.2463 0
66.3267 34.9919 0
64.7378 33.062 0
86.8383 13.8347 0
85.7554 16.0862 0
79.9175 37.646 0
77.6151 38.6196 0
1.10304 9.67405 0
2.78852 11.5198 0
22.3062 7.09323 0
19.8211 6.81839 0
27.99 24.3333 0
25.5157 23.977 0
48.7824 5.65144 0
46.413 4.85369 0
39.41 8.54722 0
37.1167 7.55236 0
13.1985 16.262 0
11.7705 14.2115 0
35.1853 38.0577 0
33.3718 39.7783 0
76.1427 8.09361 0
78.2065 6.68448 0
38.8854 44.0517 0
38.069 41.689 0
46.1921 9.68512 0
48.2301 8.23726 0
39.8871 31.1546 0
37.4624 31.7628 0
37.3068 29.3924 0
36.6403 31.8017 0
36.6956 27.1229 0
34.2191 27.4626 0
30.672 4.62863 0
33.0178 5.49186 0
71.8612 32.1169 0
74.0392 30.8907 0
24.1502 12.4948 0
26.5402 11.7596 0
33.2121 43.8769 0
35.498 42.8644 0
26.0595 22.6302 0
24.0375 24.1004 0
5.64275 2.57128 0
6.55739 0.245199 0
94.3714 5.91169 0
96.778 6.58983 0
53.4141 19.1389 0
51.7059 17.3137 0
53.8056 45.64 0
52.3228 47.6527 0
94.716 5.25331 0
93.3187 3.18067 0
30.2077 21.3209 0
27.7607 20.8099 0
57.494 2.34326 0
58.1101 4.76612 0
94.5918 11.5182 0
92.9522 9.63118 0
43.7253 7.41504 0
46.188 6.98476 0
49.3924 42.5772 0
47.4332 44.1299 0
42.411 27.5113 0
44.8256 26.8648 0
24.2225 22.7778 0
21.7512 22.399 0
70.0147 34.3597 0
70.1851 31.8662 0
18.3757 13.596 0
20.5908 14.7542 0
9.37406 28.8669 0
11.6612 27.8557 0
62.0497 24.7072 0
60.8167 22.5325 0
81.7599 25.3073 0
79.2605 25.2438 0
22.8014 29.4533 0
20.681 30.7773 0
14.1972 29.7914 0
14.3077 32.2871 0
12.6376 13.0766 0
13.662 15.3553 0
67.3935 22.9822 0
67.8395 20.523 0
79.3507 21.9906 0
81.7599 22.6598 0
15.2517 21.8136 0
14.1784 24.0703 0
21.241 13.679 0
18.8951 12.815 0
44.9041 45.2291 0
42.4069 45.1149 0
62.2477 38.2844 0
60.8304 36.2251 0
59.6116 47.4873 0
61.944 46.5875 0
39.9621 38.0105 0
42.4613 37.9613 0
55.7371 30.5022 0
53.3946 29.6298 0
67.6348 40.9902 0
65.1474 41.2395 0
71.0786 5.81568 0
73.5781 5.83257 0
80.9109 3.31339 0
80.842 0.816675 0
59.6906 7.30431 0
57.9516 9.10015 0
32.3482 19.7263 0
31.5433 22.093 0
43.9411 32.6967 0
44.0539 35.1939 0
97.788 14.1722 0
97.9369 11.6773 0
74.138 18.7264 0
72.1861 17.164 0
77.1052 31.7538 0
76.3899 34.1482 0
55.9603 48.8842 0
56.3217 46.4106 0
40.1934 1.43636 0
37.7769 2.07845 0
72.0695 20.2421 0
74.5438 19.8852 0
41.8314 44.9363 0
44.3119 45.2465 0
87.0849 2.76486 0
86.5101 5.1962 0
19.349 22.1157 0
18.9117 19.6559 0
17.5032 36.5199 0
16.2591 34.3531 0
26.0542 38.2699 0
24.1758 39.9197 0
61.6714 6.53967 0
59.6958 5.00747 0
39.7133 30.3308 0
40.0308 32.8103 0
63.2609 5.75565 0
60.7913 6.1441 0
60.5832 6.89461 0
61.427 4.54144 0
79.3391 37.1674 0
76.902 37.7243 0
46.8193 23.6459 0
47.7784 21.3373 0
81.9645 12.4418 0
79.4911 12.808 0
17.6892 13.0737 0
18.5012 15.4363 0
48.2072 40.8789 0
46.3929 42.5987 0
65.3977 20.0273 0
64.1667 17.8515 0
42.9189 40.2899 0
41.743 42.4961 0
54.5134 17.2178 0
53.4405 19.4757 0
22.8825 29.5998 0
25.2743 28.8725 0
23.2199 15.0739 0
20.7843 14.5093 0
92.3131 7.83067 0
90.7964 9.81678 0
32.116 32.3223 0
33.5813 30.297 0
68.7511 28.7953 0
68.985 31.2838 0
97.6645 2.4241 0
96.1712 4.42774 0
67.3833 15.2281 0
69.846 14.8002 0
78.3826 23.5336 0
78.8376 21.0768 0
37.5536 16.2703 0
35.1718 15.512 0
68.9223 9.52439 0
69.4701 7.08562 0
32.9171 20.4738 0
34.2655 18.3686 0
33.2511 31.8907 0
34.9014 30.013 0
87.912 26.1392 0
89.8896 27.6692 0
84.2888 23.8282 0
86.7096 24.4545 0
38.5078 11.4568 0
36.0768 12.0396 0
65.6977 40.6337 0
63.5287 39.3906 0
37.7237 1.82509 0
35.5438 3.04924 0
75.4899 40.2055 0
75.9098 42.6692 0
67.3298 2.41836 0
67.1241 4.90982 0
72.0104 15.3899 0
70.164 13.704 0
63.3904 32.1715 0
65.8854 32.3253 0
39.5945 3.43829 0
38.852 5.82547 0
46.2189 18.9795 0
47.7898 17.0348 0
37.503 39.0165 0
36.2967 41.206 0
90.1604 7.35247 0
90.8872 4.96186 0
92.588 20.1439 0
90.1852 19.4515 0
55.9047 19.4998 0
56.1565 17.0126 0
22.8412 18.9774 0
21.4598 21.0605 0
32.7123 16.2736 0
34.4946 18.0257 0
72.9913 38.6217 0
73.3553 36.1492 0
61.7534 40.9987 0
63.1822 43.05 0
27.4277 33.1231 0
29.7229 32.1323 0
27.6168 16.8127 0
25.7768 15.1217 0
39.5068 2.64114 0
37.4742 4.09693 0
18.582 28.6741 0
17.7582 26.3151 0
73.4772 2.80985 0
75.1987 0.999436 0
75.7784 42.3206 0
73.2819 42.4547 0
57.3579 44.1658 0
54.936 43.546 0
27.2347 9.20379 0
28.8616 11.1004 0
24.1927 7.93177 0
23.0273 10.1432 0
76.6222 41.8055 0
74.5095 43.1416 0
30.3606 38.8046 0
32.0498 40.6469 0
47.7258 27.7145 0
48.5097 30.0882 0
78.4412 7.0715 0
80.916 6.71546 0
76.0275 10.515 0
76.2964 12.9993 0
69.5564 34.3161 0
68.9462 31.8922 0
77.7477 17.2377 0
79.7308 18.7602 0
84.5226 32.7398 0
85.6777 34.9558 0
64.9257 34.6667 0
64.2442 32.2617 0
32.3956 10.3672 0
29.8968 10.2994 0
29.5236 44.6742 0
31.8193 45.6639 0
20.0254 29.239 0
22.4883 28.8104 0
45.1402 28.5561 0
47.3544 27.3962 0
19.2556 34.0395 0
20.5254 31.8868 0
66.1406 9.55672 0
66.1578 7.0569 0
61.6862 1.88277 0
64.0327 1.01948 0
80.9492 1.40474 0
79.8129 3.62834 0
40.5914 47.7329 0
38.0943 47.6116 0
58.8184 26.2725 0
59.6376 28.6343 0
14.7913 23.5488 0
16.8817 24.9193 0
4.12554 14.4814 0
6.17282 13.0463 0
84.2892 21.7966 0
82.6605 19.9004 0
8.18503 0.609464 0
5.72208 0.181801 0
75.4671 20.2396 0
73.1192 21.0977 0
52.4342 10.0826 0
50.7796 8.20846 0
43.3149 5.96841 0
45.7138 5.26418 0
39.2824 2.9833 0
37.8635 5.0417 0
3.35213 8.6751 0
0.916067 8.11285 0
87.8819 12.1731 0
88.209 14.6501 0
39.6888 11.5205 0
37.4235 10.4639 0
57.9444 7.51719 0
56.0184 5.92321 0
16.2272 26.9849 0
13.7424 27.2635 0
52.5461 5.54797 0
55.019 5.91562 0
89.8177 6.99752 0
92.1964 7.76777 0
93.4856 4.66195 0
91.8435 2.7771 0
95.0949 0.410996 0
96.8509 2.19057 0
16.0111 29.5133 0
18.3806 28.7168 0
62.4959 9.73398 0
61.7928 12.1328 0
18.58 7.22771 0
17.9474 4.81161 0
70.1885 45.3082 0
67.8122 44.5311 0
79.6907 8.43244 0
80.5736 6.09573 0
91.8828 15.7232 0
89.7267 14.457 0
59.5426 8.92865 0
59.3377 6.43704 0
21.3602 28.6694 0
23.6643 29.6385 0
24.8553 42.2147 0
26.3498 40.2108 0
22.3577 13.3635 0
24.5519 14.5603 0
9.87511 12.132 0
11.054 9.92825 0
33.5123 45.5755 0
34.466 43.2649 0
67.6433 36.0219 0
69.9065 37.0839 0
25.3204 10.7953 0
26.8373 8.80771 0
84.0465 24.634 0
82.7031 22.5267 0
87.5681 2.0496 0
89.3448 3.80808 0
51.11 41.1152 0
53.4474 42.0015 0
82.2026 9.48091 0
80.1198 8.09729 0
65.134 14.6937 0
66.1429 16.9811 0
42.9477 6.90325 0
42.7685 4.40973 0
53.5105 5.62905 0
55.4217 4.01739 0
44.3375 39.0295 0
42.8699 41.0533 0
90.5664 10.8804 0
92.5368 9.34271 0
23.2375 16.9905 0
24.767 18.9666 0
23.7546 10.1565 0
23.7996 7.65822 0
60.73 35.8524 0
60.9664 38.341 0
44.6568 1.3326 0
42.3024 2.17431 0
78.3264 24.3898 0
79.0556 22 0
68.884 38.0296 0
68.784 35.5321 0
27.5449 6.55703 0
29.4627 4.95244 0
58.9416 13.3709 0
59.0366 15.8691 0
57.7241 9.64786 0
59.6583 11.2317 0
51.7629 19.6457 0
54.1789 20.2871 0
50.6776 38.307 0
48.1779 38.3054 0
47.4603 22.9554 0
46.408 25.223 0
22.6002 21.2158 0
22.8031 23.7062 0
81.0225 2.1269 0
78.5696 1.63996 0
95.2525 4.88359 0
95.3953 7.37856 0
48.3774 41.2628 0
46.7812 43.1868 0
26.3445 16.7589 0
25.2031 18.9827 0
89.3252 21.5638 0
88.3697 23.8721 0
43.8503 3.70844 0
46.1181 4.76073 0
53.2896 27.9709 0
55.5289 29.0818 0
78.2942 8.40354 0
79.9522 6.53443 0
13.6879 14.0705 0
16.1782 14.2969 0
54.0802 47.6267 0
53.9856 45.1286 0
52.4089 6.12618 0
49.9862 5.50901 0
54.112 40.6784 0
51.8127 41.6593 0
8.32639 21.9903 0
6.36799 23.5448 0
11.0985 27.7468 0
8.60849 27.5237 0
49.7339 47.3104 0
47.2341 47.3384 0
43.5512 18.486 0
45.9001 19.3405 0
28.4199 43.5872 0
27.7275 41.1857 0
87.1805 31.5932 0
86.4539 29.2034 0
85.8097 22.537 0
86.6652 20.1898 0
85.9742 0.79406 0
88.4063 1.37367 0
83.5348 35.7914 0
84.5749 33.5198 0
24.1233 32.7682 0
25.6876 30.8186 0
45.5973 42.3846 0
47.1158 44.3703 0
21.3746 35.0523 0
23.6512 34.0193 0
6.2936 12.1222 0
4.38332 10.5103 0
34.5225 14.7943 0
36.1405 12.8883 0
31.2767 46.0581 0
32.9982 44.2453 0
18.2617 23.0637 0
20.6747 23.7177 0
10.2832 22.6004 0
11.986 20.77 0
50.2246 7.72327 0
47.89 6.82894 0
47.4936 30.8996 0
45.1583 30.0085 0
38.8485 21.0983 0
41.262 20.4474 0
43.5925 10.0602 0
41.3835 11.2306 0
77.5093 37.0482 0
79.2858 35.2904 0
39.9055 9.0235 0
39.071 11.3802 0
74.8784 40.4884 0
73.6309 38.3223 0
60.7959 11.9401 0
58.9255 13.5984 0
96.2311 12.5487 0
94.0092 11.4021 0
43.758 25.4543 0
41.2585 25.4663 0
54.2809 42.9794 0
56.7564 42.6315 0
84.5936 23.6137 0
82.0981 23.7712 0
2.53554 9.62411 0
4.59804 8.21108 0
82.119 4.9634 0
84.6044 5.23678 0
36.5451 16.5321 0
38.6668 17.8533 0
44.0089 9.49749 0
42.0182 11.0097 0
21.1736 26.576 0
22.1745 28.8657 0
43.0471 27.3246 0
45.3647 26.3883 0
15.043 19.6911 0
14.8642 22.1831 0
20.1517 8.63057 0
21.0195 6.28696 0
12.2241 24.8971 0
10.9704 22.7361 0
49.8768 41.6282 0
48.6844 39.431 0
9.58873 24.4947 0
9.38623 26.9853 0
35.0895 44.1543 0
32.8808 45.3255 0
13.4058 18.3671 0
11.2245 17.1462 0
12.2559 23.8673 0
12.6966 21.4079 0
84.2225 17.4847 0
84.0598 14.9916 0
97.0912 15.4723 0
94.8857 14.2945 0
76.1996 36.8439 0
77.5817 38.9267 0
4.73134 2.94837 0
2.27882 3.43485 0
13.8827 26.89 0
11.3996 26.5965 0
9.91846 5.19549 0
8.65379 7.35132 0
87.001 10.0108 0
86.692 7.53151 0
50.8104 19.0664 0
49.8849 16.744 0
22.8229 3.00121 0
23.5229 0.601034 0
24.0487 40.5485 0
21.5689 40.2299 0
4.32694 10.5397 0
1.91933 11.2142 0
74.0277 28.2176 0
72.4574 30.1618 0
51.6107 16.7144 0
49.4393 17.9529 0
94.6711 5.52957 0
96.5428 7.18704 0
92.4032 0.901975 0
90.0022 1.5974 0
54.6885 28.1694 0
57.018 29.0761 0
3.93786 2.11413 0
2.82367 4.35164 0
25.6117 42.2006 0
28.0945 41.9061 0
24.2815 33.3285 0
25.7536 35.348 0
64.8755 37.9954 0
63.0623 36.2745 0
45.7801 39.1254 0
46.326 36.6858 0
59.149 39.5629 0
58.343 41.9292 0
42.8307 19.5789 0
41.6299 17.3865 0
48.5239 17.0617 0
47.4643 14.7975 0
92.8594 4.87356 0
91.3349 6.85362 0
17.6625 6.64538 0
16.0923 4.70189 0
31.5383 30.8552 0
33.0541 28.8674 0
49.5578 45.3174 0
50.5153 47.6267 0
51.695 13.9855 0
49.2473 14.4927 0
35.2086 5.69751 0
34.549 8.109 0
90.6771 7.77667 0
90.2454 10.2376 0
55.2557 45.9421 0
54.0065 43.7766 0
16.7153 18.2887 0
18.9004 17.0732 0
14.6234 7.09621 0
14.2852 4.62098 0
24.2772 34.5178 0
21.7846 34.7107 0
62.6325 33.7737 0
60.6623 35.312 0
11.5563 19.7559 0
13.6542 21.1146 0
76.8108 0.450948 0
74.3127 0.393561 0
59.9284 26.2361 0
57.6732 25.1577 0
70.482 27.2109 0
67.9945 27.4581 0
46.2252 23.0015 0
46.9721 20.6158 0
76.5818 3.9212 0
74.1837 4.62321 0
47.8481 15.3146 0
50.1332 16.328 0
88.1685 13.6331 0
89.9383 11.8686 0
70.9798 0.243776 0
73.3022 1.16919 0
56.2791 45.8756 0
57.2113 43.556 0
68.162 3.44946 0
65.9336 2.31594 0
22.837 17.7942 0
24.7553 16.1907 0
81.1915 38.8928 0
83.1731 37.3696 0
49.4131 3.17275 0
51.1122 5.00664 0
66.0111 3.52644 0
63.6748 2.63662 0
53.3013 12.3621 0
53.0661 9.87317 0
12.6081 15.4925 0
10.7901 17.2085 0
43.179 4.87108 0
43.6213 7.33159 0
56.1665 20.7844 0
58.618 21.2725 0
60.8484 22.5809 0
58.3673 22.2766 0
28.8063 27.3744 0
26.989 25.6587 0
40.7073 7.14089 0
38.2291 7.46958 0
17.4044 2.36533 0
19.8838 2.04224 0
42.8344 26.0494 0
40.3564 26.3774 0
7.03185 17.7617 0
8.35439 19.8819 0
20.2935 12.0807 0
22.1357 10.3903 0
67.4014 40.2487 0
65.49 41.8595 0
45.1249 41.7323 0
45.9818 44.0807 0
70.8172 17.4104 0
73.1982 16.6494 0
88.2754 4.89418 0
90.0127 6.69159 0
49.8862 20.3873 0
48.1615 22.1967 0
56.3576 37.9216 0
56.3574 40.4215 0
82.3799 26.1824 0
80.8622 28.1679 0
39.5818 4.63711 0
41.5672 6.15613 0
55.1648 43.7921 0
57.0084 42.104 0
55.3785 43.677 0
57.0616 41.8287 0
25.0419 15.5278 0
23.2258 13.8114 0
14.3453 27.9698 0
13.5044 30.3221 0
53.0029 17.2586 0
51.1977 18.9877 0
32.5289 43.0553 0
34.8816 43.9003 0
19.7084 10.9495 0
21.4608 12.7308 0
61.521 41.3576 0
63.7589 40.2439 0
32.95 27.66 0
31.0021 29.2269 0
30.998 21.3894 0
31.9695 23.692 0
72.0733 27.6422 0
71.2412 29.9987 0
38.0803 13.3031 0
40.5548 13.6568 0
47.3026 48.1899 0
45.4821 46.4766 0
70.6209 11.6913 0
70.4879 14.1871 0
98.6425 10.2238 0
96.5819 8.80803 0
96.4549 15.9672 0
93.9558 16.0415 0
58.9508 10.4383 0
59.6897 12.8267 0
54.9983 18.5998 0
56.4814 20.6123 0
53.9084 41.8731 0
56.3735 41.4579 0
5.0558 4.44525 0
7.53499 4.1215 0
84.5074 18.9286 0
86.8297 19.8559 0
19.2704 30.4289 0
19.5001 32.917 0
64.417 36.0447 0
63.1703 33.878 0
66.4911 23.713 0
68.9894 23.6254 0
60.3942 25.6856 0
62.6913 24.7003 0
55.9202 21.3871 0
57.6134 19.5483 0
21.5688 36.5806 0
19.0765 36.7786 0
55.952 32.5579 0
58.3865 31.9913 0
67.9225 1.87863 0
70.1172 3.07632 0
16.2252 6.30737 0
17.6212 4.23466 0
91.8185 24.3347 0
91.1527 26.7429 0
89.1977 19.2467 0
86.7307 18.8377 0
88.0801 12.658 0
86.5255 14.6144 0
76.4217 19.0357 0
77.6115 16.8386 0
71.0201 21.1903 0
70.1093 23.5174 0
26.6117 25.7026 0
25.3931 27.885 0
55.8066 26.5761 0
55.5588 29.0636 0
59.1671 43.3274 0
57.5226 45.2101 0
66.2308 18.9739 0
68.275 17.536 0
81.2769 33.7919 0
79.7432 31.8183 0
50.4282 9.24578 0
49.7703 11.6577 0
26.0527 27.7124 0
24.0195 29.1668 0
49.6495 27.5397 0
49.8897 25.0513 0
89.3106 25.6213 0
91.8086 25.5192 0
78.9892 32.3224 0
76.6559 33.2188 0
76.2048 37.6632 0
76.6501 35.2042 0
22.6867 1.53014 0
23.5105 3.8883 0
17.2393 12.045 0
15.7655 10.0274 0
76.5428 36.0093 0
78.4103 34.3485 0
25.5345 43.045 0
23.7472 41.2979 0
24.9576 3.66253 0
23.1407 1.94892 0
86.9055 24.6034 0
85.0493 22.9289 0
84.0862 33.7079 0
83.2044 31.3697 0
68.0074 9.34541 0
65.902 7.9969 0
6.43583 3.80343 0
4.66998 5.57306 0
88.4712 7.3031 0
89.3549 4.96605 0
68.0852 41.0871 0
69.9247 39.3947 0
33.5758 19.073 0
33.4752 21.5705 0
18.3897 18.5028 0
19.9847 20.4264 0
51.0073 20.8992 0
51.9968 18.6035 0
81.2192 27.4258 0
79.0204 26.2365 0
33.6417 33.9213 0
31.4614 35.1444 0
42.0747 36.9053 0
44.2648 35.7002 0
9.50276 8.13264 0
8.12981 6.04469 0
46.3947 9.29151 0
43.9174 9.6265 0
38.9203 46.0556 0
36.7354 44.8409 0
56.6722 45.0315 0
57.0869 42.5663 0
50.8194 8.03029 0
52.1425 10.1515 0
69.3146 9.77283 0
68.2061 12.0127 0
52.7881 10.9112 0
53.9941 8.72134 0
87.9547 0.593557 0
87.4302 3.03637 0
87.5984 29.8726 0
88.5117 27.5481 0
27.7615 28.0409 0
29.317 26.084 0
41.15 3.43544 0
43.5719 2.8146 0
47.3813 29.5208 0
44.883 29.4417 0
44.8964 23.4091 0
42.4195 23.0732 0
57.5575 36.4452 0
55.6946 34.7784 0
79.9247 4.83103 0
81.3145 6.90836 0
33.0092 1.69687 0
31.3377 3.55609 0
37.9995 49.9733 0
37.9306 51.542 0
37.9306 51.542 0
37.7251 53.0987 0
37.7251 53.0987 0
37.3847 54.6317 0
37.3847 54.6317 0
36.912 56.1291 0
36.912 56.1291 0
36.3105 57.5796 0
36.3105 57.5796 0
35.5849 58.9721 0
35.5849 58.9721 0
34.7407 60.2962 0
34.7407 60.2962 0
33.7843 61.5416 0
33.7843 61.5416 0
32.723 62.699 0
32.723 62.699 0
31.5649 63.7594 0
31.5649 63.7594 0
30.3187 64.7149 0
30.3187 64.7149 0
28.9941 65.5581 0
28.9941 65.5581 0
27.6009 66.2828 0
27.6009 66.2828 0
26.15 66.8832 0
26.15 66.8832 0
24.6522 67.3549 0
24.6522 67.3549 0
23.119 67.6944 0
23.119 67.6944 0
21.5621 67.8989 0
21.5621 67.8989 0
19.9932 67.967 0
19.9932 67.967 0
18.4244 67.8981 0
18.4244 67.8981 0
16.8676 67.6927 0
16.8676 67.6927 0
15.3346 67.3525 0
15.3346 67.3525 0
13.837 66.88 0
13.837 66.88 0
12.3864 66.2788 0
12.3864 66.2788 0
10.9936 65.5535 0
10.9936 65.5535 0
9.6694 64.7095 0
9.6694 64.7095 0
8.42375 63.7534 0
8.42375 63.7534 0
7.26617 62.6923 0
7.26617 62.6923 0
6.20546 61.5345 0
6.20546 61.5345 0
5.24971 60.2885 0
5.24971 60.2885 0
4.40618 58.9641 0
4.40618 58.9641 0
3.68131 57.5711 0
3.68131 57.5711 0
3.0806 56.1203 0
3.0806 56.1203 0
2.60864 54.6226 0
2.60864 54.6226 0
2.26902 53.0896 0
2.26902 53.0896 0
2.06433 51.5327 0
2.06433 51.5327 0
1.99615 49.964 0
1.99615 49.964 0
2.06498 48.3953 0
2.06498 48.3953 0
2.27031 46.8386 0
2.27031 46.8386 0
2.61059 45.3057 0
2.61059 45.3057 0
3.08322 43.8083 0
3.08322 43.8083 0
3.68463 42.3579 0
3.68463 42.3579 0
4.41022 40.9655 0
4.41022 40.9655 0
5.25447 39.6417 0
5.25447 39.6417 0
6.21098 38.3967 0
6.21098 38.3967 0
7.27244 37.24 0
7.27244 37.24 0
8.43078 36.1803 0
8.43078 36.1803 0
9.67719 35.2261 0
9.67719 35.2261 0
11.0022 34.3846 0
11.0022 34.3846 0
12.396 33.662 0
12.396 33.662 0
13.8472 33.0622 0
13.8472 33.0622 0
15.3449 32.5904 0
15.3449 32.5904 0
16.8779 32.2507 0
16.8779 32.2507 0
18.4346 32.0457 0
18.4346 32.0457 0
20.0033 31.9771 0
20.0033 31.9771 0
21.5721 32.0454 0
21.5721 32.0454 0
23.1288 32.2502 0
23.1288 32.2502 0
24.6618 32.5897 0
24.6618 32.5897 0
26.1592 33.0616 0
26.1592 33.0616 0
27.6099 33.6622 0
27.6099 33.6622 0
29.0026 34.3869 0
29.0026 34.3869 0
30.3267 35.2303 0
30.3267 35.2303 0
31.5723 36.186 0
31.5723 36.186 0
32.7298 37.2466 0
32.7298 37.2466 0
33.7905 38.4041 0
33.7905 38.4041 0
34.7462 39.6497 0
34.7462 39.6497 0
35.5897 40.9739 0
35.5897 40.9739 0
36.3145 42.3667 0
36.3145 42.3667 0
36.9152 43.8173 0
36.9152 43.8173 0
37.3872 45.3148 0
37.3872 45.3148 0
37.7268 46.8478 0
37.7268 46.8478 0
37.9315 48.4046 0
37.9315 48.4046 0
37.9995 49.9733 0
98.0039 49.9639 0
97.9357 51.5327 0
97.9357 51.5327 0
97.731 53.0895 0
97.731 53.0895 0
97.3914 54.6226 0
97.3914 54.6226 0
96.9194 56.1203 0
96.9194 56.1203 0
96.3187 57.5711 0
96.3187 57.5711 0
95.5938 58.964 0
95.5938 58.964 0
94.7503 60.2885 0
94.7503 60.2885 0
93.7945 61.5344 0
93.7945 61.5344 0
92.7338 62.6923 0
92.7338 62.6923 0
91.5762 63.7534 0
91.5762 63.7534 0
90.3306 64.7095 0
90.3306 64.7095 0
89.0064 65.5534 0
89.0064 65.5534 0
87.6136 66.2788 0
87.6136 66.2788 0
86.163 66.88 0
86.163 66.88 0
84.6654 67.3525 0
84.6654 67.3525 0
83.1324 67.6927 0
83.1324 67.6927 0
81.5756 67.898 0
81.5756 67.898 0
80.0068 67.9669 0
80.0068 67.9669 0
78.4379 67.8988 0
78.4379 67.8988 0
76.881 67.6943 0
76.881 67.6943 0
75.3478 67.3549 0
75.3478 67.3549 0
73.85 66.8832 0
73.85 66.8832 0
72.3991 66.2827 0
72.3991 66.2827 0
71.0059 65.5581 0
71.0059 65.5581 0
69.6813 64.7148 0
69.6813 64.7148 0
68.4351 63.7593 0
68.4351 63.7593 0
67.277 62.6989 0
67.277 62.6989 0
66.2157 61.5416 0
66.2157 61.5416 0
65.2593 60.2961 0
65.2593 60.2961 0
64.4151 58.9721 0
64.4151 58.9721 0
63.6895 57.5795 0
63.6895 57.5795 0
63.088 56.129 0
63.088 56.129 0
62.6153 54.6316 0
62.6153 54.6316 0
62.2749 53.0987 0
62.2749 53.0987 0
62.0695 51.5419 0
62.0695 51.5419 0
62.0005 49.9732 0
62.0005 49.9732 0
62.0686 48.4045 0
62.0686 48.4045 0
62.2732 46.8478 0
62.2732 46.8478 0
62.6129 45.3148 0
62.6129 45.3148 0
63.0848 43.8173 0
63.0848 43.8173 0
63.6855 42.3666 0
63.6855 42.3666 0
64.4103 40.9739 0
64.4103 40.9739 0
65.2538 39.6497 0
65.2538 39.6497 0
66.2095 38.4041 0
66.2095 38.4041 0
67.2702 37.2465 0
67.2702 37.2465 0
68.4277 36.1859 0
68.4277 36.1859 0
69.6733 35.2303 0
69.6733 35.2303 0
70.9975 34.3869 0
70.9975 34.3869 0
72.3902 33.6621 0
72.3902 33.6621 0
73.8408 33.0615 0
73.8408 33.0615 0
75.3382 32.5897 0
75.3382 32.5897 0
76.8712 32.2501 0
76.8712 32.2501 0
78.428 32.0454 0
78.428 32.0454 0
79.9967 31.9771 0
79.9967 31.9771 0
81.5654 32.0457 0
81.5654 32.0457 0
83.1222 32.2506 0
83.1222 32.2506 0
84.6552 32.5904 0
84.6552 32.5904 0
86.1528 33.0621 0
86.1528 33.0621 0
87.604 33.6619 0
87.604 33.6619 0
88.9978 34.3846 0
88.9978 34.3846 0
90.3229 35.2262 0
90.3229 35.2262 0
91.5692 36.1804 0
91.5692 36.1804 0
92.7276 37.2399 0
92.7276 37.2399 0
93.789 38.3967 0
93.789 38.3967 0
94.7455 39.6417 0
94.7455 39.6417 0
95.5898 40.9655 0
95.5898 40.9655 0
96.3154 42.3579 0
96.3154 42.3579 0
96.9168 43.8083 0
96.9168 43.8083 0
97.3894 45.3056 0
97.3894 45.3056 0
97.7297 46.8385 0
97.7297 46.8385 0
97.935 48.3952 0
97.935 48.3952 0
98.0039 49.9639 0
      </DataArray>
    </Points>
    <Cells>
      <DataArray type="Int32" Name="connectivity" format="ascii">
247 120 114 753 754 755 
213 114 214 748 749 750 
487 220 257 647 745 730 
257 115 260 741 742 743 
246 300 116 738 739 740 
212 116 247 731 732 733 
246 257 117 724 725 726 
299 117 312 719 720 721 
303 310 118 716 717 718 
248 118 256 711 712 713 
513 495 483 150 224 119 
507 513 483 151 119 184 
248 120 302 704 705 706 
221 258 121 1196 1197 1198 
259 121 313 1191 1192 1193 
464 430 432 332 409 122 
436 464 432 326 122 408 
346 1189 123 1186 1187 1188 
298 123 351 1181 1182 1183 
71 311 124 699 700 701 
65 124 372 692 693 694 
79 369 125 687 688 689 
684 125 309 680 681 682 
211 243 126 1178 1179 1180 
244 126 297 1173 1174 1175 
462 474 436 240 281 127 
438 462 436 294 127 327 
512 515 514 131 129 134 
513 509 511 130 132 135 
514 515 510 129 139 128 
508 514 510 148 128 147 
496 500 514 146 133 149 
513 499 495 136 145 150 
507 509 513 143 130 151 
505 491 497 141 142 154 
504 515 512 137 131 155 
174 503 511 1151 156 144 
512 514 500 134 133 159 
499 513 511 136 135 162 
494 515 504 138 137 165 
171 510 515 1164 139 166 
140 167 168 678 674 675 
167 492 168 672 661 674 
491 505 506 141 153 169 
177 498 497 656 164 170 
173 490 174 1156 1149 1171 
217 489 503 1126 176 175 
495 499 498 145 163 178 
501 500 496 158 146 179 
172 486 181 1162 1145 1169 
496 514 508 149 148 183 
480 481 140 227 152 187 
479 506 505 188 153 190 
477 505 497 191 154 193 
504 512 475 155 160 194 
472 511 503 161 156 197 
501 502 471 157 199 200 
500 501 470 158 201 202 
475 512 500 160 159 203 
499 511 472 162 161 204 
498 499 469 163 205 206 
497 498 468 164 207 208 
494 504 474 165 195 210 
211 493 171 1165 1161 1166 
167 180 212 667 668 669 
168 492 213 661 662 663 
214 488 177 657 653 658 
172 171 215 1158 1159 1160 
173 185 216 1153 1154 1155 
174 490 217 1149 1127 1150 
473 503 489 196 176 218 
177 488 219 653 643 654 
220 487 180 647 648 649 
182 181 221 1142 1143 1144 
496 508 115 183 222 747 
225 484 185 886 1138 1139 
482 502 481 198 186 226 
506 480 140 189 187 677 
480 506 479 189 188 228 
479 505 478 190 192 229 
478 505 477 192 191 230 
477 497 476 193 209 231 
474 504 475 195 194 232 
472 503 473 197 196 233 
471 502 482 199 198 234 
470 501 471 201 200 235 
475 500 470 203 202 236 
469 499 472 205 204 237 
468 498 469 207 206 238 
476 497 468 209 208 239 
494 474 461 210 241 242 
215 245 249 1133 1134 1135 
216 250 251 1128 1129 1130 
217 252 253 1123 1124 1125 
307 451 473 1047 255 254 
223 219 256 640 641 642 
583 263 223 1074 637 628 
582 261 264 1120 1121 1122 
445 482 481 265 226 268 
444 481 480 267 227 270 
443 480 479 269 228 272 
442 479 478 271 229 274 
441 478 477 273 230 276 
440 477 476 275 231 278 
474 475 436 232 280 281 
472 473 435 233 283 284 
471 482 446 234 266 286 
470 471 434 235 287 288 
464 475 470 279 236 289 
469 472 463 237 285 290 
468 469 433 238 291 292 
439 476 468 277 239 293 
461 474 462 241 240 295 
296 460 243 1071 1116 1117 
245 244 298 1107 1108 1109 
258 249 304 1100 1101 1102 
250 262 305 1095 1096 1097 
252 251 306 1088 1089 1090 
253 452 307 1084 1044 1085 
437 473 451 282 255 308 
633 314 591 871 832 1082 
262 261 316 1075 1076 1077 
318 629 578 854 810 809 
446 482 445 266 265 319 
445 481 444 268 267 320 
444 480 443 270 269 321 
443 479 442 272 271 322 
442 478 441 274 273 323 
441 477 440 276 275 324 
440 476 439 278 277 325 
436 475 464 280 279 326 
435 473 437 283 282 328 
463 472 435 285 284 329 
434 471 446 287 286 330 
464 470 434 289 288 331 
433 469 463 291 290 334 
439 468 433 293 292 335 
462 438 43 294 338 339 
461 462 45 295 340 341 
296 342 343 1068 1069 1070 
297 344 345 1063 1064 1065 
299 311 347 621 622 623 
301 300 348 616 617 618 
302 301 349 609 610 611 
309 303 350 602 603 604 
304 352 353 1058 1059 1060 
305 358 359 1053 1054 1055 
306 361 362 1048 1049 1050 
307 452 364 1044 934 1045 
437 451 109 308 367 368 
599 317 597 848 850 1042 
592 315 593 841 840 1040 
313 355 375 1035 1036 1037 
585 586 587 1032 1033 1034 
356 316 378 1027 1028 1029 
578 579 580 1024 1025 1026 
3 446 445 381 319 383 
7 445 444 384 320 386 
11 444 443 387 321 389 
15 443 442 390 322 392 
19 442 441 393 323 395 
23 441 440 396 324 398 
27 440 439 399 325 401 
432 438 436 336 327 408 
435 437 431 328 337 410 
429 463 435 333 329 411 
434 446 0 330 382 413 
430 464 434 332 331 414 
433 463 429 334 333 415 
1 439 433 402 335 416 
39 438 432 404 336 417 
431 437 940 337 407 418 
43 438 41 338 405 42 
45 462 43 340 339 44 
47 49 342 48 1019 1020 
344 343 51 1009 1010 1011 
346 345 1013 1000 1001 1002 
348 347 702 569 570 571 
350 349 75 560 561 562 
352 351 55 991 992 993 
354 353 979 984 985 986 
355 354 995 975 976 977 
357 356 89 968 969 970 
358 357 956 959 960 961 
360 359 972 952 953 954 
361 360 95 943 944 945 
363 362 99 936 937 938 
364 363 103 927 928 929 
107 451 105 366 365 106 
109 451 107 367 366 108 
931 437 109 406 368 110 
370 369 548 553 554 555 
371 370 690 544 545 546 
372 374 532 537 538 539 
374 373 696 528 529 530 
376 375 61 920 921 922 
924 523 524 915 916 917 
378 380 85 908 909 910 
516 911 518 903 904 905 
0 446 3 382 381 2 
3 445 5 383 385 4 
5 445 7 385 384 6 
7 444 9 386 388 8 
9 444 11 388 387 10 
11 443 13 389 391 12 
13 443 15 391 390 14 
15 442 17 392 394 16 
17 442 19 394 393 18 
19 441 21 395 397 20 
21 441 23 397 396 22 
23 440 25 398 400 24 
25 440 27 400 399 26 
27 439 29 401 403 28 
29 439 1 403 402 30 
41 438 39 405 404 40 
940 437 931 407 406 932 
432 430 31 409 423 419 
429 435 431 411 410 412 
93 429 431 426 412 422 
430 434 0 414 413 424 
1 433 429 416 415 428 
39 432 37 417 420 38 
947 431 940 421 418 941 
37 432 31 420 419 36 
93 431 947 422 421 948 
31 430 33 423 425 32 
33 430 0 425 424 34 
112 429 93 427 426 111 
1 429 112 428 427 113 
220 115 257 746 741 745 
518 899 519 896 897 898 
521 519 380 889 890 891 
630 264 225 882 883 884 
491 177 497 659 170 142 
481 502 140 186 676 152 
744 182 635 879 874 875 
120 247 467 753 735 707 
247 114 492 755 752 736 
114 120 488 754 710 751 
114 213 492 748 662 752 
213 214 491 750 660 665 
214 114 488 749 751 657 
115 220 496 746 652 747 
257 260 466 743 632 727 
182 485 635 878 870 874 
300 246 458 738 728 619 
246 116 487 740 737 729 
116 300 467 739 620 734 
116 212 487 731 670 737 
212 247 492 733 736 671 
247 116 467 732 734 735 
257 246 487 724 729 730 
246 117 458 726 723 728 
117 257 466 725 727 722 
117 299 458 719 625 723 
299 312 449 721 595 626 
312 117 466 720 722 596 
310 303 450 716 608 600 
303 118 457 718 715 605 
118 310 465 717 601 714 
118 248 457 711 708 715 
248 256 488 713 644 709 
256 118 465 712 714 645 
120 248 488 704 709 710 
248 302 457 706 613 708 
302 120 467 705 707 614 
311 71 573 699 72 624 
71 124 63 701 698 70 
124 311 449 700 627 695 
124 65 63 692 64 698 
65 372 67 694 542 66 
372 124 449 693 695 543 
369 79 81 687 80 556 
79 125 73 689 686 78 
125 369 450 688 559 683 
125 684 73 680 685 686 
684 309 564 682 606 565 
309 125 450 681 683 607 
167 140 502 678 676 679 
501 167 502 673 679 157 
140 168 506 675 666 677 
180 167 501 667 673 651 
167 212 492 669 671 672 
212 180 487 668 648 670 
506 168 213 666 663 664 
491 506 213 169 664 665 
491 214 177 660 658 659 
498 177 219 656 654 655 
495 498 219 178 655 646 
496 220 180 652 649 650 
501 496 180 179 650 651 
219 223 495 640 639 646 
223 256 465 642 645 636 
256 219 488 641 643 644 
495 223 263 639 637 638 
483 495 263 224 638 631 
633 635 634 867 868 869 
588 634 259 860 861 862 
629 318 630 854 855 856 
311 299 449 621 626 627 
299 347 458 623 577 625 
347 311 573 622 624 572 
300 301 467 616 615 620 
301 348 69 618 575 612 
348 300 458 617 619 576 
301 302 467 609 614 615 
302 349 457 611 568 613 
349 301 69 610 612 563 
303 309 450 602 607 608 
309 350 564 604 566 606 
350 303 457 603 605 567 
597 317 584 850 807 851 
599 550 581 845 846 847 
371 310 450 598 600 551 
590 315 592 835 841 842 
312 373 449 594 536 595 
593 589 531 836 837 838 
585 590 591 827 828 829 
587 523 589 818 819 820 
586 588 527 811 812 813 
578 583 584 802 803 804 
580 521 582 793 794 795 
579 581 516 784 785 786 
347 348 458 569 576 577 
348 702 69 571 703 575 
702 347 573 570 572 574 
349 350 457 560 567 568 
350 75 564 562 76 566 
75 349 69 561 563 74 
369 370 450 553 552 559 
370 548 557 555 549 547 
548 369 81 554 556 82 
370 371 450 544 551 552 
778 77 550 783 779 780 
690 370 557 545 547 558 
374 372 449 537 543 535 
372 532 67 539 68 542 
532 374 540 538 534 533 
373 374 449 528 535 536 
374 696 540 530 541 534 
531 59 773 772 777 774 
524 527 526 765 766 767 
762 526 376 756 757 758 
744 635 633 875 867 873 
260 744 633 877 873 872 
211 171 515 1166 166 1167 
494 211 515 1168 1167 138 
509 174 511 1152 144 132 
174 217 503 1150 175 1151 
629 583 578 1073 802 810 
465 583 223 805 628 636 
489 307 473 1086 254 218 
258 221 486 1196 1146 1105 
221 121 485 1198 1195 1147 
121 258 455 1197 1104 1194 
121 259 485 1191 864 1195 
259 313 448 1193 1038 865 
313 121 455 1192 1194 1039 
1189 346 1018 1186 1006 1023 
346 123 459 1188 1185 1007 
123 1189 35 1187 1190 1184 
123 298 459 1181 1111 1185 
298 351 456 1183 999 1112 
351 123 35 1182 1184 994 
243 211 494 1178 1168 1119 
211 126 493 1180 1177 1165 
126 243 460 1179 1116 1176 
126 244 493 1173 1115 1177 
244 297 459 1175 1066 1110 
297 126 460 1174 1176 1067 
173 174 509 1171 1152 1172 
507 173 509 1157 1172 143 
510 172 181 1163 1169 1170 
508 510 181 147 1170 1148 
171 172 510 1158 1163 1164 
172 215 486 1160 1136 1162 
215 171 493 1159 1161 1137 
185 173 507 1153 1157 1141 
173 216 490 1155 1131 1156 
216 185 484 1154 1138 1132 
181 182 508 1142 881 1148 
182 221 485 1144 1147 878 
221 181 486 1143 1145 1146 
225 185 507 1139 1141 1140 
483 225 507 887 1140 184 
245 215 493 1133 1137 1114 
215 249 486 1135 1106 1136 
249 245 456 1134 1113 1103 
250 216 484 1128 1132 1099 
216 251 490 1130 1094 1131 
251 250 453 1129 1098 1091 
252 217 490 1123 1127 1093 
217 253 489 1125 1087 1126 
253 252 452 1124 1092 1084 
261 582 447 1120 797 1078 
582 264 318 1122 888 798 
264 261 484 1121 1081 885 
461 296 243 1072 1117 1118 
494 461 243 242 1118 1119 
244 245 493 1107 1114 1115 
245 298 456 1109 1112 1113 
298 244 459 1108 1110 1111 
249 258 486 1100 1105 1106 
258 304 455 1102 1061 1104 
304 249 456 1101 1103 1062 
262 250 484 1095 1099 1080 
250 305 453 1097 1056 1098 
305 262 454 1096 1079 1057 
251 252 490 1088 1093 1094 
252 306 452 1090 1051 1092 
306 251 453 1089 1091 1052 
489 253 307 1087 1085 1086 
260 633 591 872 1082 1083 
466 260 591 632 1083 831 
261 262 484 1075 1080 1081 
262 316 454 1077 1031 1079 
316 261 447 1076 1078 1030 
583 629 263 1073 859 1074 
342 296 461 1068 1072 1022 
296 343 460 1070 1017 1071 
343 342 49 1069 1019 1012 
344 297 460 1063 1067 1016 
297 345 459 1065 1008 1066 
345 344 1004 1064 1015 1003 
352 304 456 1058 1062 998 
304 353 455 1060 990 1061 
353 352 57 1059 997 987 
358 305 454 1053 1057 966 
305 359 453 1055 958 1056 
359 358 963 1054 965 955 
361 306 453 1048 1052 950 
306 362 452 1050 942 1051 
362 361 97 1049 949 939 
451 307 364 1047 1045 1046 
105 451 364 365 1046 933 
371 599 597 849 1042 1043 
310 371 597 598 1043 852 
592 593 373 1040 839 1041 
312 592 373 844 1041 594 
355 313 455 1035 1039 982 
313 375 448 1037 926 1038 
375 355 53 1036 981 923 
586 585 314 1032 833 816 
585 587 315 1034 824 834 
587 586 377 1033 815 825 
316 356 454 1027 974 1031 
356 378 83 1029 913 971 
378 316 447 1028 1030 914 
579 578 317 1024 808 791 
578 580 318 1026 799 809 
580 579 379 1025 790 800 
45 47 342 46 1020 1021 
461 45 342 341 1021 1022 
343 344 460 1009 1016 1017 
344 51 1004 1011 52 1015 
51 343 49 1010 1012 50 
345 346 459 1000 1007 1008 
346 1013 1018 1002 1014 1006 
1013 345 1004 1001 1003 1005 
351 352 456 991 998 999 
352 55 57 993 56 997 
55 351 35 992 994 54 
353 354 455 984 983 990 
354 979 988 986 980 978 
979 353 57 985 987 58 
354 355 455 975 982 983 
355 995 53 977 996 981 
995 354 988 976 978 989 
356 357 454 968 967 974 
357 89 91 970 90 962 
89 356 83 969 971 88 
357 358 454 959 966 967 
358 956 963 961 957 965 
956 357 91 960 962 92 
359 360 453 952 951 958 
360 972 87 954 973 946 
972 359 963 953 955 964 
360 361 453 943 950 951 
361 95 97 945 96 949 
95 360 87 944 946 94 
362 363 452 936 935 942 
363 99 101 938 100 930 
99 362 97 937 939 98 
363 364 452 927 934 935 
364 103 105 929 104 933 
103 363 101 928 930 102 
375 376 448 920 760 926 
376 61 522 922 62 761 
61 375 53 921 923 60 
523 924 59 915 925 821 
924 524 918 917 769 919 
524 523 377 916 826 770 
380 378 447 908 914 894 
378 85 83 910 84 913 
85 380 517 909 893 86 
911 516 77 903 788 912 
516 518 379 905 900 789 
518 911 906 904 907 901 
899 518 906 896 901 902 
518 519 379 898 895 900 
519 899 517 897 520 892 
519 521 379 889 801 895 
521 380 447 891 894 796 
380 519 517 890 892 893 
264 630 318 882 855 888 
630 225 483 884 887 858 
225 264 484 883 885 886 
508 182 744 881 879 880 
115 508 744 222 880 876 
115 744 260 876 877 742 
633 634 314 869 866 871 
634 635 485 868 870 863 
634 588 314 860 817 866 
588 259 448 862 865 814 
259 634 485 861 863 864 
263 629 630 859 856 857 
483 263 630 631 857 858 
597 584 465 851 806 853 
310 597 465 852 853 601 
550 599 371 845 849 782 
599 581 317 847 792 848 
581 550 77 846 779 787 
466 590 592 830 842 843 
312 466 592 596 843 844 
589 593 315 836 840 823 
593 531 373 838 775 839 
531 589 59 837 822 772 
590 585 315 827 834 835 
585 591 314 829 832 833 
591 590 466 828 830 831 
523 587 377 818 825 826 
587 589 315 820 823 824 
589 523 59 819 821 822 
588 586 314 811 816 817 
586 527 377 813 771 815 
527 588 448 812 814 768 
578 584 317 804 807 808 
584 583 465 803 805 806 
521 580 379 793 800 801 
580 582 318 795 798 799 
582 521 447 794 796 797 
581 579 317 784 791 792 
579 516 379 786 789 790 
516 581 77 785 787 788 
690 778 550 691 780 781 
371 690 550 546 781 782 
531 773 696 774 697 776 
373 531 696 775 776 529 
527 524 377 765 770 771 
524 526 918 767 764 769 
526 527 448 766 768 759 
526 762 918 756 763 764 
762 376 522 758 761 525 
376 526 448 757 759 760 
1199 1200
1201 1202
1203 1204
1205 1206
1207 1208
1209 1210
1211 1212
1213 1214
1215 1216
1217 1218
1219 1220
1221 1222
1223 1224
1225 1226
1227 1228
1229 1230
1231 1232
1233 1234
1235 1236
1237 1238
1239 1240
1241 1242
1243 1244
1245 1246
1247 1248
1249 1250
1251 1252
1253 1254
1255 1256
1257 1258
1259 1260
1261 1262
1263 1264
1265 1266
1267 1268
1269 1270
1271 1272
1273 1274
1275 1276
1277 1278
1279 1280
1281 1282
1283 1284
1285 1286
1287 1288
1289 1290
1291 1292
1293 1294
1295 1296
1297 1298
1299 1300
1301 1302
1303 1304
1305 1306
1307 1308
1309 1310
1311 1312
1313 1314
1315 1316
1317 1318
1319 1320
1321 1322
1323 1324
1325 1326
1327 1328
1329 1330
1331 1332
1333 1334
1335 1336
1337 1338
1339 1340
1341 1342
1343 1344
1345 1346
1347 1348
1349 1350
1351 1352
1353 1354
1355 1356
1357 1358
1359 1360
1361 1362
1363 1364
1365 1366
1367 1368
1369 1370
1371 1372
1373 1374
1375 1376
1377 1378
1379 1380
1381 1382
1383 1384
1385 1386
1387 1388
1389 1390
1391 1392
1393 1394
1395 1396
1397 1398
1399 1400
1401 1402
1403 1404
1405 1406
1407 1408
1409 1410
1411 1412
1413 1414
1415 1416
1417 1418
1419 1420
1421 1422
1423 1424
1425 1426
1427 1428
1429 1430
1431 1432
1433 1434
1435 1436
1437 1438
1439 1440
1441 1442
1443 1444
1445 1446
1447 1448
1449 1450
1451 1452
1453 1454
1455 1456
1457 1458
1459 1460
1461 1462
1463 1464
1465 1466
1467 1468
1469 1470
1471 1472
1473 1474
1475 1476
1477 1478
1479 1480
1481 1482
1483 1484
1485 1486
1487 1488
1489 1490
1491 1492
1493 1494
1495 1496
1497 1498
1499 1500
1501 1502
1503 1504
1505 1506
1507 1508
1509 1510
1511 1512
1513 1514
1515 1516
1517 1518
1519 1520
1521 1522
1523 1524
1525 1526
1527 1528
1529 1530
1531 1532
1533 1534
1535 1536
1537 1538
1539 1540
1541 1542
1543 1544
1545 1546
1547 1548
1549 1550
1551 1552
1553 1554
1555 1556
1557 1558
1559 1560
1561 1562
1563 1564
1565 1566
1567 1568
1569 1570
1571 1572
1573 1574
1575 1576
1577 1578
1579 1580
1581 1582
1583 1584
1585 1586
1587 1588
1589 1590
1591 1592
1593 1594
1595 1596
1597 1598
1599 1600
1601 1602
1603 1604
1605 1606
1607 1608
1609 1610
1611 1612
1613 1614
1615 1616
1617 1618
1619 1620
1621 1622
1623 1624
1625 1626
1627 1628
1629 1630
1631 1632
1633 1634
1635 1636
1637 1638
1639 1640
1641 1642
1643 1644
1645 1646
1647 1648
1649 1650
1651 1652
1653 1654
1655 1656
1657 1658
1659 1660
1661 1662
1663 1664
1665 1666
1667 1668
1669 1670
1671 1672
1673 1674
1675 1676
1677 1678
1679 1680
1681 1682
1683 1684
1685 1686
1687 1688
1689 1690
1691 1692
1693 1694
1695 1696
1697 1698
1699 1700
1701 1702
1703 1704
1705 1706
1707 1708
1709 1710
1711 1712
1713 1714
1715 1716
1717 1718
1719 1720
1721 1722
1723 1724
1725 1726
1727 1728
1729 1730
1731 1732
1733 1734
1735 1736
1737 1738
1739 1740
1741 1742
1743 1744
1745 1746
1747 1748
1749 1750
1751 1752
1753 1754
1755 1756
1757 1758
1759 1760
1761 1762
1763 1764
1765 1766
1767 1768
1769 1770
1771 1772
1773 1774
1775 1776
1777 1778
1779 1780
1781 1782
1783 1784
1785 1786
1787 1788
1789 1790
1791 1792
1793 1794
1795 1796
1797 1798
1799 1800
1801 1802
1803 1804
1805 1806
1807 1808
1809 1810
1811 1812
1813 1814
1815 1816
1817 1818
1819 1820
1821 1822
1823 1824
1825 1826
1827 1828
1829 1830
1831 1832
1833 1834
1835 1836
1837 1838
1839 1840
1841 1842
1843 1844
1845 1846
1847 1848
1849 1850
1851 1852
1853 1854
1855 1856
1857 1858
1859 1860
1861 1862
1863 1864
1865 1866
1867 1868
1869 1870
1871 1872
1873 1874
1875 1876
1877 1878
1879 1880
1881 1882
1883 1884
1885 1886
1887 1888
1889 1890
1891 1892
1893 1894
1895 1896
1897 1898
1899 1900
1901 1902
1903 1904
1905 1906
1907 1908
1909 1910
1911 1912
1913 1914
1915 1916
1917 1918
1919 1920
1921 1922
1923 1924
1925 1926
1927 1928
1929 1930
1931 1932
1933 1934
1935 1936
1937 1938
1939 1940
1941 1942
1943 1944
1945 1946
1947 1948
1949 1950
1951 1952
1953 1954
1955 1956
1957 1958
1959 1960
1961 1962
1963 1964
1965 1966
1967 1968
1969 1970
1971 1972
1973 1974
1975 1976
1977 1978
1979 1980
1981 1982
1983 1984
1985 1986
1987 1988
1989 1990
1991 1992
1993 1994
1995 1996
1997 1998
1999 2000
2001 2002
2003 2004
2005 2006
2007 2008
2009 2010
2011 2012
2013 2014
2015 2016
2017 2018
2019 2020
2021 2022
2023 2024
2025 2026
2027 2028
2029 2030
2031 2032
2033 2034
2035 2036
2037 2038
2039 2040
2041 2042
2043 2044
2045 2046
2047 2048
2049 2050
2051 2052
2053 2054
2055 2056
2057 2058
2059 2060
2061 2062
2063 2064
2065 2066
2067 2068
2069 2070
2071 2072
2073 2074
2075 2076
2077 2078
2079 2080
2081 2082
2083 2084
2085 2086
2087 2088
2089 2090
2091 2092
2093 2094
2095 2096
2097 2098
2099 2100
2101 2102
2103 2104
2105 2106
2107 2108
2109 2110
2111 2112
2113 2114
2115 2116
2117 2118
2119 2120
2121 2122
2123 2124
2125 2126
2127 2128
2129 2130
2131 2132
2133 2134
2135 2136
2137 2138
2139 2140
2141 2142
2143 2144
2145 2146
2147 2148
2149 2150
2151 2152
2153 2154
2155 2156
2157 2158
2159 2160
2161 2162
2163 2164
2165 2166
2167 2168
2169 2170
2171 2172
2173 2174
2175 2176
2177 2178
2179 2180
2181 2182
2183 2184
2185 2186
2187 2188
2189 2190
2191 2192
2193 2194
2195 2196
2197 2198
2199 2200
2201 2202
2203 2204
2205 2206
2207 2208
2209 2210
2211 2212
2213 2214
2215 2216
2217 2218
2219 2220
2221 2222
2223 2224
2225 2226
2227 2228
2229 2230
2231 2232
2233 2234
2235 2236
2237 2238
2239 2240
2241 2242
2243 2244
2245 2246
2247 2248
2249 2250
2251 2252
2253 2254
2255 2256
2257 2258
2259 2260
2261 2262
2263 2264
2265 2266
2267 2268
2269 2270
2271 2272
2273 2274
2275 2276
2277 2278
2279 2280
2281 2282
2283 2284
2285 2286
2287 2288
2289 2290
2291 2292
2293 2294
2295 2296
2297 2298
2299 2300
2301 2302
2303 2304
2305 2306
2307 2308
2309 2310
2311 2312
2313 2314
2315 2316
2317 2318
2319 2320
2321 2322
2323 2324
2325 2326
2327 2328
2329 2330
2331 2332
2333 2334
2335 2336
2337 2338
2339 2340
2341 2342
2343 2344
2345 2346
2347 2348
2349 2350
2351 2352
2353 2354
2355 2356
2357 2358
2359 2360
2361 2362
2363 2364
2365 2366
2367 2368
2369 2370
2371 2372
2373 2374
2375 2376
2377 2378
2379 2380
2381 2382
2383 2384
2385 2386
2387 2388
2389 2390
2391 2392
2393 2394
2395 2396
2397 2398
2399 2400
2401 2402
2403 2404
2405 2406
2407 2408
2409 2410
2411 2412
2413 2414
2415 2416
2417 2418
2419 2420
2421 2422
2423 2424
2425 2426
2427 2428
2429 2430
2431 2432
2433 2434
2435 2436
2437 2438
2439 2440
2441 2442
2443 2444
2445 2446
2447 2448
2449 2450
2451 2452
2453 2454
2455 2456
2457 2458
2459 2460
2461 2462
2463 2464
2465 2466
2467 2468
2469 2470
2471 2472
2473 2474
2475 2476
2477 2478
2479 2480
2481 2482
2483 2484
2485 2486
2487 2488
2489 2490
2491 2492
2493 2494
2495 2496
2497 2498
2499 2500
2501 2502
2503 2504
2505 2506
2507 2508
2509 2510
2511 2512
2513 2514
2515 2516
2517 2518
2519 2520
2521 2522
2523 2524
2525 2526
2527 2528
2529 2530
2531 2532
2533 2534
2535 2536
2537 2538
2539 2540
2541 2542
2543 2544
2545 2546
2547 2548
2549 2550
2551 2552
2553 2554
2555 2556
2557 2558
2559 2560
2561 2562
2563 2564
2565 2566
2567 2568
2569 2570
2571 2572
2573 2574
2575 2576
2577 2578
2579 2580
2581 2582
2583 2584
2585 2586
2587 2588
2589 2590
2591 2592
2593 2594
2595 2596
2597 2598
2599 2600
2601 2602
2603 2604
2605 2606
2607 2608
2609 2610
2611 2612
2613 2614
2615 2616
2617 2618
2619 2620
2621 2622
2623 2624
2625 2626
2627 2628
2629 2630
2631 2632
2633 2634
2635 2636
2637 2638
2639 2640
2641 2642
2643 2644
2645 2646
2647 2648
2649 2650
2651 2652
2653 2654
2655 2656
2657 2658
2659 2660
2661 2662
2663 2664
2665 2666
2667 2668
2669 2670
2671 2672
2673 2674
2675 2676
2677 2678
2679 2680
2681 2682
2683 2684
2685 2686
2687 2688
2689 2690
2691 2692
2693 2694
2695 2696
2697 2698
2699 2700
2701 2702
2703 2704
2705 2706
2707 2708
2709 2710
2711 2712
2713 2714
2715 2716
2717 2718
2719 2720
2721 2722
2723 2724
2725 2726
2727 2728
2729 2730
2731 2732
2733 2734
2735 2736
2737 2738
2739 2740
2741 2742
2743 2744
2745 2746
2747 2748
2749 2750
2751 2752
2753 2754
2755 2756
2757 2758
2759 2760
2761 2762
2763 2764
2765 2766
2767 2768
2769 2770
2771 2772
2773 2774
2775 2776
2777 2778
2779 2780
2781 2782
2783 2784
2785 2786
2787 2788
2789 2790
2791 2792
2793 2794
2795 2796
2797 2798
2799 2800
2801 2802
2803 2804
2805 2806
2807 2808
2809 2810
2811 2812
2813 2814
2815 2816
2817 2818
2819 2820
2821 2822
2823 2824
2825 2826
2827 2828
2829 2830
2831 2832
2833 2834
2835 2836
2837 2838
2839 2840
2841 2842
2843 2844
2845 2846
2847 2848
2849 2850
2851 2852
2853 2854
2855 2856
2857 2858
2859 2860
2861 2862
2863 2864
2865 2866
2867 2868
2869 2870
2871 2872
2873 2874
2875 2876
2877 2878
2879 2880
2881 2882
2883 2884
2885 2886
2887 2888
2889 2890
2891 2892
2893 2894
2895 2896
2897 2898
2899 2900
2901 2902
2903 2904
2905 2906
2907 2908
2909 2910
2911 2912
2913 2914
2915 2916
2917 2918
2919 2920
2921 2922
2923 2924
2925 2926
2927 2928
2929 2930
2931 2932
2933 2934
2935 2936
2937 2938
2939 2940
2941 2942
2943 2944
2945 2946
2947 2948
2949 2950
2951 2952
2953 2954
2955 2956
2957 2958
2959 2960
2961 2962
2963 2964
2965 2966
2967 2968
2969 2970
2971 2972
2973 2974
2975 2976
2977 2978
2979 2980
2981 2982
2983 2984
2985 2986
2987 2988
2989 2990
2991 2992
2993 2994
2995 2996
2997 2998
2999 3000
3001 3002
3003 3004
3005 3006
3007 3008
3009 3010
3011 3012
3013 3014
3015 3016
3017 3018
3019 3020
3021 3022
3023 3024
3025 3026
3027 3028
3029 3030
3031 3032
3033 3034
3035 3036
3037 3038
3039 3040
3041 3042
3043 3044
3045 3046
3047 3048
3049 3050
3051 3052
3053 3054
3055 3056
3057 3058
3059 3060
3061 3062
3063 3064
3065 3066
3067 3068
3069 3070
3071 3072
3073 3074
3075 3076
3077 3078
3079 3080
3081 3082
3083 3084
3085 3086
3087 3088
3089 3090
3091 3092
3093 3094
3095 3096
3097 3098
3099 3100
3101 3102
3103 3104
3105 3106
3107 3108
3109 3110
3111 3112
3113 3114
3115 3116
3117 3118
3119 3120
3121 3122
3123 3124
3125 3126
3127 3128
3129 3130
3131 3132
3133 3134
3135 3136
3137 3138
3139 3140
3141 3142
3143 3144
3145 3146
3147 3148
3149 3150
3151 3152
3153 3154
3155 3156
3157 3158
3159 3160
3161 3162
3163 3164
3165 3166
3167 3168
3169 3170
3171 3172
3173 3174
3175 3176
3177 3178
3179 3180
3181 3182
3183 3184
3185 3186
3187 3188
3189 3190
3191 3192
3193 3194
3195 3196
3197 3198
3199 3200
3201 3202
3203 3204
3205 3206
3207 3208
3209 3210
3211 3212
3213 3214
3215 3216
3217 3218
3219 3220
3221 3222
3223 3224
3225 3226
3227 3228
3229 3230
3231 3232
3233 3234
3235 3236
3237 3238
3239 3240
3241 3242
3243 3244
3245 3246
3247 3248
3249 3250
3251 3252
3253 3254
3255 3256
3257 3258
3259 3260
3261 3262
3263 3264
3265 3266
3267 3268
3269 3270
3271 3272
3273 3274
3275 3276
3277 3278
3279 3280
3281 3282
3283 3284
3285 3286
3287 3288
3289 3290
3291 3292
3293 3294
3295 3296
3297 3298
3299 3300
3301 3302
3303 3304
3305 3306
3307 3308
3309 3310
3311 3312
3313 3314
3315 3316
3317 3318
3319 3320
3321 3322
3323 3324
3325 3326
3327 3328
3329 3330
3331 3332
3333 3334
3335 3336
3337 3338
3339 3340
3341 3342
3343 3344
3345 3346
3347 3348
3349 3350
3351 3352
3353 3354
3355 3356
3357 3358
3359 3360
3361 3362
3363 3364
3365 3366
3367 3368
3369 3370
3371 3372
3373 3374
3375 3376
3377 3378
3379 3380
3381 3382
3383 3384
3385 3386
3387 3388
3389 3390
3391 3392
3393 3394
3395 3396
3397 3398
3399 3400
3401 3402
3403 3404
3405 3406
3407 3408
3409 3410
3411 3412
3413 3414
3415 3416
3417 3418
3419 3420
3421 3422
3423 3424
3425 3426
3427 3428
3429 3430
3431 3432
3433 3434
3435 3436
3437 3438
3439 3440
3441 3442
3443 3444
3445 3446
3447 3448
3449 3450
3451 3452
3453 3454
3455 3456
3457 3458
3459 3460
3461 3462
3463 3464
3465 3466
3467 3468
3469 3470
3471 3472
3473 3474
3475 3476
3477 3478
3479 3480
3481 3482
3483 3484
3485 3486
      </DataArray>
      <DataArray type="Int32" Name="offsets" format="ascii">
6
12
18
24
30
36
42
48
54
60
66
72
78
84
90
96
102
108
114
120
126
132
138
144
150
156
162
168
174
180
186
192
198
204
210
216
222
228
234
240
246
252
258
264
270
276
282
288
294
300
306
312
318
324
330
336
342
348
354
360
366
372
378
384
390
396
402
408
414
420
426
432
438
444
450
456
462
468
474
480
486
492
498
504
510
516
522
528
534
540
546
552
558
564
570
576
582
588
594
600
606
612
618
624
630
636
642
648
654
660
666
672
678
684
690
696
702
708
714
720
726
732
738
744
750
756
762
768
774
780
786
792
798
804
810
816
822
828
834
840
846
852
858
864
870
876
882
888
894
900
906
912
918
924
930
936
942
948
954
960
966
972
978
984
990
996
1002
1008
1014
1020
1026
1032
1038
1044
1050
1056
1062
1068
1074
1080
1086
1092
1098
1104
1110
1116
1122
1128
1134
1140
1146
1152
1158
1164
1170
1176
1182
1188
1194
1200
1206
1212
1218
1224
1230
1236
1242
1248
1254
1260
1266
1272
1278
1284
1290
1296
1302
1308
1314
1320
1326
1332
1338
1344
1350
1356
1362
1368
1374
1380
1386
1392
1398
1404
1410
1416
1422
1428
1434
1440
1446
1452
1458
1464
1470
1476
1482
1488
1494
1500
1506
1512
1518
1524
1530
1536
1542
1548
1554
1560
1566
1572
1578
1584
1590
1596
1602
1608
1614
1620
1626
1632
1638
1644
1650
1656
1662
1668
1674
1680
1686
1692
1698
1704
1710
1716
1722
1728
1734
1740
1746
1752
1758
1764
1770
1776
1782
1788
1794
1800
1806
1812
1818
1824
1830
1836
1842
1848
1854
1860
1866
1872
1878
1884
1890
1896
1902
1908
1914
1920
1926
1932
1938
1944
1950
1956
1962
1968
1974
1980
1986
1992
1998
2004
2010
2016
2022
2028
2034
2040
2046
2052
2058
2064
2070
2076
2082
2088
2094
2100
2106
2112
2118
2124
2130
2136
2142
2148
2154
2160
2166
2172
2178
2184
2190
2196
2202
2208
2214
2220
2226
2232
2238
2244
2250
2256
2262
2268
2274
2280
2286
2292
2298
2304
2310
2316
2322
2328
2334
2340
2346
2352
2358
2364
2370
2376
2382
2388
2394
2400
2406
2412
2418
2424
2430
2436
2442
2448
2454
2460
2466
2472
2478
2484
2490
2496
2502
2508
2514
2520
2526
2532
2538
2544
2550
2556
2562
2568
2574
2580
2586
2592
2598
2604
2610
2616
2622
2628
2634
2640
2646
2652
2658
2664
2670
2676
2682
2688
2694
2700
2706
2712
2718
2724
2730
2736
2742
2748
2754
2760
2766
2772
2778
2784
2790
2796
2802
2808
2814
2820
2826
2832
2838
2844
2850
2856
2862
2868
2874
2880
2886
2892
2898
2904
2910
2916
2922
2928
2934
2940
2946
2952
2958
2964
2970
2976
2982
2988
2994
3000
3006
3012
3018
3024
3030
3036
3042
3048
3054
3060
3066
3072
3078
3084
3090
3096
3102
3108
3114
3120
3126
3132
3138
3144
3150
3156
3162
3168
3174
3180
3186
3192
3198
3204
3210
3216
3222
3228
3234
3240
3246
3252
3258
3264
3270
3276
3282
3288
3294
3300
3306
3312
3318
3324
3326
3328
3330
3332
3334
3336
3338
3340
3342
3344
3346
3348
3350
3352
3354
3356
3358
3360
3362
3364
3366
3368
3370
3372
3374
3376
3378
3380
3382
3384
3386
3388
3390
3392
3394
3396
3398
3400
3402
3404
3406
3408
3410
3412
3414
3416
3418
3420
3422
3424
3426
3428
3430
3432
3434
3436
3438
3440
3442
3444
3446
3448
3450
3452
3454
3456
3458
3460
3462
3464
3466
3468
3470
3472
3474
3476
3478
3480
3482
3484
3486
3488
3490
3492
3494
3496
3498
3500
3502
3504
3506
3508
3510
3512
3514
3516
3518
3520
3522
3524
3526
3528
3530
3532
3534
3536
3538
3540
3542
3544
3546
3548
3550
3552
3554
3556
3558
3560
3562
3564
3566
3568
3570
3572
3574
3576
3578
3580
3582
3584
3586
3588
3590
3592
3594
3596
3598
3600
3602
3604
3606
3608
3610
3612
3614
3616
3618
3620
3622
3624
3626
3628
3630
3632
3634
3636
3638
3640
3642
3644
3646
3648
3650
3652
3654
3656
3658
3660
3662
3664
3666
3668
3670
3672
3674
3676
3678
3680
3682
3684
3686
3688
3690
3692
3694
3696
3698
3700
3702
3704
3706
3708
3710
3712
3714
3716
3718
3720
3722
3724
3726
3728
3730
3732
3734
3736
3738
3740
3742
3744
3746
3748
3750
3752
3754
3756
3758
3760
3762
3764
3766
3768
3770
3772
3774
3776
3778
3780
3782
3784
3786
3788
3790
3792
3794
3796
3798
3800
3802
3804
3806
3808
3810
3812
3814
3816
3818
3820
3822
3824
3826
3828
3830
3832
3834
3836
3838
3840
3842
3844
3846
3848
3850
3852
3854
3856
3858
3860
3862
3864
3866
3868
3870
3872
3874
3876
3878
3880
3882
3884
3886
3888
3890
3892
3894
3896
3898
3900
3902
3904
3906
3908
3910
3912
3914
3916
3918
3920
3922
3924
3926
3928
3930
3932
3934
3936
3938
3940
3942
3944
3946
3948
3950
3952
3954
3956
3958
3960
3962
3964
3966
3968
3970
3972
3974
3976
3978
3980
3982
3984
3986
3988
3990
3992
3994
3996
3998
4000
4002
4004
4006
4008
4010
4012
4014
4016
4018
4020
4022
4024
4026
4028
4030
4032
4034
4036
4038
4040
4042
4044
4046
4048
4050
4052
4054
4056
4058
4060
4062
4064
4066
4068
4070
4072
4074
4076
4078
4080
4082
4084
4086
4088
4090
4092
4094
4096
4098
4100
4102
4104
4106
4108
4110
4112
4114
4116
4118
4120
4122
4124
4126
4128
4130
4132
4134
4136
4138
4140
4142
4144
4146
4148
4150
4152
4154
4156
4158
4160
4162
4164
4166
4168
4170
4172
4174
4176
4178
4180
4182
4184
4186
4188
4190
4192
4194
4196
4198
4200
4202
4204
4206
4208
4210
4212
4214
4216
4218
4220
4222
4224
4226
4228
4230
4232
4234
4236
4238
4240
4242
4244
4246
4248
4250
4252
4254
4256
4258
4260
4262
4264
4266
4268
4270
4272
4274
4276
4278
4280
4282
4284
4286
4288
4290
4292
4294
4296
4298
4300
4302
4304
4306
4308
4310
4312
4314
4316
4318
4320
4322
4324
4326
4328
4330
4332
4334
4336
4338
4340
4342
4344
4346
4348
4350
4352
4354
4356
4358
4360
4362
4364
4366
4368
4370
4372
4374
4376
4378
4380
4382
4384
4386
4388
4390
4392
4394
4396
4398
4400
4402
4404
4406
4408
4410
4412
4414
4416
4418
4420
4422
4424
4426
4428
4430
4432
4434
4436
4438
4440
4442
4444
4446
4448
4450
4452
4454
4456
4458
4460
4462
4464
4466
4468
4470
4472
4474
4476
4478
4480
4482
4484
4486
4488
4490
4492
4494
4496
4498
4500
4502
4504
4506
4508
4510
4512
4514
4516
4518
4520
4522
4524
4526
4528
4530
4532
4534
4536
4538
4540
4542
4544
4546
4548
4550
4552
4554
4556
4558
4560
4562
4564
4566
4568
4570
4572
4574
4576
4578
4580
4582
4584
4586
4588
4590
4592
4594
4596
4598
4600
4602
4604
4606
4608
4610
4612
4614
4616
4618
4620
4622
4624
4626
4628
4630
4632
4634
4636
4638
4640
4642
4644
4646
4648
4650
4652
4654
4656
4658
4660
4662
4664
4666
4668
4670
4672
4674
4676
4678
4680
4682
4684
4686
4688
4690
4692
4694
4696
4698
4700
4702
4704
4706
4708
4710
4712
4714
4716
4718
4720
4722
4724
4726
4728
4730
4732
4734
4736
4738
4740
4742
4744
4746
4748
4750
4752
4754
4756
4758
4760
4762
4764
4766
4768
4770
4772
4774
4776
4778
4780
4782
4784
4786
4788
4790
4792
4794
4796
4798
4800
4802
4804
4806
4808
4810
4812
4814
4816
4818
4820
4822
4824
4826
4828
4830
4832
4834
4836
4838
4840
4842
4844
4846
4848
4850
4852
4854
4856
4858
4860
4862
4864
4866
4868
4870
4872
4874
4876
4878
4880
4882
4884
4886
4888
4890
4892
4894
4896
4898
4900
4902
4904
4906
4908
4910
4912
4914
4916
4918
4920
4922
4924
4926
4928
4930
4932
4934
4936
4938
4940
4942
4944
4946
4948
4950
4952
4954
4956
4958
4960
4962
4964
4966
4968
4970
4972
4974
4976
4978
4980
4982
4984
4986
4988
4990
4992
4994
4996
4998
5000
5002
5004
5006
5008
5010
5012
5014
5016
5018
5020
5022
5024
5026
5028
5030
5032
5034
5036
5038
5040
5042
5044
5046
5048
5050
5052
5054
5056
5058
5060
5062
5064
5066
5068
5070
5072
5074
5076
5078
5080
5082
5084
5086
5088
5090
5092
5094
5096
5098
5100
5102
5104
5106
5108
5110
5112
5114
5116
5118
5120
5122
5124
5126
5128
5130
5132
5134
5136
5138
5140
5142
5144
5146
5148
5150
5152
5154
5156
5158
5160
5162
5164
5166
5168
5170
5172
5174
5176
5178
5180
5182
5184
5186
5188
5190
5192
5194
5196
5198
5200
5202
5204
5206
5208
5210
5212
5214
5216
5218
5220
5222
5224
5226
5228
5230
5232
5234
5236
5238
5240
5242
5244
5246
5248
5250
5252
5254
5256
5258
5260
5262
5264
5266
5268
5270
5272
5274
5276
5278
5280
5282
5284
5286
5288
5290
5292
5294
5296
5298
5300
5302
5304
5306
5308
5310
5312
5314
5316
5318
5320
5322
5324
5326
5328
5330
5332
5334
5336
5338
5340
5342
5344
5346
5348
5350
5352
5354
5356
5358
5360
5362
5364
5366
5368
5370
5372
5374
5376
5378
5380
5382
5384
5386
5388
5390
5392
5394
5396
5398
5400
5402
5404
5406
5408
5410
5412
5414
5416
5418
5420
5422
5424
5426
5428
5430
5432
5434
5436
5438
5440
5442
5444
5446
5448
5450
5452
5454
5456
5458
5460
5462
5464
5466
5468
5470
5472
5474
5476
5478
5480
5482
5484
5486
5488
5490
5492
5494
5496
5498
5500
5502
5504
5506
5508
5510
5512
5514
5516
5518
5520
5522
5524
5526
5528
5530
5532
5534
5536
5538
5540
5542
5544
5546
5548
5550
5552
5554
5556
5558
5560
5562
5564
5566
5568
5570
5572
5574
5576
5578
5580
5582
5584
5586
5588
5590
5592
5594
5596
5598
5600
5602
5604
5606
5608
5610
5612
      </DataArray>
      <DataArray type="UInt8" Name="types" format="ascii">
69
69
69
69
69
69
69
69
69
69
69
69
69
69
69
69
69
69
69
69
69
69
69
69
69
69
69
69
69
69
69
69
69
69
69
69
69
69
69
69
69
69
69
69
69
69
69
69
69
69
69
69
69
69
69
69
69
69
69
69
69
69
69
69
69
69
69
69
69
69
69
69
69
69
69
69
69
69
69
69
69
69
69
69
69
69
69
69
69
69
69
69
69
69
69
69
69
69
69
69
69
69
69
69
69
69
69
69
69
69
69
69
69
69
69
69
69
69
69
69
69
69
69
69
69
69
69
69
69
69
69
69
69
69
69
69
69
69
69
69
69
69
69
69
69
69
69
69
69
69
69
69
69
69
69
69
69
69
69
69
69
69
69
69
69
69
69
69
69
69
69
69
69
69
69
69
69
69
69
69
69
69
69
69
69
69
69
69
69
69
69
69
69
69
69
69
69
69
69
69
69
69
69
69
69
69
69
69
69
69
69
69
69
69
69
69
69
69
69
69
69
69
69
69
69
69
69
69
69
69
69
69
69
69
69
69
69
69
69
69
69
69
69
69
69
69
69
69
69
69
69
69
69
69
69
69
69
69
69
69
69
69
69
69
69
69
69
69
69
69
69
69
69
69
69
69
69
69
69
69
69
69
69
69
69
69
69
69
69
69
69
69
69
69
69
69
69
69
69
69
69
69
69
69
69
69
69
69
69
69
69
69
69
69
69
69
69
69
69
69
69
69
69
69
69
69
69
69
69
69
69
69
69
69
69
69
69
69
69
69
69
69
69
69
69
69
69
69
69
69
69
69
69
69
69
69
69
69
69
69
69
69
69
69
69
69
69
69
69
69
69
69
69
69
69
69
69
69
69
69
69
69
69
69
69
69
69
69
69
69
69
69
69
69
69
69
69
69
69
69
69
69
69
69
69
69
69
69
69
69
69
69
69
69
69
69
69
69
69
69
69
69
69
69
69
69
69
69
69
69
69
69
69
69
69
69
69
69
69
69
69
69
69
69
69
69
69
69
69
69
69
69
69
69
69
69
69
69
69
69
69
69
69
69
69
69
69
69
69
69
69
69
69
69
69
69
69
69
69
69
69
69
69
69
69
69
69
69
69
69
69
69
69
69
69
69
69
69
69
69
69
69
69
69
69
69
69
69
69
69
69
69
69
69
69
69
69
69
69
69
69
69
69
69
69
69
69
69
69
69
69
69
69
69
69
69
69
69
69
69
69
69
69
69
69
69
69
69
69
69
69
69
69
69
3
3
3
3
3
3
3
3
3
3
3
3
3
3
3
3
3
3
3
3
3
3
3
3
3
3
3
3
3
3
3
3
3
3
3
3
3
3
3
3
3
3
3
3
3
3
3
3
3
3
3
3
3
3
3
3
3
3
3
3
3
3
3
3
3
3
3
3
3
3
3
3
3
3
3
3
3
3
3
3
3
3
3
3
3
3
3
3
3
3
3
3
3
3
3
3
3
3
3
3
3
3
3
3
3
3
3
3
3
3
3
3
3
3
3
3
3
3
3
3
3
3
3
3
3
3
3
3
3
3
3
3
3
3
3
3
3
3
3
3
3
3
3
3
3
3
3
3
3
3
3
3
3
3
3
3
3
3
3
3
3
3
3
3
3
3
3
3
3
3
3
3
3
3
3
3
3
3
3
3
3
3
3
3
3
3
3
3
3
3
3
3
3
3
3
3
3
3
3
3
3
3
3
3
3
3
3
3
3
3
3
3
3
3
3
3
3
3
3
3
3
3
3
3
3
3
3
3
3
3
3
3
3
3
3
3
3
3
3
3
3
3
3
3
3
3
3
3
3
3
3
3
3
3
3
3
3
3
3
3
3
3
3
3
3
3
3
3
3
3
3
3
3
3
3
3
3
3
3
3
3
3
3
3
3
3
3
3
3
3
3
3
3
3
3
3
3
3
3
3
3
3
3
3
3
3
3
3
3
3
3
3
3
3
3
3
3
3
3
3
3
3
3
3
3
3
3
3
3
3
3
3
3
3
3
3
3
3
3
3
3
3
3
3
3
3
3
3
3
3
3
3
3
3
3
3
3
3
3
3
3
3
3
3
3
3
3
3
3
3
3
3
3
3
3
3
3
3
3
3
3
3
3
3
3
3
3
3
3
3
3
3
3
3
3
3
3
3
3
3
3
3
3
3
3
3
3
3
3
3
3
3
3
3
3
3
3
3
3
3
3
3
3
3
3
3
3
3
3
3
3
3
3
3
3
3
3
3
3
3
3
3
3
3
3
3
3
3
3
3
3
3
3
3
3
3
3
3
3
3
3
3
3
3
3
3
3
3
3
3
3
3
3
3
3
3
3
3
3
3
3
3
3
3
3
3
3
3
3
3
3
3
3
3
3
3
3
3
3
3
3
3
3
3
3
3
3
3
3
3
3
3
3
3
3
3
3
3
3
3
3
3
3
3
3
3
3
3
3
3
3
3
3
3
3
3
3
3
3
3
3
3
3
3
3
3
3
3
3
3
3
3
3
3
3
3
3
3
3
3
3
3
3
3
3
3
3
3
3
3
3
3
3
3
3
3
3
3
3
3
3
3
3
3
3
3
3
3
3
3
3
3
3
3
3
3
3
3
3
3
3
3
3
3
3
3
3
3
3
3
3
3
3
3
3
3
3
3
3
3
3
3
3
3
3
3
3
3
3
3
3
3
3
3
3
3
3
3
3
3
3
3
3
3
3
3
3
3
3
3
3
3
3
3
3
3
3
3
3
3
3
3
3
3
3
3
3
3
3
3
3
3
3
3
3
3
3
3
3
3
3
3
3
3
3
3
3
3
3
3
3
3
3
3
3
3
3
3
3
3
3
3
3
3
3
3
3
3
3
3
3
3
3
3
3
3
3
3
3
3
3
3
3
3
3
3
3
3
3
3
3
3
3
3
3
3
3
3
3
3
3
3
3
3
3
3
3
3
3
3
3
3
3
3
3
3
3
3
3
3
3
3
3
3
3
3
3
3
3
3
3
3
3
3
3
3
3
3
3
3
3
3
3
3
3
3
3
3
3
3
3
3
3
3
3
3
3
3
3
3
3
3
3
3
3
3
3
3
3
3
3
3
3
3
3
3
3
3
3
3
3
3
3
3
3
3
3
3
3
3
3
3
3
3
3
3
3
3
3
3
3
3
3
3
3
3
3
3
3
3
3
3
3
3
3
3
3
3
3
3
3
3
3
3
3
3
3
3
3
3
3
3
3
3
3
3
3
3
3
3
3
3
3
3
3
3
3
3
3
3
3
3
3
3
3
3
3
3
3
3
3
3
3
3
3
3
3
3
3
3
3
3
3
3
3
3
3
3
3
3
3
3
3
3
3
3
3
3
3
3
3
3
3
3
3
3
3
3
3
3
3
3
3
3
3
3
3
3
3
3
3
3
3
3
3
3
3
3
3
3
3
3
3
3
3
3
3
3
3
3
3
3
3
3
3
3
3
3
3
3
3
3
3
3
3
3
3
3
3
3
3
3
3
3
3
3
3
3
3
3
3
3
3
3
3
3
3
3
3
3
3
3
3
3
3
3
3
3
3
3
3
3
3
3
3
3
3
3
3
3
3
3
3
3
3
3
3
3
3
3
3
3
3
3
3
3
3
3
3
3
3
3
3
3
3
3
3
3
3
3
3
3
3
3
3
3
3
3
3
3
3
3
3
3
3
3
3
3
3
3
3
3
3
3
3
3
3
3
3
3
3
3
3
3
3
3
3
3
3
3
3
3
3
3
3
3
3
3
3
3
3
3
3
3
3
3
3
3
3
3
3
3
3
3
3
3
3
3
3
3
3
3
3
3
3
3
3
3
3
3
3
3
3
3
      </DataArray>
    </Cells>
    <PointData>
      <DataArray type="Float64" NumberOfComponents="2" Name="Displacement" format="ascii">
-6.44706e-05 -0.0262192
0.000103042 -0.0262842
-8.65948e-06 -0.0261797
3.10274e-05 -0.0261418
5.226e-05 -0.0261157
6.70102e-05 -0.026094
7.58028e-05 -0.0260779
8.1232e-05 -0.0260666
8.29584e-05 -0.0260571
8.23987e-05 -0.0260503
7.95354e-05 -0.026046
7.50538e-05 -0.0260438
6.89016e-05 -0.0260421
6.16483e-05 -0.0260416
5.33851e-05 -0.0260425
4.45421e-05 -0.0260444
3.51804e-05 -0.0260462
2.5707e-05 -0.0260489
1.63337e-05 -0.0260525
7.34844e-06 -0.0260571
-9.27405e-07 -0.0260617
-8.32794e-06 -0.0260677
-1.44929e-05 -0.0260752
-1.91917e-05 -0.0260845
-2.17212e-05 -0.0260947
-2.21918e-05 -0.0261078
-1.9785e-05 -0.0261241
-1.42927e-05 -0.0261445
-2.00933e-06 -0.0261673
1.57073e-05 -0.0261977
4.91678e-05 -0.0262396
-0.000420543 -0.0261793
-0.00033752 -0.0261812
-0.000255081 -0.0261858
-0.00016982 -0.0261975
-0.0072997 -0.0330596
-0.000501557 -0.0261808
-0.000582934 -0.026184
-0.000701834 -0.0261907
-0.000822091 -0.0262002
-0.000997115 -0.0262188
-0.00117475 -0.0262428
-0.00143596 -0.0262874
-0.0017011 -0.0263436
-0.00208943 -0.0264462
-0.00248111 -0.0265733
-0.00276397 -0.0266802
-0.00304574 -0.0267999
-0.00332489 -0.0269331
-0.00360022 -0.0270785
-0.00398918 -0.0273097
-0.00436547 -0.0275641
-0.00472511 -0.0278406
-0.00387562 -0.0364874
-0.00723654 -0.0337052
-0.00710072 -0.0342788
-0.00691069 -0.0347744
-0.00667804 -0.0351935
-0.00641938 -0.0355421
0.00472344 -0.0228505
-0.00324955 -0.0363958
-0.00250243 -0.0361592
-0.00162576 -0.0357534
0 0
-0.00183376 -0.00166611
-0.00259676 -0.00277181
-0.00271116 -0.00366712
-0.00227451 -0.00475586
-0.00166771 -0.0058072
-2.27178e-05 -0.0248537
0 0
0 0
0 0
0 0
0.00143624 -0.0240738
0.00288853 -0.0212277
0.00376054 -0.0152894
-0.00467765 -0.0229057
0.00184069 -0.00166345
0.00260768 -0.00278122
0.00272378 -0.00368192
0.00228842 -0.0047754
0.00168157 -0.00582737
0.0038855 -0.0365163
0.00325926 -0.0364241
0.0025167 -0.0361866
0.00163721 -0.0357861
0.00729427 -0.0331055
0.00438032 -0.0365333
0.00480597 -0.0364829
0.00518436 -0.0363944
0.00552304 -0.0362576
0.00584015 -0.0360857
0.000446455 -0.0262461
0.00727225 -0.0324251
0.00715389 -0.0316984
0.00692799 -0.0309412
0.00659021 -0.0301747
0.00628829 -0.0296515
0.00593301 -0.0291417
0.00552478 -0.0286546
0.00506946 -0.0281962
0.00472845 -0.0279012
0.00436987 -0.0276258
0.00399471 -0.0273721
0.00360691 -0.0271416
0.00305486 -0.0268651
0.00249231 -0.0266371
0.00210219 -0.0265115
0.00171638 -0.0264102
0.00145244 -0.026354
0.000365888 -0.0262489
0.000285776 -0.0262541
0.000201349 -0.0262659
-0.000500717 -0.0253603
0.00218654 -0.0252449
0.00173136 -0.0243218
0.00290607 -0.0196837
-0.00294192 -0.0208569
-0.000460747 -0.0273562
-0.000897507 -0.0249469
-0.00208737 -0.0308961
-0.000333136 -0.0265895
-0.00601504 -0.0319496
-0.00194584 -0.00354411
0.00191162 -0.00361079
-0.00315339 -0.0296179
-0.00112318 -0.0270179
-0.000337856 -0.0280359
-0.000471476 -0.0279956
0.000182895 -0.0279105
-0.000626326 -0.0279608
0.000508673 -0.0280926
0.000294057 -0.027206
-0.000108434 -0.0275976
7.68853e-05 -0.027703
-0.000400417 -0.027209
-0.000913792 -0.0281018
-0.0013014 -0.0283878
-0.0008786 -0.0284747
0.000443096 -0.0258754
-0.00034859 -0.0259022
-0.000584685 -0.0258979
0.000528999 -0.0283405
0.000823089 -0.0282799
-0.000989588 -0.0266213
0.000946024 -0.0265799
-8.71811e-05 -0.0279205
0.000310144 -0.0274552
0.000786582 -0.0268574
-0.000904726 -0.0268123
7.53869e-05 -0.0278881
0.000382152 -0.0259359
-9.98197e-05 -0.0259245
-0.000396523 -0.0259678
-0.000538236 -0.0277065
0.000774598 -0.0280405
0.000842635 -0.026019
0.000821588 -0.0264233
0.000137836 -0.0272029
-0.000259253 -0.0273803
0.000303403 -0.0275466
-9.19112e-05 -0.0273734
-0.000864901 -0.0264841
-0.000853031 -0.0260551
-0.0012096 -0.0280861
-0.00141654 -0.0288676
0.00105349 -0.0256502
0.000419228 -0.0257362
-0.00019974 -0.0258602
-0.000941436 -0.0258539
-0.00183624 -0.0293886
-0.00162665 -0.029508
0.00136137 -0.0291662
0.00127074 -0.0287274
0.00157923 -0.0285944
0.00153515 -0.028344
-0.00128946 -0.0256272
-0.00130333 -0.0261946
0.00123889 -0.0261701
0.00181046 -0.0253659
-0.000839815 -0.0288381
0.000141472 -0.0277633
0.00108084 -0.0266284
-0.000128897 -0.0277555
0.00123403 -0.0292685
0.00045754 -0.0259737
0.000289104 -0.0259307
2.30369e-05 -0.0259452
0.000136887 -0.0259323
-8.44746e-05 -0.0259802
-0.000218524 -0.0259973
-0.000139156 -0.0259961
-0.000379016 -0.026014
-0.000532485 -0.0274878
-0.000969135 -0.0277147
0.00125071 -0.027948
0.00067397 -0.0276861
0.000507579 -0.0260119
0.000597375 -0.0260489
0.00075701 -0.0261604
0.000716601 -0.0263212
0.000428162 -0.0267189
0.000129149 -0.0270406
-0.000155111 -0.0271116
-0.000451456 -0.0267913
-0.000748782 -0.0263839
-0.000760665 -0.0262242
-0.000558673 -0.026085
-0.000446663 -0.0260465
-0.00136245 -0.0279569
-0.00215749 -0.0291622
0.00152941 -0.0250353
-0.000108776 -0.0256995
-0.000851715 -0.0255739
-0.00261281 -0.030407
0.00223842 -0.0302185
0.00200161 -0.0290168
0.00162894 -0.0280684
-0.00201069 -0.0252656
0.00237912 -0.0248602
-0.00139559 -0.0296703
0.00144331 -0.0262249
-0.00260805 -0.024523
-0.00114757 -0.026598
0.000383398 -0.0284083
0.000334241 -0.0260109
0.000236328 -0.0259779
8.57506e-05 -0.025985
-4.029e-05 -0.0260098
-0.000136811 -0.0260266
-0.000247458 -0.0260546
-0.000673804 -0.0273789
0.000756968 -0.0274632
0.000433188 -0.0260976
0.0004587 -0.0263279
8.67806e-05 -0.0268356
-0.00011021 -0.0268946
-0.000443989 -0.026388
-0.00037216 -0.0261406
-0.00131112 -0.0273397
-0.00160445 -0.0276992
-0.00183902 -0.0281096
-0.00251259 -0.0287214
-0.00399891 -0.0306958
-0.00377368 -0.0312779
0.00273909 -0.022285
0.000543823 -0.0251137
-0.00223803 -0.0236044
-0.00344662 -0.0316232
0.00327796 -0.031562
0.00323245 -0.0307656
0.00300722 -0.0298589
0.00259291 -0.0290401
0.00192151 -0.028015
0.00180271 -0.0275515
-0.00274288 -0.0236864
0.00309828 -0.0230807
-0.00293499 -0.0315947
-0.000747564 -0.0292134
0.00285653 -0.0240129
0.00198101 -0.0308237
0.00326702 -0.0322727
-0.00192184 -0.0256206
0.000492063 -0.0286315
0.00024332 -0.0260561
0.000284817 -0.0260927
0.000193157 -0.0260144
0.000233172 -0.0260255
0.000106576 -0.0260101
0.000154512 -0.0260076
4.66823e-06 -0.0260255
5.06442e-05 -0.0260184
-6.33653e-05 -0.0260452
-2.62356e-05 -0.0260374
-0.000146319 -0.0260645
-0.000107001 -0.0260505
-0.000209085 -0.0261302
-0.000168286 -0.0260914
-0.000206169 -0.026923
-0.000486928 -0.0270971
-0.000931751 -0.0272685
0.0012151 -0.0272383
0.000917631 -0.0272658
0.000357117 -0.0270816
0.000129534 -0.026973
0.000343471 -0.02616
0.000338316 -0.0262539
0.000245726 -0.0264621
0.000121455 -0.026615
-0.000176148 -0.0266729
-0.000247919 -0.0265217
-0.000309244 -0.0263057
-0.000276258 -0.0262022
-0.00132016 -0.026809
-0.00180747 -0.0274206
-0.00285493 -0.0282312
-0.00408678 -0.0298088
-0.00493719 -0.0318542
0.00171271 -0.0144263
0.00147401 -0.0237189
9.61311e-05 -0.0250875
-0.00108481 -0.0244617
-0.00201718 -0.0155679
-0.00440211 -0.0331511
0.00452176 -0.0333054
0.00415179 -0.0306834
0.00250547 -0.0283705
0.00168143 -0.0270665
0.000236608 -0.00636219
-0.00253925 -0.018111
-0.00038929 -0.00608981
0.00218707 -0.0171305
-0.00260602 -0.0324365
0.00218202 -0.0250335
0.00376906 -0.0216515
0.00329754 -0.0332309
-0.00364978 -0.0223254
-0.00105639 -0.0266
0.000167733 -0.0260887
0.000139202 -0.0260439
9.66262e-05 -0.0260326
3.8271e-05 -0.0260393
-1.86798e-05 -0.0260528
-6.59014e-05 -0.0260751
-9.8989e-05 -0.0261236
-0.000438128 -0.0268159
-0.000925594 -0.0267942
0.000790891 -0.0268571
0.000261594 -0.0268104
0.00016978 -0.0262192
3.75025e-06 -0.0264966
-0.000168869 -0.0265239
0.000138246 -0.0266219
-4.93903e-05 -0.0265528
-0.000120614 -0.026256
-0.000831317 -0.0265216
0.000835512 -0.0266492
-0.00140879 -0.0264673
-0.00160461 -0.0267153
-0.00198773 -0.026841
-0.00227122 -0.0272398
-0.00290574 -0.0274739
-0.00348118 -0.0280862
-0.00417465 -0.0286712
-0.00497065 -0.0296319
-0.00574978 -0.0306116
0.00131454 -0.0152683
0.000508822 -0.0230241
-0.000477909 -0.0235823
-0.0012603 -0.0164466
-0.00600415 -0.0330966
-0.00576624 -0.0340228
-0.00539411 -0.0347539
-0.00504687 -0.0354906
-0.00399041 -0.0350021
0.00422133 -0.0352273
0.00507281 -0.0354563
0.00549715 -0.0348505
0.00580043 -0.0339711
0.00600597 -0.0328196
0.00556086 -0.0314004
0.00501489 -0.0300162
0.00443204 -0.0288238
0.003451 -0.0281702
0.00293445 -0.0272769
0.00238399 -0.0270168
0.00199413 -0.0268896
0.00140032 -0.0266167
0.00185235 -0.00642482
-5.7525e-06 -0.0116048
-0.00198961 -0.0170117
-0.00187807 -0.00629602
0.00163262 -0.0160084
-6.60062e-05 -0.0112745
-0.0027748 -0.0343619
-0.00127535 -0.0337663
0.00213899 -0.0257887
0.00316286 -0.0346066
-0.000746038 -0.0278939
0.00185036 -0.0334715
8.60137e-05 -0.0261365
8.08405e-05 -0.0261747
9.61046e-05 -0.0260978
0.00010232 -0.0260674
0.000100468 -0.0260807
0.000101333 -0.0260508
8.99686e-05 -0.026043
9.64124e-05 -0.0260463
7.32708e-05 -0.0260411
5.23744e-05 -0.0260429
6.31819e-05 -0.0260418
2.98203e-05 -0.0260475
7.00443e-06 -0.0260538
1.83785e-05 -0.0260505
-1.29164e-05 -0.0260623
-3.1016e-05 -0.0260747
-2.24334e-05 -0.0260681
-4.2379e-05 -0.0260919
-4.79898e-05 -0.0261186
-4.61704e-05 -0.0261042
-4.16052e-05 -0.026157
-2.70571e-05 -0.0262191
-3.5603e-05 -0.0261845
-0.000971464 -0.0263877
-0.0011489 -0.0264129
0.00114292 -0.0265597
0.000966992 -0.0265322
-0.000639895 -0.026724
-0.000362401 -0.0264202
0.000536642 -0.0267183
0.000373299 -0.0266919
0.000406356 -0.0265107
3.38861e-05 -0.0262935
-3.63345e-06 -0.0263621
3.31106e-05 -0.0264461
-1.22557e-05 -0.0263512
-0.000680601 -0.026345
0.000709295 -0.0264013
-0.000480006 -0.0263316
-0.000562201 -0.0263352
0.000592175 -0.0263915
0.000511076 -0.0263877
-0.000294824 -0.0262878
-0.000126857 -0.0262927
-0.000213828 -0.0262891
0.000334408 -0.0263901
0.000255464 -0.0263884
0.000175444 -0.0263879
0.000241471 -0.0264964
-0.000183456 -0.0263692
0.000578974 -0.0265202
-0.000543848 -0.0264719
-0.000123797 -0.0264012
0.000134015 -0.0263501
0.000506738 -0.0268938
-0.000744215 -0.0269702
0.00109874 -0.0267877
-0.0011253 -0.0265732
-0.000112324 -0.0261725
-8.33143e-05 -0.0260946
-4.3629e-05 -0.0260623
8.95953e-06 -0.0260457
6.8555e-05 -0.0260346
0.000121099 -0.0260351
0.000151035 -0.026063
0.000190636 -0.0261374
0.00209264 -0.031846
-0.000921876 -0.0304083
-0.000190359 -0.0105291
-5.81984e-05 -0.0111306
0.00228758 -0.027362
0.0035764 -0.0293114
0.00464896 -0.0322075
0.00438927 -0.0341812
-0.00386334 -0.033479
-0.0047366 -0.0326109
-0.00224177 -0.0213248
0.0023831 -0.0199336
-0.00498334 -0.030953
-0.00335615 -0.0288961
-0.00210391 -0.0277991
-0.00152072 -0.0270471
4.45271e-05 -0.0267234
-0.000156913 -0.0266656
-0.00327996 -0.0221565
0.00339108 -0.0213928
0.000352328 -0.0249904
-0.000464703 -0.0262212
-0.000378931 -0.0266081
0.000363294 -0.0265443
0.000508055 -0.0261664
0.000224711 -0.0272238
0.00135365 -0.0276653
-0.00112823 -0.0275728
-0.000260109 -0.0271702
-0.000287805 -0.02609
-0.000201309 -0.0260319
-7.87833e-05 -0.0260238
8.46991e-06 -0.0259959
0.000169133 -0.0259754
0.000296918 -0.0259877
0.000362244 -0.0260507
-0.000684101 -0.0271515
0.00182031 -0.0301681
-0.000420834 -0.0285246
-0.00213206 -0.0302919
0.00245487 -0.0241975
-0.0016739 -0.0249851
0.00191489 -0.0284805
0.00218717 -0.0296763
-0.000504961 -0.0258239
0.000574009 -0.0254473
-0.00292314 -0.0301447
-0.00160937 -0.0283476
-0.00147465 -0.0261699
0.00141243 -0.0261761
-0.000600859 -0.0259869
-0.00107834 -0.0261422
-0.000514928 -0.0269371
0.000487553 -0.0268618
0.00102156 -0.0260924
0.000650518 -0.0259579
0.00116895 -0.0281875
-0.000824859 -0.0278234
-0.00021159 -0.0259628
5.38757e-05 -0.0258837
0.000433145 -0.028326
0.000580615 -0.0272272
0.000630845 -0.028332
-0.000757983 -0.0285312
0.000401554 -0.0278546
-0.000265027 -0.0275712
-0.000241304 -0.0274935
4.29202e-05 -0.027583
-0.00101517 -0.0283742
-0.00221392 -0.0259959
0.000620371 -0.035098
-0.0010602 -0.030519
0.000422173 -0.0320043
5.59936e-05 -0.0346374
0.000800005 -0.0300494
-0.000609106 -0.0350724
0.00322167 -0.0246092
0.00155714 -0.0287068
-3.815e-05 -0.0346065
9.90409e-05 -0.0312836
0.000725558 -0.0280072
0.000743913 -0.0135545
0.00184306 -0.0157657
0.000974705 -0.0130353
0.00302441 -0.0187345
-0.000913371 -0.00709693
-1.83855e-05 -0.00866942
0.000274702 -0.0111676
-0.000201581 -0.0110298
0.000579998 -0.0131976
-0.00107133 -0.00856469
-0.000582987 -0.00912499
-0.00152854 -0.00686357
0.000961661 -0.0105823
0.001716 -0.0123367
-0.0021225 -0.00550595
-0.00114696 -0.00826787
-0.000956895 -0.0142422
-0.000998788 -0.0132698
-0.00201306 -0.0164431
-0.000294134 -0.0113765
0.000924237 -0.00711786
2.3216e-05 -0.00869687
-0.00327222 -0.0195371
-0.000870722 -0.0139943
3.82939e-05 -0.0114944
0.00102589 -0.00878523
0.00152872 -0.00695435
0.00056772 -0.00930096
0.00212224 -0.00557669
-0.000959082 -0.0106184
-0.00170983 -0.0123833
0.00102747 -0.00861431
-0.000790884 -0.0210281
0.000603485 -0.0226208
0.00067812 -0.0192833
0.000300205 -0.0247225
0 0
0 0
-0.000659047 -0.00986083
-0.00188197 -0.0191835
-0.00140131 -0.0224879
0.000854959 -0.020191
-0.000654716 -0.0188002
-0.000672807 -0.0222432
0.000698261 -0.00895787
0 0
-0.00371325 -0.015233
-0.000380581 -0.0245795
0.00155661 -0.0215083
0.00193826 -0.0178025
-0.00262271 -0.0244499
-0.00266428 -0.0245416
-0.000924921 -0.0268692
-0.00406191 -0.0224218
0.000625827 -0.0290316
-0.00284513 -0.0241177
-0.00339151 -0.0226504
0.00342538 -0.0232095
0.00218615 -0.0252
0.0036203 -0.0233046
0.000606989 -0.0273753
0.00411428 -0.0219215
0.00358567 -0.0217051
0.00323228 -0.0233345
0.0031206 -0.0198333
0.00317555 -0.0197237
0.00190984 -0.0167038
0.000988744 -0.0138862
0.00294747 -0.0194492
-0.00320066 -0.0203231
-0.00227811 -0.0176587
-0.00340121 -0.0204402
-0.00136012 -0.0147834
-0.0031173 -0.0203687
-0.000989077 -0.0112158
-0.00194909 -0.015382
-0.0010873 -0.0104278
-0.00244231 -0.0186225
0.000361831 -0.00354698
0.000172947 -0.00885882
-0.00115515 -0.0132441
-0.000395871 -0.0249595
-0.000324066 -0.0248311
-0.000965061 -0.0240766
-2.70472e-05 -0.0250774
-0.00172935 -0.0232861
-0.000411521 -0.0249843
0.000223467 -0.025017
0.000707541 -0.0246266
0.00115199 -0.0233711
0.000434332 -0.02451
0.00201339 -0.0221945
0.000977785 -0.0245859
0.00068177 -0.0103687
0.000903091 -0.0095424
0.00179475 -0.014186
-0.000428849 -0.00344039
0.00233693 -0.0172279
0.000818533 -0.0123959
-0.00037798 -0.00842795
-0.00273632 -0.0243178
-0.00193624 -0.0255005
-0.000847659 -0.0269372
-0.00131154 -0.0264161
0.00331456 -0.0227846
0.00209498 -0.0251734
0.000754322 -0.026965
0.000850986 -0.0268499
-0.00304682 -0.0234581
-0.00234182 -0.0250192
-0.00170176 -0.0259406
-0.00207394 -0.0254263
-0.00234084 -0.02494
-0.00242994 -0.0245758
-0.00276662 -0.0240165
-0.00192159 -0.0250727
-0.00226747 -0.0244476
-0.00307398 -0.0229095
-0.00184835 -0.025634
0.00248318 -0.0244786
0.00216832 -0.0248409
0.00210851 -0.0251493
0.00172355 -0.0256831
0.00143183 -0.0257716
0.00194398 -0.0255299
-0.00150888 -0.025331
-0.00166467 -0.025483
-0.00155537 -0.0257751
-0.00125253 -0.0258398
-0.00126292 -0.0253427
-0.00109571 -0.0255932
-0.000885228 -0.0257542
-0.000676535 -0.0257155
0.000500946 -0.0256067
0.000215158 -0.0255995
0.000171984 -0.0257211
-1.29539e-05 -0.0258009
-0.000330298 -0.0257661
0.000216128 -0.0258182
0.00143982 -0.0255388
0.00173611 -0.0251619
0.00130557 -0.0253784
0.00201894 -0.0246865
0.00105078 -0.0252815
0.000863091 -0.0255412
0.00111178 -0.0258185
0.000737184 -0.0256948
0.000448115 -0.0258087
0.000561176 -0.0259041
0.0002537 -0.0258773
0.000728587 -0.0257864
0.000869409 -0.0258215
0.00120813 -0.00183789
0.00119254 -0.00470228
0.000923277 -0.00244695
0.00127047 -0.00691336
0 0
0 0
0.00148357 -0.00148798
0.00253328 -0.00410254
0.0020352 -0.00511517
0.00228523 -0.0029817
-0.00247432 -0.0145095
-0.0030029 -0.0157674
-0.00229568 -0.00295487
-0.00207072 -0.00501463
-0.00253395 -0.00405758
-0.00139379 -0.00661614
0.00248441 -0.0144471
0.00300373 -0.0156846
-0.0014932 -0.0014815
-0.000958276 -0.00240549
-0.00127875 -0.00457266
-0.00121739 -0.00181993
-0.00291914 -0.0211954
-0.00147537 -0.0240494
-0.001611 -0.0244503
-0.00104028 -0.0247141
-0.00169556 -0.0240025
-0.000257669 -0.0250567
-0.00232162 -0.0225889
-0.00201065 -0.02436
-0.00133654 -0.0249142
-0.00272003 -0.0223654
-0.00296274 -0.0224275
-0.00255947 -0.0235195
-0.00314066 -0.0213703
-0.00267518 -0.0208358
-0.00220277 -0.0167409
-0.00288368 -0.019502
-0.00263692 -0.018555
0.00240689 -0.0173093
0.00266045 -0.0184516
0.00186368 -0.0156962
0.00313122 -0.0203978
0.00271234 -0.019471
0.00299998 -0.0224744
0.003167 -0.0215221
0.00293945 -0.0210351
0.00329778 -0.0222556
0.00261177 -0.0211642
0.00267003 -0.0233015
0.00283256 -0.0236565
0.0016708 -0.0246614
0.00116093 -0.0248275
0.00108589 -0.0250544
0.00105611 -0.0247121
0.000461223 -0.025017
0.000572761 -0.0252536
0.00216501 -0.024167
0.00218711 -0.0229118
0.00167255 -0.0239928
0.00230706 -0.023487
0.00278582 -0.0241807
0.0025214 -0.0246813
0.00307113 -0.0234494
0.00154967 -0.0260138
0.00278427 -0.0240839
0.00233694 -0.0250085
0.00178953 -0.0257865
-0.000287855 -0.0255496
-0.000697256 -0.0254707
-0.000469978 -0.025658
-0.00110692 -0.0252361
6.25048e-05 -0.0254392
-0.000181613 -0.025151
-0.000709128 -0.0251475
4.8928e-06 -0.0252699
0.000302051 -0.0327336
-0.000628422 -0.0326557
-0.000468895 -0.0338346
-0.000507361 -0.0306903
-0.00119313 -0.0320873
-0.000969965 -0.0344259
0.000558786 -0.0340267
0.00121328 -0.0333025
0.000865184 -0.0317566
0.00106691 -0.0282173
0.000340447 -0.0296414
0.000771666 -0.0301307
-0.000167444 -0.0293193
0.00168209 -0.0307113
0.00177911 -0.0271696
0.0013823 -0.0269825
0.00379157 -0.0203032
0.00353719 -0.0171753
0.00314974 -0.0182345
0.0022207 -0.0173347
0.00266614 -0.0166517
0.00398841 -0.0192473
-0.00353271 -0.0172692
-0.00395829 -0.0208487
-0.00325078 -0.0187455
-0.00276502 -0.0171323
-0.00251473 -0.0182357
-0.00392758 -0.0193373
-0.00342799 -0.0235229
-0.00347456 -0.0238264
-0.00249256 -0.0249933
-0.00438348 -0.0225004
-0.00330854 -0.024631
-0.00143321 -0.0270163
-0.00170847 -0.0260678
-0.00342399 -0.0232745
-0.00383264 -0.0223341
-1.38647e-05 -0.0284211
0.000721842 -0.0294364
-9.54541e-05 -0.0280232
0.00148249 -0.0310129
0.00140871 -0.0304392
-0.000222112 -0.0277374
-0.00100805 -0.0266657
-0.000835563 -0.0272177
8.27708e-05 -0.0290573
-0.0027774 -0.0242232
-0.0031514 -0.023429
-0.00316484 -0.0235049
-0.00318988 -0.0231321
-0.00334844 -0.0223505
-0.003508 -0.0224733
-0.00324337 -0.0234358
-0.00184251 -0.0255454
-0.00225887 -0.0250058
0.00133583 -0.0263558
0.000653761 -0.0275816
0.00143573 -0.0265164
-0.000214002 -0.0288923
0.00217394 -0.0254024
0.00219647 -0.0250633
0.00141925 -0.0261131
0.0035072 -0.023726
0.00412606 -0.0228883
0.00399909 -0.0226305
0.00395766 -0.0237765
0.00445942 -0.0221792
0.00392786 -0.0217586
0.00388839 -0.0223951
0.00298191 -0.0243608
0.00265637 -0.0252422
0.00363502 -0.0224164
0.00350535 -0.0225525
0.00332208 -0.0232575
0.00347929 -0.0215164
0.00345408 -0.0223401
0.00283008 -0.0240923
0.00283531 -0.0241318
0.00373431 -0.022454
0.00366926 -0.0216648
0.00368429 -0.0207916
0.00376058 -0.0206499
0.00311561 -0.0194181
0.00236577 -0.0178528
0.00358942 -0.020795
0.00347926 -0.0207267
0.00344387 -0.0208224
0.00333325 -0.0206824
0.00260027 -0.0184363
-0.00337501 -0.0201889
-0.00398653 -0.0212907
-0.00381388 -0.0213768
-0.0036719 -0.0214761
-0.00270329 -0.0187863
-0.00351258 -0.0213027
-0.00345394 -0.0215615
-0.00284006 -0.019189
-0.0033275 -0.0213049
-0.00154207 -0.0259888
-0.000955056 -0.0267675
-0.00139063 -0.0262399
-0.00144072 -0.0262212
-0.000771049 -0.0270551
-0.00194004 -0.0255518
0.00069104 -0.0271017
-1.336e-05 -0.0280677
-0.000118484 -0.0283589
0.000135084 -0.0277924
-0.000575487 -0.0288112
-0.000852029 -0.029698
0.00143294 -0.0260411
0.00146425 -0.0260354
0.000811331 -0.0268832
0.00146582 -0.0260027
0.00021349 -0.0276742
0.00214258 -0.0250861
0.00255972 -0.0245246
0.00180921 -0.02562
0.000484277 -0.0273347
0.0012301 -0.0263888
0.00192879 -0.0255678
0.00226659 -0.0250256
-0.000120446 -0.0280988
0.000860041 -0.0268849
0.0010495 -0.0266854
0.000386883 -0.0274668
-0.000200551 -0.0277315
0.000425262 -0.028502
-0.000219645 -0.027708
0.00117811 -0.0294614
0.00110496 -0.0292754
-0.000178027 -0.0277402
-0.000244671 -0.0276733
0.000698037 -0.0308689
0.00118652 -0.0327862
0.00140197 -0.0318373
0.000542848 -0.0337312
0.00132417 -0.0342456
0.00202902 -0.0325646
-6.87282e-05 -0.0300368
-0.00079916 -0.0325335
-3.73276e-06 -0.0330337
-0.000260816 -0.0313042
-0.000552645 -0.0340467
-0.000788863 -0.0290104
-0.00143791 -0.0314971
-0.00119085 -0.0333406
-0.00251335 -0.0274898
-0.00203018 -0.0300895
-0.00153548 -0.0283998
-0.00188027 -0.0324248
-0.00264936 -0.0312883
0.00255043 -0.0340772
0.00222096 -0.0350449
0.0028952 -0.0354048
-0.00350021 -0.0297662
-0.00407735 -0.027336
0.0035694 -0.0357381
0.00268927 -0.0333275
0.0030923 -0.0271771
0.00225697 -0.0269378
0.00228911 -0.0290781
0.0018831 -0.0323989
0.00264949 -0.0312672
-0.00210247 -0.0340507
-0.00267792 -0.0353171
-0.00193267 -0.0351733
-0.00338729 -0.0356565
0.00343561 -0.0297679
0.00416956 -0.0273692
-0.00196016 -0.0326651
0.0039423 -0.0284976
0.00439271 -0.0282428
0.00389981 -0.0279229
0.00474235 -0.0285281
0.0011929 -0.0263095
0.00101663 -0.0262858
0.00351967 -0.0276771
0.00350266 -0.0287578
0.00399067 -0.0290966
0.00472313 -0.0294271
0.0054553 -0.0296145
0.00518269 -0.0290004
0.00580113 -0.0301266
0.000843518 -0.0262677
0.000724717 -0.026258
0.0042992 -0.0296783
0.00578891 -0.0321285
0.00653763 -0.0323169
0.00636128 -0.0315915
0.00665683 -0.0330036
0.000607237 -0.0262511
0.000526707 -0.0262478
0.00604032 -0.0308435
0.00506601 -0.0318558
0.00533415 -0.0325571
0.00588895 -0.0334157
0.00645708 -0.0342054
0.00660693 -0.0336408
0.00629213 -0.0346842
0.00613631 -0.035859
0.00641755 -0.0355787
0.00526696 -0.0331304
0.00527907 -0.0351538
0.00562272 -0.035726
0.00585934 -0.0354346
0.00532548 -0.0359253
0.00667552 -0.0352322
0.00690735 -0.0348143
0.00609802 -0.0351098
0.00495073 -0.0345688
0.00476103 -0.0348731
0.00465547 -0.035354
0.00455323 -0.0359725
0.00496321 -0.036005
0.00409133 -0.0359034
0.00709662 -0.0343212
0.00723159 -0.0337483
0.00431965 -0.0346849
-0.00453704 -0.0352778
-0.00494515 -0.0360042
-0.00444817 -0.0358837
-0.005309 -0.0359215
-0.00613704 -0.0358236
-0.0058396 -0.036052
-0.00397456 -0.035807
-0.00395776 -0.0342243
-0.004522 -0.0346122
-0.00521795 -0.0351215
-0.00581367 -0.0353802
-0.00560721 -0.0357211
-0.00605027 -0.035054
-0.00552072 -0.0362256
-0.00518068 -0.0363626
-0.00465611 -0.034224
-0.00587336 -0.0335744
-0.0065972 -0.0337488
-0.00643676 -0.0342122
-0.00664443 -0.033121
-0.0048 -0.0364516
-0.00437414 -0.0365031
-0.00627371 -0.0346891
-0.00528468 -0.0333537
-0.00537178 -0.0328977
-0.00536609 -0.030127
-0.00544058 -0.0293828
-0.00582507 -0.0298803
-0.00500383 -0.0289149
-0.00506699 -0.0281368
-0.0055235 -0.0285956
-0.00616144 -0.0303858
-0.0053569 -0.0308011
-0.0049636 -0.0303143
-0.00382845 -0.0283785
-0.00391387 -0.0278477
-0.00425989 -0.0281398
-0.00353247 -0.0276016
-0.00593335 -0.0290842
-0.00628969 -0.0295947
-0.00461125 -0.028426
-0.00375824 -0.0288011
-0.00341054 -0.0285062
-0.00659314 -0.0301198
-0.00324731 -0.0272899
-0.0029717 -0.0271477
-0.00268912 -0.0270282
-0.00249478 -0.0276594
-0.00693129 -0.0308886
-0.00266456 -0.0244187
-0.00172765 -0.0257694
-0.00188483 -0.0254725
0.00380649 -0.0343142
0.00326536 -0.0338684
0.00371842 -0.0349368
0.0027215 -0.0325916
0.00385675 -0.0337514
0.00294748 -0.0240596
0.0028972 -0.0242677
0.00352195 -0.023229
-0.00336692 -0.0338723
-0.00342372 -0.0346952
-0.00273841 -0.0333717
-0.00182313 -0.0315127
-0.00325381 -0.033
0.00315308 -0.0197955
0.00245778 -0.0181038
-0.0032894 -0.020368
-0.0027497 -0.0189023
0.00304061 -0.0288378
0.00296782 -0.0282942
0.00286544 -0.0277615
0.00238686 -0.0278801
0.00486357 -0.0310682
0.00528938 -0.0307212
0.00455963 -0.0303907
0.00385825 -0.0300037
0.0043938 -0.0314542
0.00505177 -0.034134
0.00563691 -0.0344219
0.00516464 -0.0336959
0.00456354 -0.0327649
0.00444921 -0.0337318
-0.00509726 -0.0336536
-0.00556746 -0.0343965
-0.00494148 -0.0340067
-0.00411868 -0.0333112
-0.00455444 -0.0328886
-0.00411722 -0.0292626
-0.00457541 -0.0291538
-0.00452142 -0.0297392
-0.00454177 -0.0303847
-0.00372263 -0.0293523
-0.00287395 -0.0278654
-0.00319252 -0.0277793
-0.00316403 -0.0281682
-0.0031047 -0.028563
-0.00247753 -0.0280145
-0.00245489 -0.024773
-0.00239263 -0.0249112
0.00264331 -0.0316104
0.0026858 -0.0320571
0.00328559 -0.032707
0.00204775 -0.031253
0.00386907 -0.0332696
0.00257026 -0.0312175
0.00188786 -0.0304516
0.00271252 -0.0242686
0.00303579 -0.0236879
0.00307973 -0.0291898
0.00254337 -0.0287128
0.00220312 -0.0284407
0.00225233 -0.0287586
0.00310956 -0.030316
0.00367395 -0.0307622
0.00358305 -0.0302802
0.00396101 -0.0315062
0.00327401 -0.0296158
0.00258807 -0.0297932
0.00271308 -0.0302202
0.00325903 -0.0319023
0.00390199 -0.0328476
0.00393107 -0.0324567
0.00395504 -0.0319458
0.00256202 -0.030927
-0.00317828 -0.0316237
-0.00394476 -0.0323953
-0.00369472 -0.0324401
-0.00410125 -0.0321596
-0.00342522 -0.0325282
-0.00253406 -0.0309224
-0.00280055 -0.030988
-0.00387393 -0.0309997
-0.00447883 -0.0312811
-0.00435659 -0.0315953
-0.00448865 -0.030843
-0.00495126 -0.0314147
-0.00482383 -0.0322437
-0.00427064 -0.0319528
-0.00335247 -0.0307087
-0.00345982 -0.03044
-0.00293031 -0.0288195
-0.00267559 -0.0284928
-0.00230173 -0.0282631
-0.00205471 -0.0285441
0.0013383 -0.0299937
0.0012535 -0.0297031
0.000547994 -0.0287746
0.00250347 -0.0294379
0.002796 -0.029449
0.00229129 -0.0290425
0.00195302 -0.0287536
0.00208654 -0.0293496
0.00276636 -0.0308865
0.00323965 -0.031166
0.00273004 -0.030525
0.00220159 -0.0299519
0.00201692 -0.0302115
-0.00319632 -0.030867
-0.00359666 -0.0314629
-0.00303355 -0.0310081
-0.00236392 -0.030367
-0.00275715 -0.0302904
0.0015167 -0.0296948
0.000813757 -0.0288626
0.00040171 -0.028372
0.000825889 -0.0287827
-0.000357628 -0.0283409
-0.00110388 -0.0292251
-0.000630018 -0.0287118
-0.00148877 -0.0295695
-0.00176188 -0.0300095
-0.000921737 -0.0291379
-0.000105863 -0.0280039
0.00172456 -0.0291948
0.00162971 -0.0288892
0.00121234 -0.0284642
0.000946742 -0.0285431
0.00129261 -0.029224
0.00173777 -0.0297611
0.00179703 -0.0296823
0.00177019 -0.0294419
0.000895331 -0.028761
-0.00172561 -0.0294579
-0.00222213 -0.0298883
-0.00212094 -0.0299693
-0.00237754 -0.0297836
-0.00187363 -0.0298879
-0.00118665 -0.0290086
-0.00129262 -0.0289796
-0.00253858 -0.0296475
-0.00198748 -0.0292927
-0.00157693 -0.0287785
-0.00187832 -0.0287502
-0.00123306 -0.0291969
-0.000789516 -0.0286847
0.00130836 -0.0289509
0.000988505 -0.0287387
-0.00357912 -0.0301557
-0.00361582 -0.0297294
-0.00403063 -0.0302677
-0.00324335 -0.0292748
-0.00302658 -0.0298969
-0.00232294 -0.0289635
-0.00283111 -0.0291669
-0.00265097 -0.029405
-0.00547031 -0.0319295
-0.00600287 -0.0325402
-0.00549479 -0.0324998
-0.00669071 -0.0325463
-0.00551333 -0.0314647
-0.00647636 -0.0311563
-0.0065751 -0.0318291
-0.00588047 -0.0312978
-0.00715802 -0.0316482
-0.00727621 -0.0323765
-0.00144888 -0.0301205
-0.00236189 -0.031606
-0.00175143 -0.0309135
-0.00303755 -0.0322935
-0.00128614 -0.029732
-0.00218861 -0.0306675
-0.00251001 -0.0312732
-0.00173632 -0.0302363
-0.000327987 -0.0240224
-0.000776555 -0.0235729
-0.00215375 -0.0167899
-0.00253367 -0.018009
-0.00221782 -0.0195703
-0.00233206 -0.0208899
0.00154216 -0.0226857
0.00164639 -0.0216282
-0.000325695 -0.0274739
-0.000845038 -0.0268727
0.00223124 -0.0233884
0.00219428 -0.0238349
0.0001046 -0.0248905
0.000394087 -0.0247515
-0.00267832 -0.00360999
-0.00242013 -0.0035599
-0.000662247 -0.00301977
-0.000590974 -0.00149131
0.00148336 -0.0229163
0.0011096 -0.0227665
0.00255977 -0.0151955
0.00244948 -0.0181357
-0.00253697 -0.0234099
-0.00255819 -0.0228355
-4.09589e-05 -0.00013015
-0.000254255 -0.00147007
-0.00340415 -0.0186774
-0.00186805 -0.0168255
0.00342805 -0.0215324
0.00326896 -0.0204066
-0.00112488 -0.014743
-0.00069713 -0.0132103
-0.000849232 -0.0109417
-0.00102003 -0.010352
-0.000477373 -0.0249119
-0.000465716 -0.0249459
-0.00216379 -0.0168862
-0.00251905 -0.0179545
0.00100175 -0.000966353
0.00180341 -0.00180004
0.00111736 -0.0257293
0.00120301 -0.0258569
0.00255075 -0.0236833
0.00239245 -0.0242436
-0.00384483 -0.0203094
-0.00270717 -0.0183362
0.00124064 -0.0252284
0.000986229 -0.0251837
0.00207097 -0.0159987
0.00178513 -0.0157996
0.00117594 -0.0256577
0.000980838 -0.0256066
-0.00158815 -0.0258516
-0.00131976 -0.0262363
0.002239 -0.0250417
0.00222184 -0.0251467
1.31633e-05 -0.0114621
0.000750487 -0.00938157
0.00142312 -0.0192894
0.00174581 -0.0174842
-0.000462136 -0.0234679
-0.000966664 -0.0230492
-0.00080902 -0.0227424
-0.000315379 -0.0232339
0.000118599 -0.00671658
0.00027545 -0.00820974
-0.000690538 -0.0264068
-0.000294638 -0.0265472
-0.00260117 -0.0185087
-0.00333764 -0.0204453
0.000170981 -0.025969
7.98176e-05 -0.0259326
-0.000162796 -0.0184794
4.39284e-05 -0.0202492
-0.00136748 -0.022297
-0.00257562 -0.0220341
-0.00177051 -0.023154
-0.00125666 -0.0225876
-0.00219982 -0.0250686
-0.00187596 -0.0253868
0.00282963 -0.0193139
0.00293999 -0.0196399
-0.00352979 -0.0183588
-0.00336274 -0.0199758
-0.00169317 -0.0145119
-0.00137397 -0.011897
-0.000971724 -0.0116441
-0.000891362 -0.012253
-0.00132467 -0.013946
-0.00186715 -0.015868
-0.00124339 -0.0114136
-0.00111336 -0.0120192
-0.00274955 -0.0234281
-0.00247663 -0.0238695
-0.00215014 -0.0239937
-0.00178196 -0.024362
-0.00204603 -0.0241077
-0.00213605 -0.0242752
-0.00259235 -0.0244498
-0.00240347 -0.0246717
-0.000383255 -0.0101694
0.000211475 -0.0092545
-0.000252339 -0.0250284
-0.000625293 -0.0249273
-0.00229017 -0.0212323
-0.00189792 -0.021876
0.00247231 -0.0178627
0.00212595 -0.0165957
-0.000575427 -0.0250541
-0.000547457 -0.0250019
-0.00174781 -0.025287
-0.00183225 -0.0253967
-0.00275207 -0.0235543
-0.00295334 -0.0227422
0.0027429 -0.0194027
0.00251166 -0.0178183
-0.00042695 -0.0243949
-0.000814502 -0.0244258
0.00162781 -0.00544256
0.00135217 -0.00491268
-0.00198338 -0.0254708
-0.00235674 -0.0249045
-0.00169197 -0.00416591
-0.00128528 -0.00450074
-5.90209e-06 -0.0251078
-2.27061e-05 -0.0250523
-0.0034619 -0.0214962
-0.00320946 -0.0201808
0.00119139 -0.0245267
0.00079731 -0.0248276
-0.00310941 -0.0216055
-0.00308979 -0.0205523
-0.0015273 -0.0240731
-0.00121783 -0.024521
0.0019807 -0.00601987
0.00171523 -0.00675572
-0.000543298 -0.00993406
-0.000153287 -0.0111932
0.00211764 -0.017085
0.00133359 -0.015022
0.00198081 -0.0253014
0.00288438 -0.0239967
-0.000771823 -0.0260539
-0.000501116 -0.026029
-0.00114001 -0.0145334
-0.0017075 -0.0162217
-0.000185263 -0.0110132
-0.000167977 -0.0102245
0.00363835 -0.0216197
0.00376336 -0.0226315
-0.000290746 -0.0248851
-8.12678e-05 -0.0250405
-0.000755163 -0.0259176
-0.000465415 -0.0259495
-0.00191396 -0.0255434
-0.0017684 -0.0258163
-0.000824319 -0.0193124
-0.00036662 -0.0177779
0.00136531 -0.0128804
0.0015622 -0.0156735
0.00044501 -0.011521
0.000591528 -0.0126529
0.00185473 -0.00185196
0.00170952 -0.00209092
0.00278004 -0.0241879
0.00304026 -0.0234654
0.000643998 -0.0120053
0.0012526 -0.0140538
0.000332488 -0.0101459
0.00101536 -0.00817492
0.00225739 -0.0251442
0.00179391 -0.0257857
0.000657213 -0.025687
0.000882374 -0.0257178
0.00277299 -0.0242079
0.00269182 -0.0243558
-0.00248121 -0.0193616
-0.00259592 -0.018838
3.29445e-05 -0.0260386
-1.81932e-05 -0.0260097
-0.00118032 -0.0140705
-0.00126835 -0.0136872
-0.00119358 -0.00327454
-0.00137822 -0.00249984
-0.000393066 -0.0023062
6.23259e-06 -0.00239772
0.00193311 -0.0017849
0.00234135 -0.00251887
-0.00183267 -0.0255928
-0.00263102 -0.0244427
-0.000130904 -0.0250121
-0.000236363 -0.0249155
-0.000161509 -0.0248676
-4.03398e-05 -0.0245449
-0.00128276 -0.0257746
-0.00095106 -0.0258745
-0.000581798 -0.00996104
-0.000197339 -0.00776228
-0.00339536 -0.0224233
-0.00320024 -0.0231153
-6.87659e-05 -0.0250518
1.59427e-05 -0.025098
0.00315912 -0.0229175
0.00328368 -0.0220409
0.00146225 -0.00710546
0.00187539 -0.00562767
0.0027463 -0.0241338
0.00246488 -0.024616
0.000463057 -0.0209247
-0.000445564 -0.0210135
0.000371066 -0.024859
0.000105879 -0.0250247
-0.000705352 -0.00626079
-0.000778418 -0.00470318
-0.000918708 -0.0086775
-0.00144151 -0.00692933
-0.0010509 -0.0259821
-0.000722212 -0.0260904
-0.00121136 -0.0134382
-0.000464886 -0.0132593
0.00327921 -0.0226646
0.00325911 -0.0216927
-0.000655037 -0.00862014
-0.000760799 -0.00992487
-0.00115144 -0.0113812
-0.000762254 -0.0110838
-0.00091559 -0.00112823
-0.001028 -0.00104839
-0.00208971 -0.015893
-0.00220643 -0.0163647
0.000100702 -0.0250607
1.89175e-05 -0.0251131
0.000149827 -0.00240614
0.000306567 -0.00133232
0.00294227 -0.0234619
0.00312588 -0.0226174
-0.00251969 -0.0192573
-0.00228314 -0.0181126
-0.0022326 -0.00526871
-0.00209312 -0.00527214
-0.00170348 -0.0234942
-0.00105135 -0.0232452
-0.00115293 -0.0235168
-0.00135508 -0.0237788
-0.00061275 -0.0238324
-0.000298398 -0.0231907
0.00255265 -0.0240428
0.00224545 -0.0244188
0.0025902 -0.022208
0.00245879 -0.0216457
-0.00145728 -0.0138821
-0.00167667 -0.0151017
-0.00253112 -0.0246885
-0.00259931 -0.0244943
-0.000256506 -0.0244298
-8.10807e-05 -0.0248531
0.000254497 -0.0246619
0.000621456 -0.0243904
-0.000933294 -0.0129256
-0.000334426 -0.0108553
-0.000121907 -0.00016131
-0.000860058 -0.00132308
-0.00183541 -0.0151071
-0.0016409 -0.0149152
0.000786511 -0.0236599
0.000243346 -0.0232677
0.00244829 -0.0151827
0.000603188 -0.0154454
0.00126601 -0.0202429
0.00315252 -0.0196528
-0.000925669 -0.0023035
-0.000508976 -0.00144582
-0.00308054 -0.0222104
-0.00319861 -0.0218158
0.000926812 -0.0132202
0.000967343 -0.0139307
-0.00183075 -0.0257744
-0.00231998 -0.0250543
0.00115409 -0.0246024
0.00155419 -0.024308
-0.00123697 -0.0244754
-0.00134848 -0.0245486
-0.00237365 -0.0242195
-0.00266161 -0.0237631
0.00308104 -0.023418
0.00299963 -0.023523
-2.63896e-05 -0.0252959
0.000158091 -0.0254068
-0.00122397 -0.0257033
-0.00122075 -0.0255546
0.00334812 -0.0219651
0.00323434 -0.0221454
0.00139264 -0.0255013
0.00161988 -0.0254939
-0.00222584 -0.00424895
-0.00246541 -0.0043536
-0.000865193 -0.0248443
-0.00124138 -0.0246674
-0.00266135 -0.0212986
-0.00252102 -0.0205827
0.000600792 -0.0259636
0.00034666 -0.0260211
0.00276663 -0.0188421
0.00278471 -0.018959
0.00056128 -0.0185679
0.000963876 -0.0202024
0.000738091 -0.0110581
0.000698571 -0.00969975
0.000263066 -0.000188215
0.00121934 -0.00106233
-0.000134523 -0.00245094
0.000325959 -0.00569434
-0.00106813 -0.00375637
-0.000757105 -0.0056426
0.00192754 -0.00240508
0.00130205 -0.00133456
-0.000863036 -0.0239884
-0.00122891 -0.0238424
0.00146247 -0.0262043
0.000864301 -0.0269115
-0.00197131 -0.0233186
-0.00214666 -0.0224709
-0.00168837 -0.00391042
-0.00130356 -0.00408918
0.000940321 -0.0246423
0.00134869 -0.0242706
0.0013726 -0.00612827
0.00185711 -0.00511798
-0.00110465 -0.0263135
-0.00109684 -0.0261122
-0.000179619 -0.0256267
-0.000563267 -0.0255795
-0.00111594 -0.00528478
-0.00059068 -0.00703004
-0.00251745 -0.0179107
-0.00265649 -0.0190856
-0.00290177 -0.0228445
-0.00288345 -0.0233879
0.000847905 -0.0107781
0.00149869 -0.0128659
0.00124452 -0.0259337
0.00147365 -0.0259019
0.00299012 -0.0229799
0.00278602 -0.0237944
0.000234678 -0.0122534
9.89853e-05 -0.0115056
0.00055907 -0.025981
0.000617025 -0.0261268
-0.000164497 -0.0209276
0.000675427 -0.0207063
0.0015901 -0.00675011
0.00186777 -0.0063905
-0.000707021 -0.0251121
-0.000788538 -0.0252254
-0.00207461 -0.0253548
-0.00166284 -0.0258587
-0.00208311 -0.0254176
-0.00173974 -0.0258426
0.00240597 -0.0197878
0.00235951 -0.0211654
-0.000551208 -0.0225929
-0.000781075 -0.0213748
-0.000388314 -0.0249836
-0.000210813 -0.025042
0.000866206 -0.0188956
-0.000366018 -0.0188736
0.00116618 -0.0116204
0.00154686 -0.0145578
0.00221063 -0.0203602
0.00225526 -0.0214974
-0.000681447 -0.0153519
-0.000825108 -0.011824
0.000390517 -0.0249477
0.000680545 -0.0248097
0.00101826 -0.0261499
0.00107747 -0.0259196
0.00140471 -0.012076
0.00133533 -0.0125132
0.00193396 -0.0255218
0.00216427 -0.0252582
-0.00219135 -0.0169276
-0.00197735 -0.0166371
-0.0013496 -0.013761
-0.00168381 -0.014368
-0.00234364 -0.0249
-0.00202417 -0.0254341
0.00272311 -0.0233341
0.00245006 -0.0239821
-8.62211e-05 -0.0250229
-0.000103766 -0.0250015
0.00129533 -0.026109
0.000943874 -0.0265456
0.000261241 -0.0250002
0.000247809 -0.0250097
-5.67229e-05 -0.0250514
-0.000256723 -0.0250194
0.00247398 -0.0243059
0.00250477 -0.0239282
-0.00240156 -0.0046148
-0.00212905 -0.00556905
0.000983112 -0.025872
0.00069062 -0.0259996
-0.000938723 -0.00890131
-0.000603074 -0.00991464
0.00227331 -0.0211765
0.00254046 -0.0211487
-0.00103963 -0.0242629
-0.000776002 -0.024659
0.00159028 -0.0255446
0.0014464 -0.0254723
-0.000461782 -0.00916108
-0.000101179 -0.00693002
-0.000823887 -0.0182337
-1.81327e-05 -0.0161547
-9.78966e-05 -0.0249395
-0.00023569 -0.0249508
-0.00174566 -0.0250394
-0.00187527 -0.0251326
0.00209922 -0.0253638
0.00252563 -0.0246742
-0.00101165 -0.0206702
-0.000929947 -0.0219908
0.000562544 -0.0252192
0.000710689 -0.0253208
0.00228613 -0.0249131
0.00178088 -0.0256654
-0.0011 -0.025098
-0.0015161 -0.024909
0.00207214 -0.00428925
0.0023745 -0.00403276
0.0033605 -0.0218729
0.00325185 -0.0224509
0.000273572 -0.025004
-0.000130806 -0.0250457
0.00288759 -0.0207889
0.00274844 -0.0195913
0.000335466 -0.0106929
0.000650704 -0.00980637
-7.35971e-05 -0.0108327
-0.000743944 -0.0122057
-0.00039242 -0.0261878
-0.000118514 -0.0263916
0.000835361 -0.00125022
0.00135972 -0.00254249
0.00239407 -0.00386828
0.00210448 -0.00368241
-0.00110109 -0.0262312
-0.000746284 -0.0263624
-0.00111176 -0.0249544
-0.0015145 -0.0246673
0.00213065 -0.0168269
0.00039674 -0.016899
-0.00016319 -0.025074
-3.34255e-05 -0.0251275
-0.00148056 -0.0248922
-0.00139991 -0.0247666
-0.00171974 -0.00392554
-0.00170346 -0.00268769
-0.000224859 -0.0250372
8.56465e-05 -0.0250664
4.7154e-05 -0.0251203
-3.88246e-05 -0.0252074
-0.00311608 -0.0226682
-0.0029622 -0.0229472
-0.00216945 -0.0251006
-0.00197437 -0.0254404
-0.00159555 -0.0149704
-0.00187271 -0.0162046
-0.000129087 -0.0224173
0.000208005 -0.0232665
2.40495e-05 -0.0250959
0.000285409 -0.0249732
0.000997885 -0.0250661
0.00140687 -0.0249309
0.00140484 -0.00439525
0.00121881 -0.00607359
-0.000809685 -0.0155824
-0.00134143 -0.0172271
0.00080121 -0.0085872
0.000667455 -0.0095906
0.00115655 -0.0260428
0.000829832 -0.0261322
0.000825459 -0.022507
0.00189105 -0.0218674
0.00139514 -0.0236686
0.00111592 -0.0236241
0.000174806 -0.00672863
0.000448365 -0.00751074
0.00037843 -0.0266258
0.000258444 -0.0263627
0.00234273 -0.0245292
0.00248709 -0.0245151
-0.00150878 -0.0241981
-0.00183907 -0.0239648
-0.00179539 -0.0149944
-0.00212696 -0.0160578
0.0034985 -0.0207475
0.0030516 -0.019695
0.000226812 -0.00157682
-0.000254949 -0.00508145
0.000991637 -0.0260771
0.00105108 -0.0262595
-0.00147372 -0.0154662
-0.00196779 -0.0169192
0.00105215 -0.00466901
0.00098853 -0.00309742
-0.000114315 -0.0246901
4.89938e-05 -0.0249484
-0.00110603 -0.0143059
-0.00167472 -0.0160583
-0.00261163 -0.0191314
-0.00245829 -0.0176928
-0.00308938 -0.0202661
-0.002852 -0.0192914
0.00213302 -0.00518301
0.00197214 -0.00605778
0.00203689 -0.0239284
0.00169152 -0.0241894
-0.00115055 -0.0236788
-0.000573555 -0.0234105
-0.00178733 -0.0241678
-0.00139715 -0.0244937
-0.00100691 -0.00684157
-0.000244257 -0.0102534
-0.00283906 -0.0239839
-0.00261498 -0.0243877
0.000711813 -0.0257364
0.000824116 -0.0258154
-0.000487735 -0.0208496
0.000206678 -0.0217213
0.00135156 -0.0135638
0.00195847 -0.0156132
-0.00261949 -0.00302896
-0.00255096 -0.00375928
-0.00208564 -0.0172399
-0.00121856 -0.0149718
-0.000665339 -0.0117531
-0.00115829 -0.0126705
0.000832239 -0.0232102
0.000112626 -0.0234818
0.00244715 -0.0180265
0.00165419 -0.0159793
-0.000190142 -0.0258254
-6.27947e-05 -0.0257312
-0.000191283 -0.0262424
-0.000354805 -0.0264769
-0.00155392 -0.0151195
-0.00195973 -0.016613
-0.00140365 -0.0237309
-0.00103797 -0.0242811
0.00296956 -0.0195681
0.00324889 -0.020797
-5.81891e-05 -0.0257295
-0.000215918 -0.0256233
-0.00286033 -0.0223272
-0.00265356 -0.0225855
-0.00377597 -0.022737
-0.00334878 -0.0232704
-0.00142646 -0.00689304
-0.0016588 -0.006826
0.00103473 -0.00152373
0.000634715 -0.000933202
0.000785547 -0.0057909
0.00125704 -0.00425825
0.00136247 -0.0261236
0.000903177 -0.0265594
-0.000206822 -0.000652985
-0.000264899 -0.0014854
-0.00327232 -0.0207404
-0.00288505 -0.0193181
0.00121881 -0.011386
0.00066068 -0.00897696
0.00141734 -0.00752433
0.00122423 -0.00822562
0.00245507 -0.024669
0.00316185 -0.023464
0.0025429 -0.0245284
0.0028766 -0.0239928
-0.00171092 -0.0135344
-0.00212113 -0.0157409
0.000279747 -0.00652859
-0.000385266 -0.00350477
0.0027488 -0.0242641
0.00302645 -0.0235927
-3.3482e-05 -0.0247002
0.000130482 -0.0242596
0.000778091 -0.0185035
-0.00044471 -0.0176228
0.00205013 -0.0158088
0.00164308 -0.0139475
0.00147139 -0.00321846
0.00114042 -0.00375234
0.000496174 -0.023456
0.000447982 -0.0241836
0.000824089 -0.00732317
0.000305203 -0.00787264
-0.00233887 -0.0176406
-0.00167476 -0.0156916
-0.00265417 -0.0243125
-0.00277274 -0.0238195
7.199e-05 -0.0260968
0.000162548 -0.0261654
0.00284906 -0.0235329
0.00262224 -0.0242581
0.00185384 -0.0255233
0.00265497 -0.0243684
5.45195e-05 -0.0218454
-0.000394538 -0.0226868
0.000712021 -0.000910616
0.00134023 -0.00210557
0.00071396 -0.00687052
0.00088162 -0.00762341
-0.000312188 -0.000957467
-0.000697143 -0.00176035
-0.00218011 -0.0252771
-0.00235026 -0.0250005
0.000246886 -0.0113938
0.000936443 -0.0130267
-0.00394788 -0.0218782
-0.00364701 -0.0237113
3.9953e-05 -0.0107383
0.000401246 -0.0125824
2.78679e-05 -0.0256755
-0.000339176 -0.0256765
-0.000220999 -0.0107193
-0.000295802 -0.0107954
-0.00194834 -0.0249835
-0.00157992 -0.0252767
0.000226989 -0.0225929
-0.000376135 -0.0231318
-0.00164742 -0.00479208
-0.00128614 -0.00465086
-0.00180106 -0.0245009
-0.00139434 -0.0248116
0.00236855 -0.0213349
0.00244474 -0.0221373
0.00200175 -0.00531979
0.00184194 -0.00638008
-5.02675e-06 -0.0250581
5.81849e-05 -0.0250456
0.00137541 -0.0121438
0.00187215 -0.0144336
-0.000646103 -0.00379671
-0.000318098 -0.00377994
0.00164206 -0.025236
0.0014233 -0.0252081
-0.00204063 -0.00200078
-0.00112851 -0.000972248
0.000998005 -0.0132381
0.00115439 -0.0142633
-0.00171143 -0.0257279
-0.00251149 -0.0245995
-0.00209384 -0.0166637
-0.00178164 -0.0144497
-0.00116135 -0.0263223
-0.000976623 -0.0262876
-0.00231699 -0.0239595
-0.00257948 -0.0232972
-9.53785e-06 -0.0250962
2.48003e-05 -0.0250815
-0.000939351 -0.0259768
-0.00095295 -0.0261608
0.00154828 -0.0128189
0.00196394 -0.0149356
-0.00164778 -0.0250892
-0.0016487 -0.0252916
-0.00149598 -0.0156718
-0.000903507 -0.0141488
-0.00267999 -0.0187593
-0.00273858 -0.0196187
-0.000674801 -0.0245709
-0.000991172 -0.0240594
0.000567486 -0.0228898
0.00126726 -0.0232027
-0.000103862 -0.0263779
-0.000101542 -0.0261553
-0.000104932 -0.0250445
-0.000180776 -0.0250442
0.0028465 -0.0240343
0.00302218 -0.0234143
0.00113992 -0.0246958
0.00146642 -0.0243379
-0.00267714 -0.0202713
-0.00270335 -0.0192488
0.00220796 -0.0148184
0.00035107 -0.014749
0.00230557 -0.0215594
0.00228022 -0.022488
0.000393928 -0.0246625
0.000445392 -0.0241795
-0.00217264 -0.0242108
-0.00180343 -0.0245926
-0.001328 -0.025556
-0.00150411 -0.0253075
0.001376 -0.0251244
0.00169445 -0.0250587
-0.00217056 -0.0250197
-0.00206681 -0.0249438
0.00118904 -0.0255537
0.00117783 -0.0257149
-0.0031164 -0.0229973
-0.00290347 -0.0238641
-6.03651e-05 -0.0258647
-0.000126276 -0.0259387
-0.000732236 -0.0236281
-0.000276027 -0.0240466
-0.00150442 -0.0152218
-0.000789133 -0.0134336
0.00263932 -0.0206522
0.00336093 -0.0191632
-0.00285289 -0.0240077
-0.00311686 -0.0232301
-0.00227965 -0.0248911
-0.00193357 -0.0253611
-0.000156372 -0.027306
-0.000678797 -0.026927
-0.00231757 -0.0234521
-0.00237726 -0.0228144
-0.000788825 -0.010508
-0.000604564 -0.0109427
0.00272686 -0.0212458
0.0026165 -0.0202297
0.0027708 -0.0190296
0.00295958 -0.020431
-0.000724833 -0.025235
-0.00115708 -0.0250836
-0.00316674 -0.0198423
-0.00243654 -0.018107
-0.00152098 -0.0225807
-0.00110712 -0.0235235
0.00137897 -0.0249838
0.0012591 -0.0248819
0.00257069 -0.0244992
0.00250359 -0.0246468
0.000258455 -0.00841079
0.000881591 -0.00728319
-0.00266215 -0.0183909
-0.00267621 -0.0202056
-0.000857179 -0.0261901
-0.000864042 -0.0259999
0.00121709 -0.0236297
0.00162368 -0.0230895
-0.00305629 -0.0230269
-0.00295649 -0.0228987
-0.0017317 -0.0249509
-0.00168617 -0.0247646
-0.0021336 -0.00468945
-0.00212958 -0.00544691
0.000437594 -0.0206175
-0.000185786 -0.0194573
-0.00133887 -0.0247557
-0.00173737 -0.0243889
-0.00201091 -0.024506
-0.00162309 -0.0248396
-0.000618831 -0.00120094
-0.000697576 -0.00231287
-0.00012793 -0.0152693
0.000282882 -0.0180109
0.000434408 -0.0183443
0.000899907 -0.0162047
0.00025135 -0.00377689
-0.000313949 -0.00655511
-0.000605011 -0.0256923
-0.000290028 -0.0257676
0.00223356 -0.0195661
0.00213427 -0.0210252
-0.000582375 -0.00885624
0.000180264 -0.00669301
0.00460289 -0.0224649
0.00344943 -0.0200792
-0.000153553 -0.0249008
-4.52538e-05 -0.0250727
-0.00205716 -0.00211264
-0.00176654 -0.00214153
-0.00156144 -0.00511692
-0.00124693 -0.00680638
-0.00145576 -0.00661352
-0.00145678 -0.00741041
0.00125135 -0.0175087
0.00142912 -0.0151478
-0.00075489 -0.024398
-0.000389266 -0.024799
-0.000399463 -0.00662397
-0.000721043 -0.0104234
-0.000962662 -0.0250516
-0.00133532 -0.024964
0.00260767 -0.0182032
0.00262671 -0.0187385
0.00417072 -0.0215674
0.00333906 -0.0200469
0.000222602 -0.0118882
0.00099602 -0.0139734
0.00213768 -0.0252279
0.0018155 -0.0255593
-0.000715518 -0.0132619
-0.000194455 -0.0114203
-0.000372507 -0.025957
-0.000613231 -0.0258885
-0.000468543 -0.0260047
-0.000304663 -0.0259647
-0.00125586 -0.0263992
-0.000773382 -0.0268338
0.000314475 -0.00473255
-0.000260584 -0.00729378
-0.0026699 -0.0237742
-0.00290691 -0.0230316
0.00328439 -0.0217539
0.00336903 -0.0213717
-0.00297615 -0.0238107
-0.00307981 -0.0234004
-0.00120092 -0.023516
-0.00159244 -0.0238829
0.000292142 -0.00585226
-0.00029535 -0.00216988
0.00270521 -0.0235517
0.0024442 -0.0242138
-0.00112694 -0.0233173
-0.000660559 -0.0226935
-0.000376228 -0.0191252
-0.000695559 -0.0205857
-0.000793516 -0.000919691
-5.64575e-05 -6.5267e-05
-0.00139194 -0.025384
-0.001169 -0.025346
0.00255362 -0.0245706
0.0020765 -0.0253574
-0.00309552 -0.0203384
-0.00286033 -0.0193661
-0.00108856 -0.00856266
-0.000459135 -0.0103064
0.00249943 -0.0181847
0.0023418 -0.0182714
0.00197821 -0.0254413
0.0022317 -0.0249977
0.00267304 -0.0243537
0.00299246 -0.0237818
-0.00211898 -0.0253681
-0.00247298 -0.0247847
-0.000520367 -0.0014517
-0.000125636 -0.000408595
-0.000257335 -0.0250281
-0.000131808 -0.0250684
0.000944598 -0.0208179
0.000401807 -0.0199959
0.000909389 -0.0268587
0.00122667 -0.0264827
-0.000851575 -0.0242675
-0.000941134 -0.023668
-0.0024731 -0.0247035
-0.0031749 -0.0235743
0.000192235 -0.0261738
0.000485814 -0.0262568
0.000499297 -0.0102179
0.00116685 -0.0118828
0.00201856 -0.0036879
0.00198712 -0.002662
-0.00322366 -0.0233957
-0.00346507 -0.0222787
0.00151612 -0.0233354
0.00173434 -0.0234296
0.00193656 -0.0174769
0.0021866 -0.0190082
-0.000190962 -0.0258483
-0.00045484 -0.025862
-0.00295036 -0.0192435
-0.00223278 -0.017625
0.000373153 -0.00532807
0.000698816 -0.00907696
-7.22694e-05 -0.02501
-0.000354642 -0.0248793
0.00176106 -0.0156451
0.00226797 -0.0169999
-0.00261346 -0.00325864
-0.00229994 -0.00305805
3.39162e-05 -0.00471813
-8.23983e-05 -0.00564084
-0.000602087 -0.0264513
-0.000390168 -0.0268503
0.0024668 -0.0226546
0.00215764 -0.0230696
0.00043837 -0.000415666
0.00125553 -0.00144608
4.03195e-05 -0.0259283
8.65845e-05 -0.0258495
-0.000749866 -0.023972
-0.000461015 -0.0245054
0.00117925 -0.0222772
0.00154824 -0.0213118
-0.000398725 -0.0260305
-0.000189207 -0.0260858
-0.00253475 -0.00432673
-0.00268263 -0.00354373
0.000476257 -0.00417852
0.000492214 -0.00209812
0.000135005 -0.0265654
0.000292193 -0.0267992
-0.00146713 -0.0259892
-0.0013805 -0.0262169
0.0027767 -0.0241916
0.00262903 -0.0245181
-0.00156903 -0.0260127
-0.00174887 -0.0258689
0.00396892 -0.0215757
0.00299064 -0.0188468
-0.000455876 -0.0261188
-0.000483046 -0.0263298
0.000899445 -0.0108981
0.0012402 -0.0119942
-0.0019674 -0.0164614
-0.00250809 -0.0179538
0.00155603 -0.0260504
0.00101624 -0.0266615
0.00224457 -0.0165123
0.00172333 -0.0146176
-0.00248752 -0.00306476
-0.00216085 -0.00287432
0.000345364 -0.0253618
4.0272e-07 -0.0253171
-0.00122562 -0.0150138
-0.00195748 -0.0168973
0.00136468 -0.0214164
0.00170486 -0.0202283
0.000447568 -0.0251142
0.000718879 -0.0249656
-0.00274948 -0.0227453
-0.00252024 -0.0229699
-0.00140031 -0.0251192
-0.00111509 -0.025391
0.00223568 -0.0250266
0.00192959 -0.0253298
-0.000993817 -0.0256733
-0.000910053 -0.0255641
-0.000675665 -0.0138345
-0.00199329 -0.0165571
0.00193024 -0.0160659
0.00159696 -0.0159298
-0.00198822 -0.0250724
-0.00164776 -0.0254226
0.00191334 -0.0173601
0.00194951 -0.0155812
0.000233226 -0.0260083
0.000306128 -0.0260599
0.00224402 -0.0197676
0.00240064 -0.020828
-0.000555997 -0.00109841
-0.000146696 -0.000362501
-0.00206297 -0.0155251
-0.00237502 -0.0174852
-0.0011872 -0.0039198
-0.000984367 -0.00570054
-0.000301525 -0.021611
0.000413822 -0.0221093
-0.000655511 -0.0248612
-0.000264568 -0.0250254
0.00108928 -0.0190923
0.0010358 -0.0170654
0.00101811 -0.0114274
0.000730654 -0.00902384
-0.000126313 -0.025013
6.38141e-05 -0.0250499
0.0020523 -0.0204285
0.00162373 -0.0200107
-0.00158798 -0.00141106
-0.00145474 -0.00146177
-0.000617406 -0.0264272
-0.000662111 -0.0261701
0.00134064 -0.0246616
0.00176303 -0.0243026
0.000290651 -0.025367
-7.98262e-05 -0.0254837
-0.00124932 -0.0255646
-0.000900762 -0.0256389
2.5503e-05 -0.0260243
-7.40427e-05 -0.026008
0.000561933 -0.0145709
0.00136274 -0.0143601
0.00090383 -0.025596
0.00120155 -0.0253991
-0.000533971 -0.0252328
-0.000176852 -0.0253425
-0.00107828 -0.0259378
-0.000889896 -0.0261768
0.000564291 -0.0250064
0.000781248 -0.0248581
-0.000266378 -0.00297573
-0.000116223 -0.000505043
0.000167888 -0.0259075
0.000106518 -0.0258378
0.000256964 -0.0258234
0.000542112 -0.0257864
-0.00195147 -0.0160796
-0.00154451 -0.0157883
-0.000421275 -0.0249775
-0.000120652 -0.025044
0.000897755 -0.0268724
0.00110835 -0.0266162
-0.000372144 -0.0250945
-0.000115675 -0.0251831
0.00314878 -0.023011
0.00294419 -0.0235959
-0.00220837 -0.00327137
-0.00242319 -0.00290268
0.00259665 -0.0244664
0.00211077 -0.025139
0.00259457 -0.0213261
0.00245067 -0.0223934
0.00269643 -0.0205733
0.00267017 -0.0192362
-0.00187823 -0.0155239
-0.00210408 -0.0165955
0.00131347 -0.0252202
0.0013128 -0.0250296
0.000590363 -0.0246809
0.000336996 -0.0247716
0.00101615 -0.0246726
0.000658687 -0.0248565
-0.0014029 -0.0218088
-0.000311293 -0.0217595
0.00166553 -0.0020184
0.00221082 -0.00290856
0.00143671 -0.0244189
0.00172421 -0.024294
-0.00141447 -0.0248084
-0.00106852 -0.0249046
-0.00216696 -0.0242212
-0.00246177 -0.0239266
-0.00133244 -0.00784915
-0.000888398 -0.009079
-0.00287527 -0.0237537
-0.00269617 -0.0239931
0.000599426 -0.0256162
0.000628177 -0.0254585
0.000791101 -0.00160594
0.00121645 -0.00244562
0.00170137 -0.0258182
0.000977715 -0.026753
-0.000843938 -0.0266047
-0.0010549 -0.0262489
-0.00157241 -0.012933
-0.00166714 -0.014107
1.9486e-06 -0.0260342
4.59762e-05 -0.0260441
-0.000173021 -0.00944231
-0.000338154 -0.00794685
-0.00250966 -0.0178856
-0.00278673 -0.0191619
-0.000329862 -0.026166
-0.000170695 -0.0264188
0.000292139 -0.00722829
0.000893437 -0.00588173
-0.000694773 -0.000777292
-0.00079296 -0.000736805
-0.00170993 -0.0154163
-0.00104596 -0.0134079
-6.78682e-05 -0.000123347
-4.30375e-05 -5.17355e-05
0.00375714 -0.0227566
0.00359933 -0.0224088
-0.00043178 -0.00872022
0.000217974 -0.0108352
0.00254445 -0.020416
0.00195368 -0.0216148
-0.00304523 -0.0214266
-0.00304313 -0.022419
-0.000337835 -0.0254544
-1.08164e-05 -0.0253494
0.002964 -0.0232352
0.00309759 -0.02232
-0.00314649 -0.0207211
-0.00290011 -0.0195037
0.000359703 -0.0105062
0.000632949 -0.00990931
-0.000359066 -0.0244538
-0.000320467 -0.0248429
0.0010107 -0.0266193
0.000604871 -0.0269047
7.16103e-05 -0.0257887
-3.73686e-06 -0.0256883
0.00250244 -0.0242682
0.00217225 -0.0247292
-0.00024442 -0.0250427
-3.62568e-05 -0.0250766
0.000345131 -0.024999
0.00052864 -0.0249156
-0.000830177 -0.0257139
-0.00050277 -0.0257972
0.0030923 -0.0226082
0.0029635 -0.0234823
0.00226265 -0.0249581
0.00191147 -0.0254615
0.00154055 -0.00726524
0.00156042 -0.00720337
-0.00183917 -0.00269565
-0.00213793 -0.00371316
0.00222821 -0.0251277
0.00249154 -0.0246159
-0.00200922 -0.0252417
-0.00166758 -0.0256358
0.00190025 -0.0169824
0.00330238 -0.0148726
-0.00306258 -0.0216429
-0.00296217 -0.0206461
-0.000521864 -0.00933138
0.000239275 -0.0113192
-0.000154195 -0.024999
4.92051e-05 -0.0250487
-0.000469619 -0.00481404
2.05686e-05 -0.00703684
-0.00107971 -0.00810876
-0.0013648 -0.00655978
0.00238684 -0.0247813
0.00205663 -0.0253254
-0.00145512 -0.0253189
-0.00126681 -0.0255626
-0.00276108 -0.0189272
-0.00315706 -0.0202525
0.00136008 -0.00658408
0.00195511 -0.00566295
-0.000701226 -0.0111494
2.036e-06 -0.00949154
0.00236022 -0.0248654
0.00268782 -0.0242235
0.00230114 -0.003485
0.00223686 -0.00463392
0.00113562 -0.00833668
0.00165092 -0.00667048
0.00194872 -0.0255574
0.00251303 -0.0247043
0.00212965 -0.0163893
0.00324476 -0.0196458
0.00241987 -0.0173687
0.00216466 -0.0162655
0.00266025 -0.0224033
0.00238818 -0.0231409
-0.00297219 -0.0199979
-0.00299228 -0.0208529
-2.24458e-05 -0.0252375
5.81327e-05 -0.025354
0.00201318 -0.016049
0.0023113 -0.0172731
0.00198228 -0.00320226
0.00199717 -0.00448881
4.78613e-05 -0.0260398
0.000110815 -0.026008
-0.00111389 -0.0258516
-0.00145689 -0.0256956
-0.00195318 -0.019813
-0.00148955 -0.0209067
-0.00186787 -0.0147443
-0.00212176 -0.0169592
-0.000771887 -0.0260406
-0.000643563 -0.0262462
-0.000206621 -0.00957599
0.000264009 -0.00738809
-0.00115 -0.0058974
-0.00141686 -0.00417813
0.000286269 -0.0259342
0.00052084 -0.0258876
-0.000380179 -0.00712989
-0.00072487 -0.0104084
-0.00275675 -0.0242596
-0.003273 -0.0231342
-7.14185e-05 -0.0251881
0.000391751 -0.0251227
0.000301595 -0.0110047
0.000856412 -0.0120278
-0.00107209 -0.0101498
-0.0017297 -0.0143641
0.000591805 -0.00838711
0.000720606 -0.00927863
0.0020154 -0.0242985
0.00234671 -0.0240029
0.00124187 -0.0256887
0.00149233 -0.0256625
0.00267936 -0.0185096
0.00209082 -0.0167151
-0.000259289 -0.0246102
-0.000231722 -0.0249411
0.00173052 -0.0258125
0.00171499 -0.0257101
-0.000557998 -0.0259608
-0.000794882 -0.025999
-0.000998565 -0.0239038
-0.00119167 -0.0231383
0.000480366 -0.00138504
0.000436699 -0.00233146
-0.000654917 -0.0256774
-0.000359061 -0.0257714
0.00162979 -0.0259951
0.00165136 -0.0259217
-0.00110849 -0.0254171
-0.00114434 -0.0252208
-0.00257963 -0.0181932
-0.00293197 -0.019711
0.00166385 -0.025496
0.00144071 -0.0258133
-0.0027291 -0.024176
-0.00249818 -0.0245679
0.000182588 -0.025487
-4.72828e-05 -0.0253768
-0.00225486 -0.0227752
-0.00247883 -0.0227868
0.00210348 -0.0246482
0.00175695 -0.0248874
0.000185843 -0.0249754
0.000239717 -0.0248276
0.00295819 -0.0194058
0.00223217 -0.0175303
0.00197832 -0.0255348
0.00191675 -0.0256164
-0.00212307 -0.0251563
-0.00214547 -0.0249433
0.00060403 -0.00886842
-3.07836e-05 -0.0109405
-0.00187177 -0.0255511
-0.00169537 -0.0258628
-0.0027218 -0.00331228
-0.0025794 -0.00408722
0.000839261 -0.00960391
0.000332109 -0.00731065
0.00304508 -0.021369
0.00304332 -0.020469
-5.69655e-05 -0.0250648
-0.000206958 -0.0248914
0.000469433 -0.023302
0.000398479 -0.0224462
-0.000210046 -0.010495
-0.000889733 -0.00846919
0.0016403 -0.0256594
0.00149471 -0.0259548
-0.00124313 -0.0116423
-0.000701957 -0.00896025
0.000654695 -0.0261764
0.000990686 -0.0260391
0.000209524 -0.0249057
2.86112e-05 -0.0250774
0.00167024 -0.0249697
0.00197518 -0.0248562
0.00210819 -0.0244842
0.00207727 -0.0247894
0.00225878 -0.0240662
0.00256225 -0.0236932
-0.000306208 -0.0184151
-4.74216e-05 -0.0201809
-0.00286313 -0.0239077
-0.00310016 -0.0232264
0.00185353 -0.0143297
0.0019361 -0.0158852
0.000760175 -0.0266778
0.000931829 -0.0263291
0.00294152 -0.0201093
0.00301819 -0.0200629
-0.000995198 -0.00105219
-0.000103616 -0.000102821
0.00189923 -0.00247731
0.00227232 -0.00257971
-0.000591748 -0.0249277
-0.000274424 -0.0250167
-0.000142088 -0.0260251
-3.05084e-05 -0.0260479
0.00177871 -0.00216142
0.00114741 -0.00136588
0.00280839 -0.0211535
0.00283559 -0.0200413
0.000833274 -0.0241668
0.000345141 -0.024083
0.00227982 -0.00473136
0.00209084 -0.00431693
5.37811e-05 -0.0245083
-2.72389e-05 -0.0249
6.78956e-05 -0.0259268
0.000176448 -0.0259607
0.00137132 -0.0248316
0.000954116 -0.0249893
0.00289541 -0.0195257
0.00265706 -0.0184389
-0.00247912 -0.0247331
-0.00275898 -0.0240493
0.000730489 -0.0113301
0.00138008 -0.0133069
0.00267784 -0.0152022
0.0024463 -0.0174232
-0.00209167 -0.0240237
-0.00188015 -0.0240356
-0.00277544 -0.019003
-0.00297693 -0.0197009
0.00333451 -0.0221036
0.00339877 -0.0223829
0.00367195 -0.0208619
0.00383722 -0.0227466
-0.000810382 -0.00812181
-0.00023114 -0.0101229
-0.00270952 -0.0224293
-0.00264761 -0.0217174
-0.00246663 -0.0178385
-0.00218863 -0.017287
0.00139288 -0.0152931
0.00173387 -0.0162948
0.00143047 -0.0129537
0.000766425 -0.0110676
0.000260436 -0.0259894
0.000379164 -0.0260266
-0.00139138 -0.0257716
-0.00143661 -0.0255764
-0.000132656 -0.0262391
-0.000271432 -0.0265016
0.00121451 -0.0256789
0.000937982 -0.0256931
-0.000991377 -0.0252856
-0.000609484 -0.0253075
-0.00129931 -0.0262679
-0.00119121 -0.0262051
-0.000300112 -0.0169384
-0.000837789 -0.0137433
0.000318542 -0.00310012
0.000136406 -0.00075381
-0.00019523 -0.0236495
-0.000428239 -0.0241355
0.00257957 -0.0216053
0.00277162 -0.0218354
0.000989123 -0.0253416
0.000877879 -0.0255347
0.0023784 -0.00465539
0.00264501 -0.00398911
-0.00260777 -0.0184385
-0.00255819 -0.0188274
-0.00318831 -0.0231707
-0.00281978 -0.0241655
-4.2492e-05 -0.0261029
-0.00018619 -0.0260738
-0.00140809 -0.02342
-0.00147648 -0.022529
-0.00280442 -0.0199867
-0.0026794 -0.018761
0.000421559 -0.0260399
0.000285223 -0.0259939
0.000793819 -0.00160783
0.00104163 -0.00323137
0.00229369 -0.0173405
0.00174849 -0.015583
0.00211135 -0.0251255
0.00293993 -0.0239766
0.00191068 -0.025621
0.00143308 -0.0262107
-0.000101697 -0.0229632
0.000325068 -0.0236224
0.00172996 -0.0248566
0.00156507 -0.0251661
9.25967e-05 -0.0222971
2.71209e-05 -0.0232659
-0.000155661 -0.0233478
0.000504657 -0.0229935
-0.00206118 -0.0253093
-0.00198356 -0.0254949
0.000584089 -0.0249944
0.000394678 -0.0249992
-0.000526139 -0.0104125
-0.00115991 -0.0120795
0.000499599 -0.0106058
0.000992335 -0.0126303
0.000193187 -0.0258684
0.000299919 -0.0259162
-0.00239816 -0.0224959
-0.00211768 -0.022642
0.000736201 -0.0258303
0.00065869 -0.0259522
-0.000712015 -0.0248059
-0.000602849 -0.0249306
0.00333165 -0.0221789
0.00321568 -0.0223228
0.00195467 -0.0150923
0.00139422 -0.0132509
0.00195777 -0.00358109
0.00174825 -0.0049853
0.00253505 -0.0244215
0.00252861 -0.0241641
-0.0028135 -0.0234902
-0.00270577 -0.024069
0.00107384 -0.00087398
0.00169654 -0.0017451
-0.00222135 -0.020878
-0.00232976 -0.0193768
-0.00281746 -0.0190527
-0.00238708 -0.0175183
0.001785 -0.0230226
0.00198556 -0.0220701
-0.00133705 -0.0190663
-0.000704065 -0.0184502
0.00257417 -0.0219777
0.00231117 -0.0221064
0.00245915 -0.024455
0.00239098 -0.0242882
-0.00187984 -0.0165532
-0.00217583 -0.0155536
-0.00198892 -0.0169587
-0.00164468 -0.0160971
0.00109246 -0.0230621
0.00143256 -0.0221328
-0.00130806 -0.0261339
-0.00136691 -0.0259074
-0.00159032 -0.0224943
-0.00118979 -0.0215447
-0.00135311 -0.0263554
-0.000618363 -0.0272352
0.00161234 -0.0199426
0.000295873 -0.0201211
-0.00239981 -0.0182698
-0.00220528 -0.018899
-0.00205257 -0.0249183
-0.00232722 -0.0247001
-0.000809133 -0.0232947
-0.000132181 -0.0230816
0.000639272 -0.0248747
0.000339246 -0.0249811
0.00134569 -0.0257822
0.00115202 -0.0260698
0.00163996 -0.00374217
0.00143894 -0.00237166
0.000602955 -0.00935625
0.000384285 -0.0105788
-0.00101318 -0.0246779
-0.000957359 -0.0245898
0.0023347 -0.0170472
0.00242474 -0.0175893
0.00229026 -0.0210827
0.00226363 -0.02214
-0.00181947 -0.0257888
-0.00234089 -0.0250222
-0.00104275 -0.0260345
-0.000845391 -0.0263148
0.00280978 -0.0241047
0.0027535 -0.0240944
0.00252221 -0.0185325
0.00226403 -0.0167416
-0.00107613 -0.0232339
-0.00070395 -0.0224776
0.00341672 -0.0210146
0.00294268 -0.0194102
0.00103428 -0.0134843
0.00184446 -0.0102653
-0.00073195 -0.0271027
-0.000864874 -0.0269365
-0.000417942 -0.0260476
-0.000312259 -0.0259868
0.00154858 -0.015672
0.00182369 -0.0175765
0.00119797 -0.0118513
0.0013868 -0.0120241
-0.00081319 -0.027002
-0.000597963 -0.0272495
0.00176181 -0.0257865
0.00138408 -0.0261536
0.000411594 -0.0251771
0.000264878 -0.0253205
-0.000735955 -0.00899258
-0.000123148 -0.00668822
-0.00159762 -0.0130786
-0.00184835 -0.01424
-0.00245422 -0.0247615
-0.00265489 -0.0242251
-0.00200407 -0.0158146
-0.00185732 -0.015707
-0.0035302 -0.0230696
-0.00251227 -0.0247659
-0.00202058 -0.0251935
-0.00214943 -0.0248545
0.00138549 -0.0200721
0.00157666 -0.0182603
0.000468472 -0.0272059
0.00033552 -0.0271554
0.00343637 -0.02156
0.00332942 -0.0217712
0.000880298 -0.0250964
0.000481778 -0.0251495
0.0029936 -0.0237863
0.00332182 -0.022875
-0.00109063 -0.0209273
-0.000451013 -0.0208026
0.00148497 -0.0227845
0.00220954 -0.0216798
0.000215955 -0.00128829
1.72695e-05 -0.0046134
0.000137106 -0.0261608
0.000119986 -0.0265056
-0.00158566 -0.024689
-0.00167581 -0.0248236
0.00172622 -0.0162618
0.00250452 -0.0182106
-0.00215962 -0.00541097
-0.00206589 -0.00559597
-0.00149148 -0.0155534
-0.00145118 -0.0150601
-0.000239156 -0.000273025
-7.91751e-05 -7.36171e-05
-0.00264322 -0.0185189
-0.00284269 -0.0198709
-0.000168195 -0.0250431
-2.06789e-05 -0.0251219
-0.000161398 -0.0244105
-0.000198179 -0.0248164
-0.000981021 -0.0231653
-0.0003626 -0.0226701
-0.00246201 -0.00325968
-0.00264264 -0.00293367
0.00103583 -0.00734366
0.000834708 -0.00877635
0.000981933 -0.0234647
0.00102745 -0.0225997
-0.000135084 -0.0241488
0.000138674 -0.0245677
0.00294901 -0.0193862
0.00266084 -0.0185521
9.25191e-05 -0.0250111
0.000124348 -0.0247385
0.00157303 -0.00361396
0.00194152 -0.00357251
0.00154946 -0.00200732
0.000968038 -0.00126197
0.00018202 -0.000160429
0.000942871 -0.000797793
0.0035757 -0.0210514
0.00342338 -0.0210005
-0.000851297 -0.022717
-0.00122764 -0.023044
0.000108985 -0.00674359
-0.000458698 -0.00406228
-0.000305198 -0.0273799
-0.000583603 -0.0269578
-0.000727746 -0.0088574
-0.000100732 -0.00641822
0.00141998 -0.00767207
0.00119624 -0.00797911
-0.000495582 -0.0236896
-1.33926e-06 -0.023756
0.00336073 -0.0215088
0.00329579 -0.0223254
0.000828679 -0.0269521
0.00144488 -0.0262246
0.00165222 -0.0134692
0.00209585 -0.0156718
-0.00151074 -0.00646806
-0.00139664 -0.00555974
0.000414592 -0.0269313
0.000878696 -0.0264677
-0.00210151 -0.0252806
-0.00206435 -0.0254239
0.00174397 -0.0145101
0.00147905 -0.0151893
-0.00225648 -0.0176443
-0.00198299 -0.0167914
0.000656617 -0.00113791
0.00112217 -0.00193327
-8.65936e-05 -0.0258928
-0.000274418 -0.025931
-0.000136513 -0.00807643
-0.00059432 -0.00830622
-0.00192301 -0.0219163
-0.0022768 -0.0217484
-1.09935e-05 -0.0243372
-0.000413373 -0.0242615
0.000117525 -0.0249285
0.000360058 -0.0246417
0.000664239 -0.0257707
0.000686242 -0.0258683
0.00167749 -0.00563975
0.00203684 -0.0042798
0.00216168 -0.0161716
0.00255799 -0.0179665
0.00148758 -0.0126809
0.00111564 -0.0113427
-0.0014545 -0.025541
-0.00126506 -0.0257767
-0.000791405 -0.0245428
-0.000915327 -0.0240773
-0.00293707 -0.0195253
-0.0025058 -0.0179591
-0.00186313 -0.0256706
-0.00224348 -0.0251103
0.000780385 -0.0154723
-0.000144605 -0.0173766
-0.00107791 -0.0239566
-0.00131492 -0.024016
-0.000498037 -0.0241949
-0.000880586 -0.0237033
-0.000320101 -0.0250243
-0.000743309 -0.0248856
-6.49053e-05 -0.0257907
0.000240922 -0.0257715
0.000462794 -0.025012
0.000663589 -0.0250221
0.00258304 -0.0181438
0.00292629 -0.0194878
0.000288798 -0.0019419
-0.00016681 -0.00364099
0.00173531 -0.0019679
0.00223752 -0.0029425
0.00017003 -0.0258818
0.000249278 -0.0259343
0.00246213 -0.0178036
0.00259626 -0.0181834
-0.000291602 -0.0123998
-0.00109965 -0.014597
-0.000474053 -0.024478
-0.000229512 -0.0248563
-0.000608983 -0.0252104
-0.000986708 -0.0251804
-0.00100318 -0.00991242
-0.000328423 -0.00730654
-0.000416193 -0.0092642
0.000273471 -0.0106633
-7.02214e-05 -0.0260614
-0.000173474 -0.0260157
5.60486e-05 -0.0250308
-7.08276e-06 -0.0250826
-0.00039031 -0.0258899
-0.000142122 -0.025913
1.90724e-05 -0.0108314
0.000393071 -0.00984027
0.00230486 -0.0167146
0.0020425 -0.0135896
3.49094e-05 -0.0260308
0.000101831 -0.0260248
0.00106323 -0.0245387
0.000703 -0.0248457
0.000684445 -0.027048
0.00124684 -0.0264545
-0.00426855 -0.0222005
-0.00339533 -0.0201888
-0.00133074 -0.0152932
-0.000568841 -0.0131856
0.000246712 -0.00051012
0.000497844 -0.000699809
-0.00230568 -0.024899
-0.00327471 -0.0235703
0.00302382 -0.0236004
0.00313827 -0.0231012
0.000371336 -0.0259082
0.000187814 -0.025966
0.00269317 -0.0243122
0.00284896 -0.0240308
-0.00211824 -0.00523215
-0.00241475 -0.00407605
0.00196998 -0.0217119
0.00155924 -0.0222265
0.000217175 -0.0273011
0.000681984 -0.0267628
0.00231 -0.0175099
0.00276103 -0.0187822
0.000484336 -0.0127001
0.000387687 -0.0127056
-6.83534e-06 -0.025122
-3.23413e-05 -0.0250472
0.000437719 -0.0253369
0.000853365 -0.025189
0.00189483 -0.0237675
0.0015006 -0.0242233
0.00044662 -0.0244721
0.00078495 -0.0239542
-0.00215749 -0.025234
-0.00262231 -0.024478
0.000541537 -0.0234737
0.0010182 -0.0232576
-0.00130567 -0.0264222
-0.00188459 -0.0256975
-0.00109943 -0.0233731
-0.00110051 -0.0239669
0.00243618 -0.00467637
0.00220453 -0.00484223
0.00114622 -0.0248281
0.001579 -0.0245446
-0.000296901 -0.0259643
-0.000504907 -0.0259844
-0.00187134 -0.0166623
-0.00238464 -0.0178941
-0.0026036 -0.00347378
-0.00230147 -0.00323774
0.000435974 -0.00423255
0.000783267 -0.00375396
0.00192673 -0.0227032
0.0017601 -0.0234528
0.000335301 -0.0245618
0.000698929 -0.0241154
0.00318565 -0.020455
0.00334312 -0.0217403
0.00126489 -0.0248758
0.000856707 -0.0250056
0.000878581 -0.0137399
0.00139461 -0.0153472
0.000689461 -0.00878437
0.000495465 -0.00790445
0.00152025 -0.0156878
0.000657314 -0.013288
3.0489e-05 -0.0259016
0.000165783 -0.0258207
0.000946765 -0.0131727
0.00184302 -0.0142568
0.00071592 -0.0265394
0.000450109 -0.026965
0.000213769 -0.0119723
-0.000539116 -0.0100101
0.00124394 -0.0149444
0.000701183 -0.0135737
-0.000664821 -0.0126781
-0.000318962 -0.0110541
0.00210172 -0.00523967
0.00208952 -0.00574356
-0.00222618 -0.0251678
-0.0016054 -0.025983
-0.00115543 -0.00116325
-0.00150058 -0.00134237
0.00255488 -0.0183141
0.00191274 -0.0161946
-0.00141107 -0.00258089
-0.00178952 -0.00350526
0.00100535 -0.00627578
0.00106832 -0.00474095
-0.000151479 -0.025046
1.30776e-05 -0.0250475
0.000509536 -0.00682671
-0.00156096 -0.00759354
0.00124849 -0.02644
0.00115265 -0.0265001
-0.00242171 -0.00407548
-0.0026618 -0.00382162
-0.00319268 -0.022275
-0.00305316 -0.0232177
-0.000250271 -0.0250204
8.41011e-05 -0.025042
0.00184401 -0.00228716
0.0023282 -0.00278649
0.000356496 -0.000396264
0.000562788 -0.000767553
-0.000855458 -0.0251605
-0.0012372 -0.0250882
-0.000888397 -0.000801328
-0.00176802 -0.0017151
0.000887762 -0.0268842
0.00108408 -0.0266312
0.00293545 -0.0238274
0.00254415 -0.0246617
-0.00164135 -0.0257148
-0.00167509 -0.0255148
0.000499357 -0.0257852
0.000515349 -0.0256702
-0.00097331 -0.025867
-0.000690967 -0.0259918
0.00122008 -0.0244572
0.0013032 -0.0241537
0.000224971 -0.0250152
0.000340282 -0.0249683
0.00155594 -0.00215527
0.0017544 -0.00326418
-0.0002532 -0.00569267
-0.000690264 -0.00352369
0.00269994 -0.0240045
0.00264685 -0.0237712
4.40153e-05 -0.0259954
1.4578e-05 -0.026038
-0.000228727 -0.0250329
9.38167e-05 -0.0250528
-6.7266e-05 -0.0214926
0.000700068 -0.0212087
0.00173456 -0.00386855
0.00163694 -0.0053776
-0.000182738 -0.0260464
-0.000238796 -0.0259838
0.00101132 -0.013607
0.00131456 -0.0139017
-0.000840495 -0.00484159
-0.000906287 -0.00303738
0.00273955 -0.0242666
0.00276818 -0.0241829
-0.00184192 -0.0252045
-0.00148755 -0.0254872
6.28005e-05 -0.0118009
0.000859311 -0.0139504
0.00150353 -0.00684514
0.00276143 -0.0118481
-0.00176391 -0.0245428
-0.00140169 -0.0247332
-0.00298869 -0.0227002
-0.00278501 -0.0233158
0.000689898 -0.024938
0.000535332 -0.0249394
-0.000564269 -0.00862473
-0.000399161 -0.0125953
0.000298692 -0.0249903
-2.41307e-05 -0.0250493
0.0009575 -0.00815442
0.00150196 -0.00640651
0.00368456 -0.0168701
0.00240019 -0.0136182
-0.000224454 -0.0260626
-0.000461884 -0.0260248
0.00101951 -0.01938
0.00156247 -0.0207469
0.00219567 -0.0163896
0.00226722 -0.0166347
-0.00131845 -0.026262
-0.00167639 -0.0257576
-6.9678e-05 -0.0250039
5.28222e-05 -0.0250659
0.000948659 -0.0207653
0.00136446 -0.0219528
-0.000372388 -0.024944
-0.000198256 -0.0249909
-0.00049649 -0.00968314
-0.000624578 -0.00981133
-0.000332172 -0.0243644
4.3828e-05 -0.0244866
-0.0010929 -0.0246824
-0.00150812 -0.0243414
-0.00188601 -0.0240337
-0.00149042 -0.0244443
0.00304562 -0.0225487
0.00312171 -0.0215464
8.29059e-05 -0.0237357
0.000321541 -0.0228565
-0.000423012 -0.00192256
-0.000145561 -0.00237208
0.00130957 -0.0247699
0.0017237 -0.024505
-0.00120728 -0.00804915
-0.000529284 -0.00983223
0.00105317 -0.0113081
0.00127385 -0.0114405
-0.00142778 -0.0261182
-0.00110148 -0.0263152
0.000443501 -0.025886
0.000265142 -0.0259577
-0.00259148 -0.0196222
-0.00246756 -0.0180747
0.00121094 -0.00269108
0.00157835 -0.00340559
5.48259e-06 -0.0250492
0.00033003 -0.0250279
-0.000781884 -0.0257718
-0.00062925 -0.0258943
-0.0028971 -0.0193532
-0.00333563 -0.0209022
-0.000455723 -0.0233254
-0.000128022 -0.0239815
-0.00031253 -0.0259962
-0.000566109 -0.0259696
-0.000333496 -0.0259958
-0.000592107 -0.0259599
0.00222659 -0.0164865
0.00186123 -0.0143549
0.00302479 -0.0194198
0.00385186 -0.0211535
-0.000477017 -0.024944
-0.000216609 -0.0250379
0.000918767 -0.0265895
0.000762331 -0.0265239
0.000806451 -0.0101636
0.00139307 -0.0124652
-0.00098411 -0.0260577
-0.00127164 -0.0260176
0.00269317 -0.0234861
0.00282956 -0.0235039
0.00277115 -0.0214646
0.00279369 -0.0223586
-0.00308754 -0.0224771
-0.00297676 -0.0233646
0.00141275 -0.0229997
0.00116111 -0.0237851
8.4073e-05 -0.0260356
0.000175798 -0.0260128
-0.00192303 -0.0181162
-0.00227701 -0.0188154
0.00272658 -0.00349074
0.00247408 -0.00332755
0.00195922 -0.00565069
0.00169063 -0.00683546
-0.000696846 -0.0238898
-0.00110033 -0.02374
-0.000837959 -0.0247683
-0.00114157 -0.0246346
-0.000319182 -0.0259288
-0.000559369 -0.0259353
-0.00158399 -0.00179411
-0.00135429 -0.0018347
-0.000846308 -0.0135111
-0.000456463 -0.0128684
0.00349205 -0.0220401
0.00323367 -0.0232658
-0.00183097 -0.0254328
-0.00189734 -0.0251849
-0.00264618 -0.0228406
-0.00285136 -0.0221134
-0.00184045 -0.024419
-0.00218455 -0.0238953
-0.00106449 -0.0247339
-0.00129473 -0.0244222
0.00228572 -0.0249695
0.00212733 -0.0251237
-0.000964837 -0.0254391
-0.00136492 -0.0252704
0.00214735 -0.019643
0.00139584 -0.0177979
-0.000617349 -0.00478435
-0.000509191 -0.00350033
-0.000766166 -0.0117888
-0.00171801 -0.0135551
0.000220787 -0.0110627
-0.000269108 -0.0122527
0.00103754 -0.0075739
0.000417491 -0.00953798
-0.00241658 -0.017483
-0.00197783 -0.0156571
-0.00285351 -0.0207181
-0.00291414 -0.0217424
0.00313178 -0.0214605
0.00320622 -0.0219756
-0.00106968 -0.0249906
-0.000992128 -0.0251774
-0.000610284 -0.0260863
-0.000331532 -0.0260806
-0.00242366 -0.0220201
-0.00249512 -0.0208938
-0.00306921 -0.02372
-0.00333096 -0.0228958
-2.44643e-05 -0.0251288
9.50596e-06 -0.0251068
0.00318378 -0.0220617
0.00327501 -0.0221976
5.30312e-05 -0.0252226
1.30688e-05 -0.0251372
-0.00147732 -0.0149503
-0.00120948 -0.0123063
-0.00322781 -0.0232012
-0.00298333 -0.0237936
-0.00201661 -0.0254678
-0.00261082 -0.0245443
-0.000327466 -0.00597088
0.000655352 -0.00853383
0.000266606 -0.00964335
-0.000346778 -0.00739598
-0.00242769 -0.0248502
-0.00284965 -0.0241073
0.000646008 -0.0271571
0.00100966 -0.0267282
1.14323e-05 -0.0110413
-0.000277433 -0.00707608
-0.00163562 -0.016103
-0.00159944 -0.0159584
-0.00319927 -0.0236568
-0.00363834 -0.0223251
-0.00120875 -0.019704
-0.000702962 -0.0209768
-0.00133297 -0.00161891
-0.0019133 -0.00225241
0.00138202 -0.00409853
0.00131927 -0.00256243
-0.00128728 -0.0263053
-0.00164187 -0.0259815
0.0024264 -0.0219623
0.00258019 -0.0223843
0.00143058 -0.0145734
0.00209859 -0.0165795
-0.000194481 -0.0250517
-0.000345675 -0.0250083
-0.00321175 -0.0204128
-0.0031172 -0.0202948
0.00224184 -0.0248939
0.00228787 -0.0249903
0.00105041 -0.0256171
0.000827191 -0.0255736
-0.00169727 -0.004099
-0.00169514 -0.00277953
0.000164136 -0.0249311
0.000359717 -0.0245427
0.000380763 -0.0262945
0.000589577 -0.026449
-0.000308503 -0.0260535
-0.000535412 -0.0259879
-1.80798e-05 -0.0251201
-0.000151306 -0.025063
-0.00143244 -0.0188051
-0.00178534 -0.019909
-0.000246329 -0.0250048
-0.00015477 -0.0248953
0.000220463 -0.000317074
0.000870105 -0.00171818
-0.00359607 -0.0201783
-0.00228617 -0.0170222
0.00310359 -0.022538
0.00301987 -0.0222838
-0.000702741 -0.0238033
-0.000644262 -0.0243952
0.000467817 -0.0252531
0.000911162 -0.0251381
0.000932137 -0.0248445
0.00136272 -0.0245551
-0.0010165 -0.0256655
-0.000841562 -0.0255949
-7.61466e-05 -0.00579371
-5.21694e-05 -0.00655807
-0.00202891 -0.0200897
-0.000902455 -0.0189177
-0.000455248 -0.0266933
-0.000938054 -0.0267942
-0.000938054 -0.0267942
-0.00144772 -0.0269238
-0.00144772 -0.0269238
-0.00197235 -0.0270919
-0.00197235 -0.0270919
-0.00250123 -0.0273043
-0.00250123 -0.0273043
-0.00302622 -0.0275592
-0.00302622 -0.0275592
-0.0035376 -0.0278564
-0.0035376 -0.0278564
-0.00402757 -0.0281933
-0.00402757 -0.0281933
-0.00448913 -0.0285663
-0.00448913 -0.0285663
-0.00491591 -0.0289709
-0.00491591 -0.0289709
-0.00530352 -0.0294013
-0.00530352 -0.0294013
-0.00564796 -0.0298516
-0.00564796 -0.0298516
-0.0059469 -0.0303155
-0.0059469 -0.0303155
-0.00619934 -0.0307866
-0.00619934 -0.0307866
-0.00640379 -0.0312575
-0.00640379 -0.0312575
-0.00656224 -0.0317245
-0.00656224 -0.0317245
-0.00667613 -0.0321799
-0.00667613 -0.0321799
-0.00674745 -0.0326194
-0.00674745 -0.0326194
-0.00677988 -0.0330396
-0.00677988 -0.0330396
-0.00677637 -0.0334352
-0.00677637 -0.0334352
-0.00674156 -0.0338044
-0.00674156 -0.0338044
-0.00667848 -0.0341463
-0.00667848 -0.0341463
-0.00659109 -0.034458
-0.00659109 -0.034458
-0.00648403 -0.0347396
-0.00648403 -0.0347396
-0.00635962 -0.0349919
-0.00635962 -0.0349919
-0.00622012 -0.0352165
-0.00622012 -0.0352165
-0.00606857 -0.0354119
-0.00606857 -0.0354119
-0.00590737 -0.0355807
-0.00590737 -0.0355807
-0.00573509 -0.0357267
-0.00573509 -0.0357267
-0.0055514 -0.0358487
-0.0055514 -0.0358487
-0.00535904 -0.0359475
-0.00535904 -0.0359475
-0.00515455 -0.0360211
-0.00515455 -0.0360211
-0.0049337 -0.0360754
-0.0049337 -0.0360754
-0.00469669 -0.0361081
-0.00469669 -0.0361081
-0.00444225 -0.0361099
-0.00444225 -0.0361099
-0.00416147 -0.0360828
-0.00416147 -0.0360828
-0.00385444 -0.0360288
-0.00385444 -0.0360288
-0.00351928 -0.0359343
-0.00351928 -0.0359343
-0.00315115 -0.0357823
-0.00315115 -0.0357823
-0.00274753 -0.0355771
-0.00274753 -0.0355771
-0.00230971 -0.0353082
-0.00230971 -0.0353082
-0.00183473 -0.0349443
-0.00183473 -0.0349443
-0.00132712 -0.0344743
-0.00132712 -0.0344743
-0.000789923 -0.0338774
-0.000789923 -0.0338774
-0.00021736 -0.0331096
-0.00021736 -0.0331096
0.000363135 -0.0321195
0.000363135 -0.0321195
0.000960464 -0.0308537
0.000960464 -0.0308537
0.00156831 -0.0291297
0.00156831 -0.0291297
0.00220846 -0.0268932
0.00220846 -0.0268932
0.00308598 -0.0245017
0.00308598 -0.0245017
0.00359849 -0.023342
0.00359849 -0.023342
0.0036364 -0.0229238
0.0036364 -0.0229238
0.00354263 -0.0227658
0.00354263 -0.0227658
0.00344393 -0.0227616
0.00344393 -0.0227616
0.00334001 -0.0228672
0.00334001 -0.0228672
0.00325348 -0.0230475
0.00325348 -0.0230475
0.00315279 -0.0232954
0.00315279 -0.0232954
0.00302053 -0.0235955
0.00302053 -0.0235955
0.00288408 -0.0239374
0.00288408 -0.0239374
0.00273313 -0.0242883
0.00273313 -0.0242883
0.00255608 -0.024624
0.00255608 -0.024624
0.00235252 -0.0249359
0.00235252 -0.0249359
0.00213777 -0.0252256
0.00213777 -0.0252256
0.00191544 -0.0254844
0.00191544 -0.0254844
0.00168461 -0.0257102
0.00168461 -0.0257102
0.00145144 -0.0259053
0.00145144 -0.0259053
0.00121821 -0.0260711
0.00121821 -0.0260711
0.000985446 -0.0262086
0.000985446 -0.0262086
0.000749726 -0.0263233
0.000749726 -0.0263233
0.000508289 -0.0264193
0.000508289 -0.0264193
0.000253893 -0.0265054
0.000253893 -0.0265054
-5.01275e-05 -0.0265942
-5.01275e-05 -0.0265942
-0.000455248 -0.0266933
0.00386143 -0.0360605
0.00416751 -0.0361143
0.00416751 -0.0361143
0.00444795 -0.03614
0.00444795 -0.03614
0.00470215 -0.0361389
0.00470215 -0.0361389
0.00493812 -0.0361078
0.00493812 -0.0361078
0.00515808 -0.0360539
0.00515808 -0.0360539
0.00536212 -0.0359812
0.00536212 -0.0359812
0.00555319 -0.0358831
0.00555319 -0.0358831
0.00573602 -0.0357627
0.00573602 -0.0357627
0.00590772 -0.0356172
0.00590772 -0.0356172
0.00606832 -0.035449
0.00606832 -0.035449
0.00621914 -0.0352544
0.00621914 -0.0352544
0.00635792 -0.0350306
0.00635792 -0.0350306
0.00648202 -0.034779
0.00648202 -0.034779
0.00658862 -0.0344986
0.00658862 -0.0344986
0.00667558 -0.0341888
0.00667558 -0.0341888
0.00673841 -0.0338468
0.00673841 -0.0338468
0.00677345 -0.0334792
0.00677345 -0.0334792
0.00677687 -0.0330869
0.00677687 -0.0330869
0.00674525 -0.0326677
0.00674525 -0.0326677
0.00667358 -0.0322284
0.00667358 -0.0322284
0.00656017 -0.0317742
0.00656017 -0.0317742
0.00640251 -0.0313092
0.00640251 -0.0313092
0.00619799 -0.0308389
0.00619799 -0.0308389
0.00594668 -0.0303689
0.00594668 -0.0303689
0.00564893 -0.029907
0.00564893 -0.029907
0.00530494 -0.0294575
0.00530494 -0.0294575
0.00491882 -0.0290286
0.00491882 -0.0290286
0.00449307 -0.0286253
0.00449307 -0.0286253
0.00403303 -0.0282531
0.00403303 -0.0282531
0.00354478 -0.027917
0.00354478 -0.027917
0.00303514 -0.0276201
0.00303514 -0.0276201
0.00251303 -0.0273661
0.00251303 -0.0273661
0.0019853 -0.0271548
0.0019853 -0.0271548
0.00146462 -0.0269867
0.00146462 -0.0269867
0.000957782 -0.0268566
0.000957782 -0.0268566
0.000481892 -0.0267548
0.000481892 -0.0267548
7.83668e-05 -0.0266576
7.83668e-05 -0.0266576
-0.000224164 -0.0265684
-0.000224164 -0.0265684
-0.00048181 -0.0264829
-0.00048181 -0.0264829
-0.000725953 -0.0263872
-0.000725953 -0.0263872
-0.000964982 -0.0262739
-0.000964982 -0.0262739
-0.00120182 -0.0261359
-0.00120182 -0.0261359
-0.00143901 -0.0259683
-0.00143901 -0.0259683
-0.00167365 -0.0257699
-0.00167365 -0.0257699
-0.00190585 -0.02554
-0.00190585 -0.02554
-0.00212959 -0.0252769
-0.00212959 -0.0252769
-0.00234003 -0.02498
-0.00234003 -0.02498
-0.00253512 -0.024655
-0.00253512 -0.024655
-0.00271693 -0.0243173
-0.00271693 -0.0243173
-0.00287546 -0.0239945
-0.00287546 -0.0239945
-0.00300977 -0.0236833
-0.00300977 -0.0236833
-0.00312287 -0.0233962
-0.00312287 -0.0233962
-0.00322663 -0.0231404
-0.00322663 -0.0231404
-0.00333296 -0.0229414
-0.00333296 -0.0229414
-0.00342438 -0.0228268
-0.00342438 -0.0228268
-0.0035158 -0.0228166
-0.0035158 -0.0228166
-0.00358162 -0.0229778
-0.00358162 -0.0229778
-0.00354203 -0.0233832
-0.00354203 -0.0233832
-0.0031112 -0.0245109
-0.0031112 -0.0245109
-0.00216811 -0.0269121
-0.00216811 -0.0269121
-0.00151205 -0.0290948
-0.00151205 -0.0290948
-0.000941879 -0.0308471
-0.000941879 -0.0308471
-0.000352699 -0.0321596
-0.000352699 -0.0321596
0.000239004 -0.0331372
0.000239004 -0.0331372
0.000799525 -0.0339116
0.000799525 -0.0339116
0.00134016 -0.0344998
0.00134016 -0.0344998
0.00185162 -0.0349676
0.00185162 -0.0349676
0.00232388 -0.0353377
0.00232388 -0.0353377
0.00275846 -0.0356097
0.00275846 -0.0356097
0.00316127 -0.03581
0.00316127 -0.03581
0.00352934 -0.0359606
0.00352934 -0.0359606
0.00386143 -0.0360605
      </DataArray> 
      <DataArray type="Float64" NumberOfComponents="2" Name="Velocity" format="ascii">
0 0
0 0
0 0
0 0
0 0
0 0
0 0
0 0
0 0
0 0
0 0
0 0
0 0
0 0
0 0
0 0
0 0
0 0
0 0
0 0
0 0
0 0
0 0
0 0
0 0
0 0
0 0
0 0
0 0
0 0
0 0
0 0
0 0
0 0
0 0
0 0
0 0
0 0
0 0
0 0
0 0
0 0
0 0
0 0
0 0
0 0
0 0
0 0
0 0
0 0
0 0
0 0
0 0
0 0
0 0
0 0
0 0
0 0
0 0
0 0
0 0
0 0
0 0
0 0
0 0
0 0
0 0
0 0
0 0
0 0
0 0
0 0
0 0
0 0
0 0
0 0
0 0
0 0
0 0
0 0
0 0
0 0
0 0
0 0
0 0
0 0
0 0
0 0
0 0
0 0
0 0
0 0
0 0
0 0
0 0
0 0
0 0
0 0
0 0
0 0
0 0
0 0
0 0
0 0
0 0
0 0
0 0
0 0
0 0
0 0
0 0
0 0
0 0
0 0
0 0
0 0
0 0
0 0
0 0
0 0
0 0
0 0
0 0
0 0
0 0
0 0
0 0
0 0
0 0
0 0
0 0
0 0
0 0
0 0
0 0
0 0
0 0
0 0
0 0
0 0
0 0
0 0
0 0
0 0
0 0
0 0
0 0
0 0
0 0
0 0
0 0
0 0
0 0
0 0
0 0
0 0
0 0
0 0
0 0
0 0
0 0
0 0
0 0
0 0
0 0
0 0
0 0
0 0
0 0
0 0
0 0
0 0
0 0
0 0
0 0
0 0
0 0
0 0
0 0
0 0
0 0
0 0
0 0
0 0
0 0
0 0
0 0
0 0
0 0
0 0
0 0
0 0
0 0
0 0
0 0
0 0
0 0
0 0
0 0
0 0
0 0
0 0
0 0
0 0
0 0
0 0
0 0
0 0
0 0
0 0
0 0
0 0
0 0
0 0
0 0
0 0
0 0
0 0
0 0
0 0
0 0
0 0
0 0
0 0
0 0
0 0
0 0
0 0
0 0
0 0
0 0
0 0
0 0
0 0
0 0
0 0
0 0
0 0
0 0
0 0
0 0
0 0
0 0
0 0
0 0
0 0
0 0
0 0
0 0
0 0
0 0
0 0
0 0
0 0
0 0
0 0
0 0
0 0
0 0
0 0
0 0
0 0
0 0
0 0
0 0
0 0
0 0
0 0
0 0
0 0
0 0
0 0
0 0
0 0
0 0
0 0
0 0
0 0
0 0
0 0
0 0
0 0
0 0
0 0
0 0
0 0
0 0
0 0
0 0
0 0
0 0
0 0
0 0
0 0
0 0
0 0
0 0
0 0
0 0
0 0
0 0
0 0
0 0
0 0
0 0
0 0
0 0
0 0
0 0
0 0
0 0
0 0
0 0
0 0
0 0
0 0
0 0
0 0
0 0
0 0
0 0
0 0
0 0
0 0
0 0
0 0
0 0
0 0
0 0
0 0
0 0
0 0
0 0
0 0
0 0
0 0
0 0
0 0
0 0
0 0
0 0
0 0
0 0
0 0
0 0
0 0
0 0
0 0
0 0
0 0
0 0
0 0
0 0
0 0
0 0
0 0
0 0
0 0
0 0
0 0
0 0
0 0
0 0
0 0
0 0
0 0
0 0
0 0
0 0
0 0
0 0
0 0
0 0
0 0
0 0
0 0
0 0
0 0
0 0
0 0
0 0
0 0
0 0
0 0
0 0
0 0
0 0
0 0
0 0
0 0
0 0
0 0
0 0
0 0
0 0
0 0
0 0
0 0
0 0
0 0
0 0
0 0
0 0
0 0
0 0
0 0
0 0
0 0
0 0
0 0
0 0
0 0
0 0
0 0
0 0
0 0
0 0
0 0
0 0
0 0
0 0
0 0
0 0
0 0
0 0
0 0
0 0
0 0
0 0
0 0
0 0
0 0
0 0
0 0
0 0
0 0
0 0
0 0
0 0
0 0
0 0
0 0
0 0
0 0
0 0
0 0
0 0
0 0
0 0
0 0
0 0
0 0
0 0
0 0
0 0
0 0
0 0
0 0
0 0
0 0
0 0
0 0
0 0
0 0
0 0
0 0
0 0
0 0
0 0
0 0
0 0
0 0
0 0
0 0
0 0
0 0
0 0
0 0
0 0
0 0
0 0
0 0
0 0
0 0
0 0
0 0
0 0
0 0
0 0
0 0
0 0
0 0
0 0
0 0
0 0
0 0
0 0
0 0
0 0
0 0
0 0
0 0
0 0
0 0
0 0
0 0
0 0
0 0
0 0
0 0
0 0
0 0
0 0
0 0
0 0
0 0
0 0
0 0
0 0
0 0
0 0
0 0
0 0
0 0
0 0
0 0
0 0
0 0
0 0
0 0
0 0
0 0
0 0
0 0
0 0
0 0
0 0
0 0
0 0
0 0
0 0
0 0
0 0
0 0
0 0
0 0
0 0
0 0
0 0
0 0
0 0
0 0
0 0
0 0
0 0
0 0
0 0
0 0
0 0
0 0
0 0
0 0
0 0
0 0
0 0
0 0
0 0
0 0
0 0
0 0
0 0
0 0
0 0
0 0
0 0
0 0
0 0
0 0
0 0
0 0
0 0
0 0
0 0
0 0
0 0
0 0
0 0
0 0
0 0
0 0
0 0
0 0
0 0
0 0
0 0
0 0
0 0
0 0
0 0
0 0
0 0
0 0
0 0
0 0
0 0
0 0
0 0
0 0
0 0
0 0
0 0
0 0
0 0
0 0
0 0
0 0
0 0
0 0
0 0
0 0
0 0
0 0
0 0
0 0
0 0
0 0
0 0
0 0
0 0
0 0
0 0
0 0
0 0
0 0
0 0
0 0
0 0
0 0
0 0
0 0
0 0
0 0
0 0
0 0
0 0
0 0
0 0
0 0
0 0
0 0
0 0
0 0
0 0
0 0
0 0
0 0
0 0
0 0
0 0
0 0
0 0
0 0
0 0
0 0
0 0
0 0
0 0
0 0
0 0
0 0
0 0
0 0
0 0
0 0
0 0
0 0
0 0
0 0
0 0
0 0
0 0
0 0
0 0
0 0
0 0
0 0
0 0
0 0
0 0
0 0
0 0
0 0
0 0
0 0
0 0
0 0
0 0
0 0
0 0
0 0
0 0
0 0
0 0
0 0
0 0
0 0
0 0
0 0
0 0
0 0
0 0
0 0
0 0
0 0
0 0
0 0
0 0
0 0
0 0
0 0
0 0
0 0
0 0
0 0
0 0
0 0
0 0
0 0
0 0
0 0
0 0
0 0
0 0
0 0
0 0
0 0
0 0
0 0
0 0
0 0
0 0
0 0
0 0
0 0
0 0
0 0
0 0
0 0
0 0
0 0
0 0
0 0
0 0
0 0
0 0
0 0
0 0
0 0
0 0
0 0
0 0
0 0
0 0
0 0
0 0
0 0
0 0
0 0
0 0
0 0
0 0
0 0
0 0
0 0
0 0
0 0
0 0
0 0
0 0
0 0
0 0
0 0
0 0
0 0
0 0
0 0
0 0
0 0
0 0
0 0
0 0
0 0
0 0
0 0
0 0
0 0
0 0
0 0
0 0
0 0
0 0
0 0
0 0
0 0
0 0
0 0
0 0
0 0
0 0
0 0
0 0
0 0
0 0
0 0
0 0
0 0
0 0
0 0
0 0
0 0
0 0
0 0
0 0
0 0
0 0
0 0
0 0
0 0
0 0
0 0
0 0
0 0
0 0
0 0
0 0
0 0
0 0
0 0
0 0
0 0
0 0
0 0
0 0
0 0
0 0
0 0
0 0
0 0
0 0
0 0
0 0
0 0
0 0
0 0
0 0
0 0
0 0
0 0
0 0
0 0
0 0
0 0
0 0
0 0
0 0
0 0
0 0
0 0
0 0
0 0
0 0
0 0
0 0
0 0
0 0
0 0
0 0
0 0
0 0
0 0
0 0
0 0
0 0
0 0
0 0
0 0
0 0
0 0
0 0
0 0
0 0
0 0
0 0
0 0
0 0
0 0
0 0
0 0
0 0
0 0
0 0
0 0
0 0
0 0
0 0
0 0
0 0
0 0
0 0
0 0
0 0
0 0
0 0
0 0
0 0
0 0
0 0
0 0
0 0
0 0
0 0
0 0
0 0
0 0
0 0
0 0
0 0
0 0
0 0
0 0
0 0
0 0
0 0
0 0
0 0
0 0
0 0
0 0
0 0
0 0
0 0
0 0
0 0
0 0
0 0
0 0
0 0
0 0
0 0
0 0
0 0
0 0
0 0
0 0
0 0
0 0
0 0
0 0
0 0
0 0
0 0
0 0
0 0
0 0
0 0
0 0
0 0
0 0
0 0
0 0
0 0
0 0
0 0
0 0
0 0
0 0
0 0
0 0
0 0
0 0
0 0
0 0
0 0
0 0
0 0
0 0
0 0
0 0
0 0
0 0
0 0
0 0
0 0
0 0
0 0
0 0
0 0
0 0
0 0
0 0
0 0
0 0
0 0
0 0
0 0
0 0
0 0
0 0
0 0
0 0
0 0
0 0
0 0
0 0
0 0
0 0
0 0
0 0
0 0
0 0
0 0
0 0
0 0
0 0
0 0
0 0
0 0
0 0
0 0
0 0
0 0
0 0
0 0
0 0
0 0
0 0
0 0
0 0
0 0
0 0
0 0
0 0
0 0
0 0
0 0
0 0
0 0
0 0
0 0
0 0
0 0
0 0
0 0
0 0
0 0
0 0
0 0
0 0
0 0
0 0
0 0
0 0
0 0
0 0
0 0
0 0
0 0
0 0
0 0
0 0
0 0
0 0
0 0
0 0
0 0
0 0
0 0
0 0
0 0
0 0
0 0
0 0
0 0
0 0
0 0
0 0
0 0
0 0
0 0
0 0
0 0
0 0
0 0
0 0
0 0
0 0
0 0
0 0
0 0
0 0
0 0
0 0
0 0
0 0
0 0
0 0
0 0
0 0
0 0
0 0
0 0
0 0
0 0
0 0
0 0
0 0
0 0
0 0
0 0
0 0
0 0
0 0
0 0
0 0
0 0
0 0
0 0
0 0
0 0
0 0
0 0
0 0
0 0
0 0
0 0
0 0
0 0
0 0
0 0
0 0
0 0
0 0
0 0
0 0
0 0
0 0
0 0
0 0
0 0
0 0
0 0
0 0
0 0
0 0
0 0
0 0
0 0
0 0
0 0
0 0
0 0
0 0
0 0
0 0
0 0
0 0
0 0
0 0
0 0
0 0
0 0
0 0
0 0
0 0
0 0
0 0
0 0
0 0
0 0
0 0
0 0
0 0
0 0
0 0
0 0
0 0
0 0
0 0
0 0
0 0
0 0
0 0
0 0
0 0
0 0
0 0
0 0
0 0
0 0
0 0
0 0
0 0
0 0
0 0
0 0
0 0
0 0
0 0
0 0
0 0
0 0
0 0
0 0
0 0
0 0
0 0
0 0
0 0
0 0
0 0
0 0
0 0
0 0
0 0
0 0
0 0
0 0
0 0
0 0
0 0
0 0
0 0
0 0
0 0
0 0
0 0
0 0
0 0
0 0
0 0
0 0
0 0
0 0
0 0
0 0
0 0
0 0
0 0
0 0
0 0
0 0
0 0
0 0
0 0
0 0
0 0
0 0
0 0
0 0
0 0
0 0
0 0
0 0
0 0
0 0
0 0
0 0
0 0
0 0
0 0
0 0
0 0
0 0
0 0
0 0
0 0
0 0
0 0
0 0
0 0
0 0
0 0
0 0
0 0
0 0
0 0
0 0
0 0
0 0
0 0
0 0
0 0
0 0
0 0
0 0
0 0
0 0
0 0
0 0
0 0
0 0
0 0
0 0
0 0
0 0
0 0
0 0
0 0
0 0
0 0
0 0
0 0
0 0
0 0
0 0
0 0
0 0
0 0
0 0
0 0
0 0
0 0
0 0
0 0
0 0
0 0
0 0
0 0
0 0
0 0
0 0
0 0
0 0
0 0
0 0
0 0
0 0
0 0
0 0
0 0
0 0
0 0
0 0
0 0
0 0
0 0
0 0
0 0
0 0
0 0
0 0
0 0
0 0
0 0
0 0
0 0
0 0
0 0
0 0
0 0
0 0
0 0
0 0
0 0
0 0
0 0
0 0
0 0
0 0
0 0
0 0
0 0
0 0
0 0
0 0
0 0
0 0
0 0
0 0
0 0
0 0
0 0
0 0
0 0
0 0
0 0
0 0
0 0
0 0
0 0
0 0
0 0
0 0
0 0
0 0
0 0
0 0
0 0
0 0
0 0
0 0
0 0
0 0
0 0
0 0
0 0
0 0
0 0
0 0
0 0
0 0
0 0
0 0
0 0
0 0
0 0
0 0
0 0
0 0
0 0
0 0
0 0
0 0
0 0
0 0
0 0
0 0
0 0
0 0
0 0
0 0
0 0
0 0
0 0
0 0
0 0
0 0
0 0
0 0
0 0
0 0
0 0
0 0
0 0
0 0
0 0
0 0
0 0
0 0
0 0
0 0
0 0
0 0
0 0
0 0
0 0
0 0
0 0
0 0
0 0
0 0
0 0
0 0
0 0
0 0
0 0
0 0
0 0
0 0
0 0
0 0
0 0
0 0
0 0
0 0
0 0
0 0
0 0
0 0
0 0
0 0
0 0
0 0
0 0
0 0
0 0
0 0
0 0
0 0
0 0
0 0
0 0
0 0
0 0
0 0
0 0
0 0
0 0
0 0
0 0
0 0
0 0
0 0
0 0
0 0
0 0
0 0
0 0
0 0
0 0
0 0
0 0
0 0
0 0
0 0
0 0
0 0
0 0
0 0
0 0
0 0
0 0
0 0
0 0
0 0
0 0
0 0
0 0
0 0
0 0
0 0
0 0
0 0
0 0
0 0
0 0
0 0
0 0
0 0
0 0
0 0
0 0
0 0
0 0
0 0
0 0
0 0
0 0
0 0
0 0
0 0
0 0
0 0
0 0
0 0
0 0
0 0
0 0
0 0
0 0
0 0
0 0
0 0
0 0
0 0
0 0
0 0
0 0
0 0
0 0
0 0
0 0
0 0
0 0
0 0
0 0
0 0
0 0
0 0
0 0
0 0
0 0
0 0
0 0
0 0
0 0
0 0
0 0
0 0
0 0
0 0
0 0
0 0
0 0
0 0
0 0
0 0
0 0
0 0
0 0
0 0
0 0
0 0
0 0
0 0
0 0
0 0
0 0
0 0
0 0
0 0
0 0
0 0
0 0
0 0
0 0
0 0
0 0
0 0
0 0
0 0
0 0
0 0
0 0
0 0
0 0
0 0
0 0
0 0
0 0
0 0
0 0
0 0
0 0
0 0
0 0
0 0
0 0
0 0
0 0
0 0
0 0
0 0
0 0
0 0
0 0
0 0
0 0
0 0
0 0
0 0
0 0
0 0
0 0
0 0
0 0
0 0
0 0
0 0
0 0
0 0
0 0
0 0
0 0
0 0
0 0
0 0
0 0
0 0
0 0
0 0
0 0
0 0
0 0
0 0
0 0
0 0
0 0
0 0
0 0
0 0
0 0
0 0
0 0
0 0
0 0
0 0
0 0
0 0
0 0
0 0
0 0
0 0
0 0
0 0
0 0
0 0
0 0
0 0
0 0
0 0
0 0
0 0
0 0
0 0
0 0
0 0
0 0
0 0
0 0
0 0
0 0
0 0
0 0
0 0
0 0
0 0
0 0
0 0
0 0
0 0
0 0
0 0
0 0
0 0
0 0
0 0
0 0
0 0
0 0
0 0
0 0
0 0
0 0
0 0
0 0
0 0
0 0
0 0
0 0
0 0
0 0
0 0
0 0
0 0
0 0
0 0
0 0
0 0
0 0
0 0
0 0
0 0
0 0
0 0
0 0
0 0
0 0
0 0
0 0
0 0
0 0
0 0
0 0
0 0
0 0
0 0
0 0
0 0
0 0
0 0
0 0
0 0
0 0
0 0
0 0
0 0
0 0
0 0
0 0
0 0
0 0
0 0
0 0
0 0
0 0
0 0
0 0
0 0
0 0
0 0
0 0
0 0
0 0
0 0
0 0
0 0
0 0
0 0
0 0
0 0
0 0
0 0
0 0
0 0
0 0
0 0
0 0
0 0
0 0
0 0
0 0
0 0
0 0
0 0
0 0
0 0
0 0
0 0
0 0
0 0
0 0
0 0
0 0
0 0
0 0
0 0
0 0
0 0
0 0
0 0
0 0
0 0
0 0
0 0
0 0
0 0
0 0
0 0
0 0
0 0
0 0
0 0
0 0
0 0
0 0
0 0
0 0
0 0
0 0
0 0
0 0
0 0
0 0
0 0
0 0
0 0
0 0
0 0
0 0
0 0
0 0
0 0
0 0
0 0
0 0
0 0
0 0
0 0
0 0
0 0
0 0
0 0
0 0
0 0
0 0
0 0
0 0
0 0
0 0
0 0
0 0
0 0
0 0
0 0
0 0
0 0
0 0
0 0
0 0
0 0
0 0
0 0
0 0
0 0
0 0
0 0
0 0
0 0
0 0
0 0
0 0
0 0
0 0
0 0
0 0
0 0
0 0
0 0
0 0
0 0
0 0
0 0
0 0
0 0
0 0
0 0
0 0
0 0
0 0
0 0
0 0
0 0
0 0
0 0
0 0
0 0
0 0
0 0
0 0
0 0
0 0
0 0
0 0
0 0
0 0
0 0
0 0
0 0
0 0
0 0
0 0
0 0
0 0
0 0
0 0
0 0
0 0
0 0
0 0
0 0
0 0
0 0
0 0
0 0
0 0
0 0
0 0
0 0
0 0
0 0
0 0
0 0
0 0
0 0
0 0
0 0
0 0
0 0
0 0
0 0
0 0
0 0
0 0
0 0
0 0
0 0
0 0
0 0
0 0
0 0
0 0
0 0
0 0
0 0
0 0
0 0
0 0
0 0
0 0
0 0
0 0
0 0
0 0
0 0
0 0
0 0
0 0
0 0
0 0
0 0
0 0
0 0
0 0
0 0
0 0
0 0
0 0
0 0
0 0
0 0
0 0
0 0
0 0
0 0
0 0
0 0
0 0
0 0
0 0
0 0
0 0
0 0
0 0
0 0
0 0
0 0
0 0
0 0
0 0
0 0
0 0
0 0
0 0
0 0
0 0
0 0
0 0
0 0
0 0
0 0
0 0
0 0
0 0
0 0
0 0
0 0
0 0
0 0
0 0
0 0
0 0
0 0
0 0
0 0
0 0
0 0
0 0
0 0
0 0
0 0
0 0
0 0
0 0
0 0
0 0
0 0
0 0
0 0
0 0
0 0
0 0
0 0
0 0
0 0
0 0
0 0
0 0
0 0
0 0
0 0
0 0
0 0
0 0
0 0
0 0
0 0
0 0
0 0
0 0
0 0
0 0
0 0
0 0
0 0
0 0
0 0
0 0
0 0
0 0
0 0
0 0
0 0
0 0
0 0
0 0
0 0
0 0
0 0
0 0
0 0
0 0
0 0
0 0
0 0
0 0
0 0
0 0
0 0
0 0
0 0
0 0
0 0
0 0
0 0
0 0
0 0
0 0
0 0
0 0
0 0
0 0
0 0
0 0
0 0
0 0
0 0
0 0
0 0
0 0
0 0
0 0
0 0
0 0
0 0
0 0
0 0
0 0
0 0
0 0
0 0
0 0
0 0
0 0
0 0
0 0
0 0
0 0
0 0
0 0
0 0
0 0
0 0
0 0
0 0
0 0
0 0
0 0
0 0
0 0
0 0
0 0
0 0
0 0
0 0
0 0
0 0
0 0
0 0
0 0
0 0
0 0
0 0
0 0
0 0
0 0
0 0
0 0
0 0
0 0
0 0
0 0
0 0
0 0
0 0
0 0
0 0
0 0
0 0
0 0
0 0
0 0
0 0
0 0
0 0
0 0
0 0
0 0
0 0
0 0
0 0
0 0
0 0
0 0
0 0
0 0
0 0
0 0
0 0
0 0
0 0
0 0
0 0
0 0
0 0
0 0
0 0
0 0
0 0
0 0
0 0
0 0
0 0
0 0
0 0
0 0
0 0
0 0
0 0
0 0
0 0
0 0
0 0
0 0
0 0
0 0
0 0
0 0
0 0
0 0
0 0
0 0
0 0
0 0
0 0
0 0
0 0
0 0
0 0
0 0
0 0
0 0
0 0
0 0
0 0
0 0
0 0
0 0
0 0
0 0
0 0
0 0
0 0
0 0
0 0
0 0
0 0
0 0
0 0
0 0
0 0
0 0
0 0
0 0
0 0
0 0
0 0
0 0
0 0
0 0
0 0
0 0
0 0
0 0
0 0
0 0
0 0
0 0
0 0
0 0
0 0
0 0
0 0
0 0
0 0
0 0
0 0
0 0
0 0
0 0
0 0
0 0
0 0
0 0
0 0
0 0
0 0
0 0
0 0
0 0
0 0
0 0
0 0
0 0
0 0
0 0
0 0
0 0
0 0
0 0
0 0
0 0
0 0
0 0
0 0
0 0
0 0
0 0
0 0
0 0
0 0
0 0
0 0
0 0
0 0
0 0
0 0
0 0
0 0
0 0
0 0
0 0
0 0
0 0
0 0
0 0
0 0
0 0
0 0
0 0
0 0
0 0
0 0
0 0
0 0
0 0
0 0
0 0
0 0
0 0
0 0
0 0
0 0
0 0
0 0
0 0
0 0
0 0
0 0
0 0
0 0
0 0
0 0
0 0
0 0
0 0
0 0
0 0
0 0
0 0
0 0
0 0
0 0
0 0
0 0
0 0
0 0
0 0
0 0
0 0
0 0
0 0
0 0
0 0
0 0
0 0
0 0
0 0
0 0
0 0
0 0
0 0
0 0
0 0
0 0
0 0
0 0
0 0
0 0
0 0
0 0
0 0
0 0
0 0
0 0
0 0
0 0
0 0
0 0
0 0
0 0
0 0
0 0
0 0
0 0
0 0
0 0
0 0
0 0
0 0
0 0
0 0
0 0
0 0
0 0
0 0
0 0
0 0
0 0
0 0
0 0
0 0
0 0
0 0
0 0
0 0
0 0
0 0
0 0
0 0
0 0
0 0
0 0
0 0
0 0
0 0
0 0
0 0
0 0
0 0
0 0
0 0
0 0
0 0
0 0
0 0
0 0
0 0
0 0
0 0
0 0
0 0
0 0
0 0
0 0
0 0
0 0
0 0
0 0
0 0
0 0
0 0
0 0
0 0
0 0
0 0
0 0
0 0
0 0
0 0
0 0
0 0
0 0
0 0
0 0
0 0
0 0
0 0
0 0
0 0
0 0
0 0
0 0
0 0
0 0
0 0
0 0
0 0
0 0
0 0
0 0
0 0
0 0
0 0
0 0
0 0
0 0
0 0
0 0
0 0
0 0
0 0
0 0
0 0
0 0
0 0
0 0
0 0
0 0
0 0
0 0
0 0
0 0
0 0
0 0
0 0
0 0
0 0
0 0
0 0
0 0
0 0
0 0
0 0
0 0
0 0
0 0
0 0
0 0
0 0
0 0
0 0
0 0
0 0
0 0
0 0
0 0
0 0
0 0
0 0
0 0
0 0
0 0
0 0
0 0
0 0
0 0
0 0
0 0
0 0
0 0
0 0
0 0
0 0
0 0
0 0
0 0
0 0
0 0
0 0
0 0
0 0
0 0
0 0
0 0
0 0
0 0
0 0
0 0
0 0
0 0
0 0
0 0
0 0
0 0
0 0
0 0
0 0
0 0
0 0
0 0
0 0
0 0
0 0
0 0
0 0
0 0
0 0
0 0
0 0
0 0
0 0
0 0
0 0
0 0
0 0
0 0
0 0
0 0
0 0
0 0
0 0
0 0
0 0
0 0
0 0
0 0
0 0
0 0
0 0
0 0
0 0
0 0
0 0
0 0
0 0
0 0
0 0
0 0
0 0
0 0
0 0
0 0
0 0
0 0
0 0
0 0
0 0
0 0
0 0
0 0
0 0
0 0
0 0
0 0
0 0
0 0
0 0
0 0
0 0
0 0
0 0
0 0
0 0
0 0
0 0
0 0
0 0
0 0
0 0
0 0
0 0
0 0
0 0
0 0
0 0
0 0
0 0
0 0
0 0
0 0
0 0
0 0
0 0
0 0
0 0
0 0
0 0
0 0
0 0
0 0
0 0
0 0
0 0
0 0
0 0
0 0
0 0
0 0
0 0
0 0
0 0
0 0
0 0
0 0
0 0
0 0
0 0
0 0
0 0
0 0
0 0
0 0
0 0
0 0
0 0
0 0
0 0
0 0
0 0
0 0
0 0
0 0
0 0
0 0
0 0
0 0
0 0
0 0
0 0
0 0
0 0
0 0
0 0
0 0
0 0
0 0
0 0
0 0
0 0
0 0
0 0
0 0
0 0
0 0
0 0
0 0
0 0
0 0
0 0
0 0
0 0
0 0
0 0
0 0
0 0
0 0
0 0
0 0
0 0
0 0
0 0
0 0
0 0
0 0
0 0
0 0
0 0
0 0
0 0
0 0
0 0
0 0
0 0
0 0
0 0
0 0
0 0
0 0
0 0
0 0
0 0
0 0
0 0
0 0
0 0
0 0
0 0
0 0
0 0
0 0
0 0
0 0
0 0
0 0
0 0
0 0
0 0
0 0
0 0
0 0
0 0
0 0
0 0
0 0
0 0
0 0
0 0
0 0
0 0
0 0
0 0
0 0
0 0
0 0
0 0
0 0
0 0
0 0
0 0
0 0
0 0
0 0
0 0
0 0
0 0
0 0
0 0
0 0
0 0
0 0
0 0
0 0
0 0
0 0
0 0
0 0
0 0
0 0
0 0
0 0
0 0
0 0
0 0
0 0
0 0
0 0
0 0
0 0
0 0
0 0
0 0
0 0
0 0
0 0
0 0
0 0
0 0
0 0
0 0
0 0
0 0
0 0
0 0
0 0
0 0
0 0
0 0
0 0
0 0
0 0
0 0
0 0
0 0
0 0
0 0
0 0
0 0
0 0
0 0
0 0
0 0
0 0
0 0
0 0
0 0
0 0
0 0
0 0
0 0
0 0
0 0
0 0
0 0
0 0
0 0
0 0
0 0
0 0
0 0
0 0
0 0
0 0
0 0
0 0
0 0
0 0
0 0
0 0
0 0
0 0
0 0
0 0
0 0
0 0
0 0
0 0
0 0
0 0
0 0
0 0
0 0
0 0
0 0
0 0
0 0
0 0
0 0
0 0
0 0
0 0
0 0
0 0
0 0
0 0
0 0
0 0
0 0
0 0
0 0
0 0
0 0
0 0
0 0
0 0
0 0
0 0
0 0
0 0
0 0
0 0
0 0
0 0
0 0
0 0
0 0
0 0
0 0
0 0
0 0
0 0
0 0
0 0
0 0
0 0
0 0
0 0
0 0
0 0
0 0
0 0
0 0
0 0
0 0
0 0
0 0
0 0
0 0
0 0
0 0
0 0
0 0
0 0
0 0
0 0
0 0
0 0
0 0
0 0
0 0
0 0
0 0
0 0
0 0
0 0
0 0
0 0
0 0
0 0
0 0
0 0
0 0
0 0
0 0
0 0
0 0
0 0
0 0
0 0
0 0
0 0
0 0
0 0
0 0
0 0
0 0
0 0
0 0
0 0
0 0
0 0
0 0
0 0
0 0
0 0
0 0
0 0
0 0
0 0
0 0
0 0
0 0
0 0
0 0
0 0
0 0
0 0
0 0
0 0
0 0
0 0
0 0
0 0
0 0
0 0
0 0
0 0
0 0
0 0
0 0
0 0
0 0
0 0
0 0
0 0
0 0
0 0
0 0
0 0
0 0
0 0
0 0
0 0
0 0
0 0
0 0
0 0
0 0
0 0
0 0
0 0
0 0
0 0
0 0
0 0
0 0
0 0
0 0
0 0
0 0
0 0
0 0
0 0
0 0
0 0
0 0
0 0
0 0
0 0
0 0
0 0
0 0
0 0
0 0
0 0
0 0
0 0
0 0
0 0
0 0
0 0
0 0
0 0
0 0
0 0
0 0
0 0
0 0
0 0
0 0
0 0
0 0
0 0
0 0
0 0
0 0
0 0
0 0
0 0
0 0
0 0
0 0
0 0
0 0
0 0
0 0
0 0
0 0
0 0
0 0
0 0
0 0
0 0
0 0
0 0
0 0
0 0
0 0
0 0
0 0
0 0
0 0
0 0
0 0
0 0
0 0
0 0
0 0
0 0
0 0
0 0
0 0
0 0
0 0
0 0
0 0
0 0
0 0
0 0
0 0
0 0
0 0
0 0
0 0
0 0
0 0
0 0
0 0
0 0
0 0
0 0
0 0
0 0
0 0
0 0
0 0
0 0
0 0
0 0
0 0
0 0
0 0
0 0
0 0
0 0
0 0
0 0
0 0
0 0
0 0
0 0
0 0
0 0
0 0
0 0
0 0
0 0
0 0
0 0
0 0
0 0
0 0
0 0
0 0
0 0
0 0
0 0
0 0
0 0
0 0
0 0
0 0
0 0
0 0
0 0
0 0
0 0
0 0
0 0
0 0
0 0
0 0
0 0
0 0
0 0
0 0
0 0
0 0
0 0
0 0
0 0
0 0
0 0
0 0
0 0
0 0
0 0
0 0
0 0
0 0
0 0
0 0
0 0
0 0
0 0
0 0
0 0
0 0
0 0
0 0
0 0
0 0
0 0
0 0
0 0
0 0
0 0
0 0
0 0
0 0
0 0
0 0
0 0
0 0
0 0
0 0
0 0
0 0
0 0
0 0
0 0
0 0
0 0
0 0
0 0
0 0
0 0
0 0
0 0
0 0
0 0
0 0
0 0
0 0
0 0
0 0
0 0
0 0
0 0
0 0
0 0
0 0
0 0
0 0
0 0
0 0
0 0
0 0
0 0
0 0
0 0
0 0
0 0
0 0
0 0
0 0
0 0
0 0
0 0
0 0
0 0
0 0
0 0
0 0
0 0
0 0
0 0
0 0
0 0
0 0
0 0
0 0
0 0
0 0
0 0
0 0
0 0
0 0
0 0
0 0
0 0
0 0
0 0
0 0
0 0
0 0
0 0
0 0
0 0
0 0
0 0
0 0
0 0
0 0
0 0
0 0
0 0
0 0
0 0
0 0
0 0
0 0
0 0
0 0
0 0
0 0
0 0
0 0
0 0
0 0
0 0
0 0
0 0
0 0
0 0
0 0
0 0
0 0
0 0
0 0
0 0
0 0
0 0
0 0
0 0
0 0
0 0
0 0
0 0
0 0
0 0
0 0
0 0
0 0
0 0
0 0
0 0
0 0
0 0
0 0
0 0
0 0
0 0
0 0
0 0
0 0
0 0
0 0
0 0
0 0
0 0
0 0
0 0
0 0
0 0
0 0
0 0
0 0
0 0
0 0
0 0
0 0
0 0
0 0
0 0
0 0
0 0
0 0
0 0
0 0
0 0
0 0
0 0
0 0
0 0
0 0
0 0
0 0
0 0
0 0
0 0
0 0
0 0
0 0
0 0
0 0
0 0
0 0
0 0
0 0
0 0
0 0
0 0
0 0
0 0
0 0
0 0
0 0
0 0
0 0
0 0
0 0
0 0
0 0
0 0
0 0
0 0
0 0
0 0
0 0
0 0
0 0
0 0
0 0
0 0
0 0
0 0
0 0
0 0
0 0
0 0
0 0
0 0
0 0
0 0
0 0
0 0
      </DataArray> 
      <DataArray type="Float64" NumberOfComponents="2" Name="Acceleration" format="ascii">
0 0
0 0
0 0
0 0
0 0
0 0
0 0
0 0
0 0
0 0
0 0
0 0
0 0
0 0
0 0
0 0
0 0
0 0
0 0
0 0
0 0
0 0
0 0
0 0
0 0
0 0
0 0
0 0
0 0
0 0
0 0
0 0
0 0
0 0
0 0
0 0
0 0
0 0
0 0
0 0
0 0
0 0
0 0
0 0
0 0
0 0
0 0
0 0
0 0
0 0
0 0
0 0
0 0
0 0
0 0
0 0
0 0
0 0
0 0
0 0
0 0
0 0
0 0
0 0
0 0
0 0
0 0
0 0
0 0
0 0
0 0
0 0
0 0
0 0
0 0
0 0
0 0
0 0
0 0
0 0
0 0
0 0
0 0
0 0
0 0
0 0
0 0
0 0
0 0
0 0
0 0
0 0
0 0
0 0
0 0
0 0
0 0
0 0
0 0
0 0
0 0
0 0
0 0
0 0
0 0
0 0
0 0
0 0
0 0
0 0
0 0
0 0
0 0
0 0
0 0
0 0
0 0
0 0
0 0
0 0
0 0
0 0
0 0
0 0
0 0
0 0
0 0
0 0
0 0
0 0
0 0
0 0
0 0
0 0
0 0
0 0
0 0
0 0
0 0
0 0
0 0
0 0
0 0
0 0
0 0
0 0
0 0
0 0
0 0
0 0
0 0
0 0
0 0
0 0
0 0
0 0
0 0
0 0
0 0
0 0
0 0
0 0
0 0
0 0
0 0
0 0
0 0
0 0
0 0
0 0
0 0
0 0
0 0
0 0
0 0
0 0
0 0
0 0
0 0
0 0
0 0
0 0
0 0
0 0
0 0
0 0
0 0
0 0
0 0
0 0
0 0
0 0
0 0
0 0
0 0
0 0
0 0
0 0
0 0
0 0
0 0
0 0
0 0
0 0
0 0
0 0
0 0
0 0
0 0
0 0
0 0
0 0
0 0
0 0
0 0
0 0
0 0
0 0
0 0
0 0
0 0
0 0
0 0
0 0
0 0
0 0
0 0
0 0
0 0
0 0
0 0
0 0
0 0
0 0
0 0
0 0
0 0
0 0
0 0
0 0
0 0
0 0
0 0
0 0
0 0
0 0
0 0
0 0
0 0
0 0
0 0
0 0
0 0
0 0
0 0
0 0
0 0
0 0
0 0
0 0
0 0
0 0
0 0
0 0
0 0
0 0
0 0
0 0
0 0
0 0
0 0
0 0
0 0
0 0
0 0
0 0
0 0
0 0
0 0
0 0
0 0
0 0
0 0
0 0
0 0
0 0
0 0
0 0
0 0
0 0
0 0
0 0
0 0
0 0
0 0
0 0
0 0
0 0
0 0
0 0
0 0
0 0
0 0
0 0
0 0
0 0
0 0
0 0
0 0
0 0
0 0
0 0
0 0
0 0
0 0
0 0
0 0
0 0
0 0
0 0
0 0
0 0
0 0
0 0
0 0
0 0
0 0
0 0
0 0
0 0
0 0
0 0
0 0
0 0
0 0
0 0
0 0
0 0
0 0
0 0
0 0
0 0
0 0
0 0
0 0
0 0
0 0
0 0
0 0
0 0
0 0
0 0
0 0
0 0
0 0
0 0
0 0
0 0
0 0
0 0
0 0
0 0
0 0
0 0
0 0
0 0
0 0
0 0
0 0
0 0
0 0
0 0
0 0
0 0
0 0
0 0
0 0
0 0
0 0
0 0
0 0
0 0
0 0
0 0
0 0
0 0
0 0
0 0
0 0
0 0
0 0
0 0
0 0
0 0
0 0
0 0
0 0
0 0
0 0
0 0
0 0
0 0
0 0
0 0
0 0
0 0
0 0
0 0
0 0
0 0
0 0
0 0
0 0
0 0
0 0
0 0
0 0
0 0
0 0
0 0
0 0
0 0
0 0
0 0
0 0
0 0
0 0
0 0
0 0
0 0
0 0
0 0
0 0
0 0
0 0
0 0
0 0
0 0
0 0
0 0
0 0
0 0
0 0
0 0
0 0
0 0
0 0
0 0
0 0
0 0
0 0
0 0
0 0
0 0
0 0
0 0
0 0
0 0
0 0
0 0
0 0
0 0
0 0
0 0
0 0
0 0
0 0
0 0
0 0
0 0
0 0
0 0
0 0
0 0
0 0
0 0
0 0
0 0
0 0
0 0
0 0
0 0
0 0
0 0
0 0
0 0
0 0
0 0
0 0
0 0
0 0
0 0
0 0
0 0
0 0
0 0
0 0
0 0
0 0
0 0
0 0
0 0
0 0
0 0
0 0
0 0
0 0
0 0
0 0
0 0
0 0
0 0
0 0
0 0
0 0
0 0
0 0
0 0
0 0
0 0
0 0
0 0
0 0
0 0
0 0
0 0
0 0
0 0
0 0
0 0
0 0
0 0
0 0
0 0
0 0
0 0
0 0
0 0
0 0
0 0
0 0
0 0
0 0
0 0
0 0
0 0
0 0
0 0
0 0
0 0
0 0
0 0
0 0
0 0
0 0
0 0
0 0
0 0
0 0
0 0
0 0
0 0
0 0
0 0
0 0
0 0
0 0
0 0
0 0
0 0
0 0
0 0
0 0
0 0
0 0
0 0
0 0
0 0
0 0
0 0
0 0
0 0
0 0
0 0
0 0
0 0
0 0
0 0
0 0
0 0
0 0
0 0
0 0
0 0
0 0
0 0
0 0
0 0
0 0
0 0
0 0
0 0
0 0
0 0
0 0
0 0
0 0
0 0
0 0
0 0
0 0
0 0
0 0
0 0
0 0
0 0
0 0
0 0
0 0
0 0
0 0
0 0
0 0
0 0
0 0
0 0
0 0
0 0
0 0
0 0
0 0
0 0
0 0
0 0
0 0
0 0
0 0
0 0
0 0
0 0
0 0
0 0
0 0
0 0
0 0
0 0
0 0
0 0
0 0
0 0
0 0
0 0
0 0
0 0
0 0
0 0
0 0
0 0
0 0
0 0
0 0
0 0
0 0
0 0
0 0
0 0
0 0
0 0
0 0
0 0
0 0
0 0
0 0
0 0
0 0
0 0
0 0
0 0
0 0
0 0
0 0
0 0
0 0
0 0
0 0
0 0
0 0
0 0
0 0
0 0
0 0
0 0
0 0
0 0
0 0
0 0
0 0
0 0
0 0
0 0
0 0
0 0
0 0
0 0
0 0
0 0
0 0
0 0
0 0
0 0
0 0
0 0
0 0
0 0
0 0
0 0
0 0
0 0
0 0
0 0
0 0
0 0
0 0
0 0
0 0
0 0
0 0
0 0
0 0
0 0
0 0
0 0
0 0
0 0
0 0
0 0
0 0
0 0
0 0
0 0
0 0
0 0
0 0
0 0
0 0
0 0
0 0
0 0
0 0
0 0
0 0
0 0
0 0
0 0
0 0
0 0
0 0
0 0
0 0
0 0
0 0
0 0
0 0
0 0
0 0
0 0
0 0
0 0
0 0
0 0
0 0
0 0
0 0
0 0
0 0
0 0
0 0
0 0
0 0
0 0
0 0
0 0
0 0
0 0
0 0
0 0
0 0
0 0
0 0
0 0
0 0
0 0
0 0
0 0
0 0
0 0
0 0
0 0
0 0
0 0
0 0
0 0
0 0
0 0
0 0
0 0
0 0
0 0
0 0
0 0
0 0
0 0
0 0
0 0
0 0
0 0
0 0
0 0
0 0
0 0
0 0
0 0
0 0
0 0
0 0
0 0
0 0
0 0
0 0
0 0
0 0
0 0
0 0
0 0
0 0
0 0
0 0
0 0
0 0
0 0
0 0
0 0
0 0
0 0
0 0
0 0
0 0
0 0
0 0
0 0
0 0
0 0
0 0
0 0
0 0
0 0
0 0
0 0
0 0
0 0
0 0
0 0
0 0
0 0
0 0
0 0
0 0
0 0
0 0
0 0
0 0
0 0
0 0
0 0
0 0
0 0
0 0
0 0
0 0
0 0
0 0
0 0
0 0
0 0
0 0
0 0
0 0
0 0
0 0
0 0
0 0
0 0
0 0
0 0
0 0
0 0
0 0
0 0
0 0
0 0
0 0
0 0
0 0
0 0
0 0
0 0
0 0
0 0
0 0
0 0
0 0
0 0
0 0
0 0
0 0
0 0
0 0
0 0
0 0
0 0
0 0
0 0
0 0
0 0
0 0
0 0
0 0
0 0
0 0
0 0
0 0
0 0
0 0
0 0
0 0
0 0
0 0
0 0
0 0
0 0
0 0
0 0
0 0
0 0
0 0
0 0
0 0
0 0
0 0
0 0
0 0
0 0
0 0
0 0
0 0
0 0
0 0
0 0
0 0
0 0
0 0
0 0
0 0
0 0
0 0
0 0
0 0
0 0
0 0
0 0
0 0
0 0
0 0
0 0
0 0
0 0
0 0
0 0
0 0
0 0
0 0
0 0
0 0
0 0
0 0
0 0
0 0
0 0
0 0
0 0
0 0
0 0
0 0
0 0
0 0
0 0
0 0
0 0
0 0
0 0
0 0
0 0
0 0
0 0
0 0
0 0
0 0
0 0
0 0
0 0
0 0
0 0
0 0
0 0
0 0
0 0
0 0
0 0
0 0
0 0
0 0
0 0
0 0
0 0
0 0
0 0
0 0
0 0
0 0
0 0
0 0
0 0
0 0
0 0
0 0
0 0
0 0
0 0
0 0
0 0
0 0
0 0
0 0
0 0
0 0
0 0
0 0
0 0
0 0
0 0
0 0
0 0
0 0
0 0
0 0
0 0
0 0
0 0
0 0
0 0
0 0
0 0
0 0
0 0
0 0
0 0
0 0
0 0
0 0
0 0
0 0
0 0
0 0
0 0
0 0
0 0
0 0
0 0
0 0
0 0
0 0
0 0
0 0
0 0
0 0
0 0
0 0
0 0
0 0
0 0
0 0
0 0
0 0
0 0
0 0
0 0
0 0
0 0
0 0
0 0
0 0
0 0
0 0
0 0
0 0
0 0
0 0
0 0
0 0
0 0
0 0
0 0
0 0
0 0
0 0
0 0
0 0
0 0
0 0
0 0
0 0
0 0
0 0
0 0
0 0
0 0
0 0
0 0
0 0
0 0
0 0
0 0
0 0
0 0
0 0
0 0
0 0
0 0
0 0
0 0
0 0
0 0
0 0
0 0
0 0
0 0
0 0
0 0
0 0
0 0
0 0
0 0
0 0
0 0
0 0
0 0
0 0
0 0
0 0
0 0
0 0
0 0
0 0
0 0
0 0
0 0
0 0
0 0
0 0
0 0
0 0
0 0
0 0
0 0
0 0
0 0
0 0
0 0
0 0
0 0
0 0
0 0
0 0
0 0
0 0
0 0
0 0
0 0
0 0
0 0
0 0
0 0
0 0
0 0
0 0
0 0
0 0
0 0
0 0
0 0
0 0
0 0
0 0
0 0
0 0
0 0
0 0
0 0
0 0
0 0
0 0
0 0
0 0
0 0
0 0
0 0
0 0
0 0
0 0
0 0
0 0
0 0
0 0
0 0
0 0
0 0
0 0
0 0
0 0
0 0
0 0
0 0
0 0
0 0
0 0
0 0
0 0
0 0
0 0
0 0
0 0
0 0
0 0
0 0
0 0
0 0
0 0
0 0
0 0
0 0
0 0
0 0
0 0
0 0
0 0
0 0
0 0
0 0
0 0
0 0
0 0
0 0
0 0
0 0
0 0
0 0
0 0
0 0
0 0
0 0
0 0
0 0
0 0
0 0
0 0
0 0
0 0
0 0
0 0
0 0
0 0
0 0
0 0
0 0
0 0
0 0
0 0
0 0
0 0
0 0
0 0
0 0
0 0
0 0
0 0
0 0
0 0
0 0
0 0
0 0
0 0
0 0
0 0
0 0
0 0
0 0
0 0
0 0
0 0
0 0
0 0
0 0
0 0
0 0
0 0
0 0
0 0
0 0
0 0
0 0
0 0
0 0
0 0
0 0
0 0
0 0
0 0
0 0
0 0
0 0
0 0
0 0
0 0
0 0
0 0
0 0
0 0
0 0
0 0
0 0
0 0
0 0
0 0
0 0
0 0
0 0
0 0
0 0
0 0
0 0
0 0
0 0
0 0
0 0
0 0
0 0
0 0
0 0
0 0
0 0
0 0
0 0
0 0
0 0
0 0
0 0
0 0
0 0
0 0
0 0
0 0
0 0
0 0
0 0
0 0
0 0
0 0
0 0
0 0
0 0
0 0
0 0
0 0
0 0
0 0
0 0
0 0
0 0
0 0
0 0
0 0
0 0
0 0
0 0
0 0
0 0
0 0
0 0
0 0
0 0
0 0
0 0
0 0
0 0
0 0
0 0
0 0
0 0
0 0
0 0
0 0
0 0
0 0
0 0
0 0
0 0
0 0
0 0
0 0
0 0
0 0
0 0
0 0
0 0
0 0
0 0
0 0
0 0
0 0
0 0
0 0
0 0
0 0
0 0
0 0
0 0
0 0
0 0
0 0
0 0
0 0
0 0
0 0
0 0
0 0
0 0
0 0
0 0
0 0
0 0
0 0
0 0
0 0
0 0
0 0
0 0
0 0
0 0
0 0
0 0
0 0
0 0
0 0
0 0
0 0
0 0
0 0
0 0
0 0
0 0
0 0
0 0
0 0
0 0
0 0
0 0
0 0
0 0
0 0
0 0
0 0
0 0
0 0
0 0
0 0
0 0
0 0
0 0
0 0
0 0
0 0
0 0
0 0
0 0
0 0
0 0
0 0
0 0
0 0
0 0
0 0
0 0
0 0
0 0
0 0
0 0
0 0
0 0
0 0
0 0
0 0
0 0
0 0
0 0
0 0
0 0
0 0
0 0
0 0
0 0
0 0
0 0
0 0
0 0
0 0
0 0
0 0
0 0
0 0
0 0
0 0
0 0
0 0
0 0
0 0
0 0
0 0
0 0
0 0
0 0
0 0
0 0
0 0
0 0
0 0
0 0
0 0
0 0
0 0
0 0
0 0
0 0
0 0
0 0
0 0
0 0
0 0
0 0
0 0
0 0
0 0
0 0
0 0
0 0
0 0
0 0
0 0
0 0
0 0
0 0
0 0
0 0
0 0
0 0
0 0
0 0
0 0
0 0
0 0
0 0
0 0
0 0
0 0
0 0
0 0
0 0
0 0
0 0
0 0
0 0
0 0
0 0
0 0
0 0
0 0
0 0
0 0
0 0
0 0
0 0
0 0
0 0
0 0
0 0
0 0
0 0
0 0
0 0
0 0
0 0
0 0
0 0
0 0
0 0
0 0
0 0
0 0
0 0
0 0
0 0
0 0
0 0
0 0
0 0
0 0
0 0
0 0
0 0
0 0
0 0
0 0
0 0
0 0
0 0
0 0
0 0
0 0
0 0
0 0
0 0
0 0
0 0
0 0
0 0
0 0
0 0
0 0
0 0
0 0
0 0
0 0
0 0
0 0
0 0
0 0
0 0
0 0
0 0
0 0
0 0
0 0
0 0
0 0
0 0
0 0
0 0
0 0
0 0
0 0
0 0
0 0
0 0
0 0
0 0
0 0
0 0
0 0
0 0
0 0
0 0
0 0
0 0
0 0
0 0
0 0
0 0
0 0
0 0
0 0
0 0
0 0
0 0
0 0
0 0
0 0
0 0
0 0
0 0
0 0
0 0
0 0
0 0
0 0
0 0
0 0
0 0
0 0
0 0
0 0
0 0
0 0
0 0
0 0
0 0
0 0
0 0
0 0
0 0
0 0
0 0
0 0
0 0
0 0
0 0
0 0
0 0
0 0
0 0
0 0
0 0
0 0
0 0
0 0
0 0
0 0
0 0
0 0
0 0
0 0
0 0
0 0
0 0
0 0
0 0
0 0
0 0
0 0
0 0
0 0
0 0
0 0
0 0
0 0
0 0
0 0
0 0
0 0
0 0
0 0
0 0
0 0
0 0
0 0
0 0
0 0
0 0
0 0
0 0
0 0
0 0
0 0
0 0
0 0
0 0
0 0
0 0
0 0
0 0
0 0
0 0
0 0
0 0
0 0
0 0
0 0
0 0
0 0
0 0
0 0
0 0
0 0
0 0
0 0
0 0
0 0
0 0
0 0
0 0
0 0
0 0
0 0
0 0
0 0
0 0
0 0
0 0
0 0
0 0
0 0
0 0
0 0
0 0
0 0
0 0
0 0
0 0
0 0
0 0
0 0
0 0
0 0
0 0
0 0
0 0
0 0
0 0
0 0
0 0
0 0
0 0
0 0
0 0
0 0
0 0
0 0
0 0
0 0
0 0
0 0
0 0
0 0
0 0
0 0
0 0
0 0
0 0
0 0
0 0
0 0
0 0
0 0
0 0
0 0
0 0
0 0
0 0
0 0
0 0
0 0
0 0
0 0
0 0
0 0
0 0
0 0
0 0
0 0
0 0
0 0
0 0
0 0
0 0
0 0
0 0
0 0
0 0
0 0
0 0
0 0
0 0
0 0
0 0
0 0
0 0
0 0
0 0
0 0
0 0
0 0
0 0
0 0
0 0
0 0
0 0
0 0
0 0
0 0
0 0
0 0
0 0
0 0
0 0
0 0
0 0
0 0
0 0
0 0
0 0
0 0
0 0
0 0
0 0
0 0
0 0
0 0
0 0
0 0
0 0
0 0
0 0
0 0
0 0
0 0
0 0
0 0
0 0
0 0
0 0
0 0
0 0
0 0
0 0
0 0
0 0
0 0
0 0
0 0
0 0
0 0
0 0
0 0
0 0
0 0
0 0
0 0
0 0
0 0
0 0
0 0
0 0
0 0
0 0
0 0
0 0
0 0
0 0
0 0
0 0
0 0
0 0
0 0
0 0
0 0
0 0
0 0
0 0
0 0
0 0
0 0
0 0
0 0
0 0
0 0
0 0
0 0
0 0
0 0
0 0
0 0
0 0
0 0
0 0
0 0
0 0
0 0
0 0
0 0
0 0
0 0
0 0
0 0
0 0
0 0
0 0
0 0
0 0
0 0
0 0
0 0
0 0
0 0
0 0
0 0
0 0
0 0
0 0
0 0
0 0
0 0
0 0
0 0
0 0
0 0
0 0
0 0
0 0
0 0
0 0
0 0
0 0
0 0
0 0
0 0
0 0
0 0
0 0
0 0
0 0
0 0
0 0
0 0
0 0
0 0
0 0
0 0
0 0
0 0
0 0
0 0
0 0
0 0
0 0
0 0
0 0
0 0
0 0
0 0
0 0
0 0
0 0
0 0
0 0
0 0
0 0
0 0
0 0
0 0
0 0
0 0
0 0
0 0
0 0
0 0
0 0
0 0
0 0
0 0
0 0
0 0
0 0
0 0
0 0
0 0
0 0
0 0
0 0
0 0
0 0
0 0
0 0
0 0
0 0
0 0
0 0
0 0
0 0
0 0
0 0
0 0
0 0
0 0
0 0
0 0
0 0
0 0
0 0
0 0
0 0
0 0
0 0
0 0
0 0
0 0
0 0
0 0
0 0
0 0
0 0
0 0
0 0
0 0
0 0
0 0
0 0
0 0
0 0
0 0
0 0
0 0
0 0
0 0
0 0
0 0
0 0
0 0
0 0
0 0
0 0
0 0
0 0
0 0
0 0
0 0
0 0
0 0
0 0
0 0
0 0
0 0
0 0
0 0
0 0
0 0
0 0
0 0
0 0
0 0
0 0
0 0
0 0
0 0
0 0
0 0
0 0
0 0
0 0
0 0
0 0
0 0
0 0
0 0
0 0
0 0
0 0
0 0
0 0
0 0
0 0
0 0
0 0
0 0
0 0
0 0
0 0
0 0
0 0
0 0
0 0
0 0
0 0
0 0
0 0
0 0
0 0
0 0
0 0
0 0
0 0
0 0
0 0
0 0
0 0
0 0
0 0
0 0
0 0
0 0
0 0
0 0
0 0
0 0
0 0
0 0
0 0
0 0
0 0
0 0
0 0
0 0
0 0
0 0
0 0
0 0
0 0
0 0
0 0
0 0
0 0
0 0
0 0
0 0
0 0
0 0
0 0
0 0
0 0
0 0
0 0
0 0
0 0
0 0
0 0
0 0
0 0
0 0
0 0
0 0
0 0
0 0
0 0
0 0
0 0
0 0
0 0
0 0
0 0
0 0
0 0
0 0
0 0
0 0
0 0
0 0
0 0
0 0
0 0
0 0
0 0
0 0
0 0
0 0
0 0
0 0
0 0
0 0
0 0
0 0
0 0
0 0
0 0
0 0
0 0
0 0
0 0
0 0
0 0
0 0
0 0
0 0
0 0
0 0
0 0
0 0
0 0
0 0
0 0
0 0
0 0
0 0
0 0
0 0
0 0
0 0
0 0
0 0
0 0
0 0
0 0
0 0
0 0
0 0
0 0
0 0
0 0
0 0
0 0
0 0
0 0
0 0
0 0
0 0
0 0
0 0
0 0
0 0
0 0
0 0
0 0
0 0
0 0
0 0
0 0
0 0
0 0
0 0
0 0
0 0
0 0
0 0
0 0
0 0
0 0
0 0
0 0
0 0
0 0
0 0
0 0
0 0
0 0
0 0
0 0
0 0
0 0
0 0
0 0
0 0
0 0
0 0
0 0
0 0
0 0
0 0
0 0
0 0
0 0
0 0
0 0
0 0
0 0
0 0
0 0
0 0
0 0
0 0
0 0
0 0
0 0
0 0
0 0
0 0
0 0
0 0
0 0
0 0
0 0
0 0
0 0
0 0
0 0
0 0
0 0
0 0
0 0
0 0
0 0
0 0
0 0
0 0
0 0
0 0
0 0
0 0
0 0
0 0
0 0
0 0
0 0
0 0
0 0
0 0
0 0
0 0
0 0
0 0
0 0
0 0
0 0
0 0
0 0
0 0
0 0
0 0
0 0
0 0
0 0
0 0
0 0
0 0
0 0
0 0
0 0
0 0
0 0
0 0
0 0
0 0
0 0
0 0
0 0
0 0
0 0
0 0
0 0
0 0
0 0
0 0
0 0
0 0
0 0
0 0
0 0
0 0
0 0
0 0
0 0
0 0
0 0
0 0
0 0
0 0
0 0
0 0
0 0
0 0
0 0
0 0
0 0
0 0
0 0
0 0
0 0
0 0
0 0
0 0
0 0
0 0
0 0
0 0
0 0
0 0
0 0
0 0
0 0
0 0
0 0
0 0
0 0
0 0
0 0
0 0
0 0
0 0
0 0
0 0
0 0
0 0
0 0
0 0
0 0
0 0
0 0
0 0
0 0
0 0
0 0
0 0
0 0
0 0
0 0
0 0
0 0
0 0
0 0
0 0
0 0
0 0
0 0
0 0
0 0
0 0
0 0
0 0
0 0
0 0
0 0
0 0
0 0
0 0
0 0
0 0
0 0
0 0
0 0
0 0
0 0
0 0
0 0
0 0
0 0
0 0
0 0
0 0
0 0
0 0
0 0
0 0
0 0
0 0
0 0
0 0
0 0
0 0
0 0
0 0
0 0
0 0
0 0
0 0
0 0
0 0
0 0
0 0
0 0
0 0
0 0
0 0
0 0
0 0
0 0
0 0
0 0
0 0
0 0
0 0
0 0
0 0
0 0
0 0
0 0
0 0
0 0
0 0
0 0
0 0
0 0
0 0
0 0
0 0
0 0
0 0
0 0
0 0
0 0
0 0
0 0
0 0
0 0
0 0
0 0
0 0
0 0
0 0
0 0
0 0
0 0
0 0
0 0
0 0
0 0
0 0
0 0
0 0
0 0
0 0
0 0
0 0
0 0
0 0
0 0
0 0
0 0
0 0
0 0
0 0
0 0
0 0
0 0
0 0
0 0
0 0
0 0
0 0
0 0
0 0
0 0
0 0
0 0
0 0
0 0
0 0
0 0
0 0
0 0
0 0
0 0
0 0
0 0
0 0
0 0
0 0
0 0
0 0
0 0
0 0
0 0
0 0
0 0
0 0
0 0
0 0
0 0
0 0
0 0
0 0
0 0
0 0
0 0
0 0
0 0
0 0
0 0
0 0
0 0
0 0
0 0
0 0
0 0
0 0
0 0
0 0
0 0
0 0
0 0
0 0
0 0
0 0
0 0
0 0
0 0
0 0
0 0
0 0
0 0
0 0
0 0
0 0
0 0
0 0
0 0
0 0
0 0
0 0
0 0
0 0
0 0
0 0
0 0
0 0
0 0
0 0
0 0
0 0
0 0
0 0
0 0
0 0
0 0
0 0
0 0
0 0
0 0
0 0
0 0
0 0
0 0
0 0
0 0
0 0
0 0
0 0
0 0
0 0
0 0
0 0
0 0
0 0
0 0
0 0
0 0
0 0
0 0
0 0
0 0
0 0
0 0
0 0
0 0
0 0
0 0
0 0
0 0
0 0
0 0
0 0
0 0
0 0
0 0
0 0
0 0
0 0
0 0
0 0
0 0
0 0
0 0
0 0
0 0
0 0
0 0
0 0
0 0
0 0
0 0
0 0
0 0
0 0
0 0
0 0
0 0
0 0
0 0
0 0
0 0
0 0
0 0
0 0
0 0
0 0
0 0
0 0
0 0
0 0
0 0
0 0
0 0
0 0
0 0
0 0
0 0
0 0
0 0
0 0
0 0
0 0
0 0
0 0
0 0
0 0
0 0
0 0
0 0
0 0
0 0
0 0
0 0
0 0
0 0
0 0
0 0
0 0
0 0
0 0
0 0
0 0
0 0
0 0
0 0
0 0
0 0
0 0
0 0
0 0
0 0
0 0
0 0
0 0
0 0
0 0
0 0
0 0
0 0
0 0
0 0
0 0
0 0
0 0
0 0
0 0
0 0
0 0
0 0
0 0
0 0
0 0
0 0
0 0
0 0
0 0
0 0
0 0
0 0
0 0
0 0
0 0
0 0
0 0
0 0
0 0
0 0
0 0
0 0
0 0
0 0
0 0
0 0
0 0
0 0
0 0
0 0
0 0
0 0
0 0
0 0
0 0
0 0
0 0
0 0
0 0
0 0
0 0
0 0
0 0
0 0
0 0
0 0
0 0
0 0
0 0
0 0
0 0
0 0
0 0
0 0
0 0
0 0
0 0
0 0
0 0
0 0
0 0
0 0
0 0
0 0
0 0
0 0
0 0
0 0
0 0
0 0
0 0
0 0
0 0
0 0
0 0
0 0
0 0
0 0
0 0
0 0
0 0
0 0
0 0
0 0
0 0
0 0
0 0
0 0
0 0
0 0
0 0
0 0
0 0
0 0
0 0
0 0
0 0
0 0
0 0
0 0
0 0
0 0
0 0
0 0
0 0
0 0
0 0
0 0
0 0
0 0
0 0
0 0
0 0
0 0
0 0
0 0
0 0
0 0
0 0
0 0
0 0
0 0
0 0
0 0
0 0
0 0
0 0
0 0
0 0
0 0
0 0
0 0
0 0
0 0
0 0
0 0
0 0
0 0
0 0
0 0
0 0
0 0
0 0
0 0
0 0
0 0
0 0
0 0
0 0
0 0
0 0
0 0
0 0
0 0
0 0
0 0
0 0
0 0
0 0
0 0
0 0
0 0
0 0
0 0
0 0
0 0
0 0
0 0
0 0
0 0
0 0
0 0
0 0
0 0
0 0
0 0
0 0
0 0
0 0
0 0
0 0
0 0
0 0
0 0
0 0
0 0
0 0
0 0
0 0
0 0
0 0
0 0
0 0
0 0
0 0
0 0
0 0
0 0
0 0
0 0
0 0
0 0
0 0
0 0
0 0
0 0
0 0
0 0
0 0
0 0
0 0
0 0
0 0
0 0
0 0
0 0
0 0
0 0
0 0
0 0
0 0
0 0
0 0
0 0
0 0
0 0
0 0
0 0
0 0
0 0
0 0
0 0
0 0
0 0
0 0
0 0
0 0
0 0
0 0
0 0
0 0
0 0
0 0
0 0
0 0
0 0
0 0
0 0
0 0
0 0
0 0
0 0
0 0
0 0
0 0
0 0
0 0
0 0
0 0
0 0
0 0
0 0
0 0
0 0
0 0
0 0
0 0
0 0
0 0
0 0
0 0
0 0
0 0
0 0
0 0
0 0
0 0
0 0
0 0
0 0
0 0
0 0
0 0
0 0
0 0
0 0
0 0
0 0
0 0
0 0
0 0
0 0
0 0
0 0
0 0
0 0
0 0
0 0
0 0
0 0
0 0
0 0
0 0
0 0
0 0
0 0
0 0
0 0
0 0
0 0
0 0
0 0
0 0
0 0
0 0
0 0
0 0
0 0
0 0
0 0
0 0
0 0
0 0
0 0
0 0
0 0
0 0
0 0
0 0
0 0
0 0
0 0
0 0
0 0
0 0
0 0
0 0
0 0
0 0
0 0
0 0
0 0
0 0
0 0
0 0
0 0
0 0
0 0
0 0
0 0
0 0
0 0
0 0
0 0
0 0
0 0
0 0
0 0
0 0
0 0
0 0
0 0
0 0
0 0
0 0
0 0
0 0
0 0
0 0
0 0
0 0
0 0
0 0
0 0
0 0
0 0
0 0
0 0
0 0
0 0
0 0
0 0
0 0
0 0
0 0
0 0
0 0
0 0
0 0
0 0
0 0
0 0
0 0
0 0
0 0
0 0
0 0
0 0
0 0
0 0
0 0
0 0
0 0
0 0
0 0
0 0
0 0
0 0
0 0
0 0
0 0
0 0
0 0
0 0
0 0
0 0
0 0
0 0
0 0
0 0
0 0
0 0
0 0
0 0
0 0
0 0
0 0
0 0
0 0
0 0
0 0
0 0
0 0
0 0
0 0
0 0
0 0
0 0
0 0
0 0
0 0
0 0
0 0
0 0
0 0
0 0
0 0
0 0
0 0
0 0
0 0
0 0
0 0
0 0
0 0
0 0
0 0
0 0
0 0
0 0
0 0
0 0
0 0
0 0
0 0
0 0
0 0
0 0
0 0
0 0
0 0
0 0
0 0
0 0
0 0
0 0
0 0
0 0
0 0
0 0
0 0
0 0
0 0
0 0
0 0
0 0
0 0
0 0
0 0
0 0
0 0
0 0
0 0
0 0
0 0
0 0
0 0
0 0
0 0
0 0
0 0
0 0
0 0
0 0
0 0
0 0
0 0
0 0
0 0
0 0
0 0
0 0
0 0
0 0
0 0
0 0
0 0
0 0
0 0
0 0
0 0
0 0
0 0
0 0
0 0
0 0
0 0
0 0
0 0
0 0
0 0
0 0
0 0
0 0
0 0
0 0
0 0
0 0
0 0
0 0
0 0
0 0
0 0
0 0
0 0
0 0
0 0
0 0
0 0
0 0
0 0
0 0
0 0
0 0
0 0
0 0
0 0
0 0
0 0
0 0
0 0
0 0
0 0
0 0
0 0
0 0
0 0
0 0
0 0
0 0
0 0
0 0
0 0
0 0
0 0
0 0
0 0
0 0
0 0
0 0
0 0
0 0
0 0
0 0
0 0
0 0
0 0
0 0
0 0
0 0
0 0
0 0
0 0
0 0
0 0
0 0
0 0
0 0
0 0
0 0
0 0
0 0
0 0
0 0
0 0
0 0
0 0
0 0
0 0
0 0
0 0
0 0
0 0
0 0
0 0
0 0
0 0
0 0
0 0
0 0
0 0
0 0
0 0
0 0
0 0
0 0
0 0
0 0
0 0
0 0
0 0
0 0
0 0
0 0
0 0
0 0
0 0
0 0
0 0
0 0
0 0
0 0
0 0
0 0
0 0
0 0
0 0
      </DataArray> 
      <DataArray type="Float64" NumberOfComponents="2" Name="CauchyNormalStress" format="ascii">
0.985648 0.535997
0.88909 0.425328
0.977029 0.0936463
0.512686 -0.0187914
0.348979 0.00393392
0.214451 -0.00217848
0.135677 -0.0116949
0.0826761 -0.011235
0.0228792 -0.00529678
-0.0207234 -0.000702495
-0.0551756 -0.00574849
-0.0761428 -0.0077358
-0.105586 -0.00411221
-0.124699 -0.000217371
-0.137509 -0.00455018
-0.140531 -0.00560542
-0.149979 -0.0021122
-0.150475 0.000508035
-0.144884 -0.00419249
-0.129234 -0.00565351
-0.120093 -0.0021403
-0.101777 0.000316504
-0.0757071 -0.00523966
-0.0365235 -0.00763262
-0.00539415 -0.00302906
0.0392662 0.00139045
0.0992255 -0.00548486
0.194059 -0.0210533
0.287567 -0.0306174
0.436015 -0.0139208
0.873906 0.0395871
-0.0850422 0.0419223
-0.112363 0.0535813
-0.103255 0.147513
0.293406 0.688131
-0.0965098 -0.00349828
-0.0202881 -0.0576774
-0.00431407 -0.0689495
-0.0106864 -0.0781306
-0.0103299 -0.0797126
-0.00302672 -0.0980744
-0.00224606 -0.101518
-0.00242828 -0.106668
-0.00533161 -0.104892
-0.00874892 -0.110079
-0.00986346 -0.0929369
-0.0114789 -0.0972916
-0.0146147 -0.0932095
-0.0193041 -0.0932441
-0.0237791 -0.0846085
-0.0280241 -0.0821026
-0.0318135 -0.0681599
-0.0383594 -0.0702361
-0.000987704 -0.0978413
-0.0776983 -0.00554905
-0.0910491 -0.00722405
-0.0699554 -0.0169216
-0.074815 -0.0222311
-0.05365 -0.0382777
-9.057 -24.9785
-0.0538601 -0.249357
-0.0188159 -0.110637
-0.120434 -0.315628
-0.957071 -4.72669
-0.327756 -4.17709
-0.00129921 -2.41312
-0.183317 -2.52943
-0.211611 -2.48388
-0.378249 -2.87788
2.02854 0.126625
-1.57402 -4.72315
-2.06378 -5.64195
-2.81386 -8.43185
-0.967491 -4.69233
2.12449 0.0653841
2.82331 1.1995
-2.37802 -0.89754
-8.24661 -23.9146
-0.349797 -4.19317
-0.00202737 -2.43865
-0.18951 -2.5432
-0.211694 -2.491
-0.376568 -2.87618
0.00201394 -0.120015
-0.0516251 -0.245905
-0.0275568 -0.111674
-0.154626 -0.283802
-0.1041 0.012913
-0.0257408 -0.1921
-0.00549938 -0.110918
-0.0262281 -0.133464
-0.0298033 -0.0786531
-0.0366819 -0.0688371
-0.0622605 0.0447104
-0.0774029 -0.00198206
-0.0890307 -0.0118002
-0.0672977 -0.0146402
-0.0745478 -0.0265833
-0.0590761 -0.0272615
-0.0580604 -0.0392526
-0.0477148 -0.045687
-0.0453683 -0.0549749
-0.039264 -0.0658471
-0.0328183 -0.068052
-0.0288446 -0.0824407
-0.0203577 -0.0797895
-0.0160195 -0.097259
-0.00940151 -0.0987758
-0.0104395 -0.106417
-0.00797098 -0.101949
-0.00507208 -0.109958
-0.0834957 0.0977697
-0.0319095 0.223871
0.316751 0.63364
-2.38447 -1.48355
-1.43222 -3.77693
-2.30495 -1.59729
-1.25272 -5.11901
-1.60178 -4.14937
-0.293173 -3.03877
-2.3573 -1.17362
0.620334 -3.37222
0.163124 -0.540747
0.124626 -0.512041
-0.433708 -5.2581
-0.45778 -5.40769
0.290498 -1.25231
0.107468 -0.617935
0.0424448 -2.54364
0.0499825 -2.22424
-0.0471237 -2.55767
0.109699 -1.94618
0.0632506 -2.25981
-0.236766 -2.15739
-0.0428366 -2.16483
-0.0762153 -2.34182
-0.313241 -2.31614
0.16626 -1.79644
0.220062 -1.71563
0.186595 -2.33166
-1.22486 -0.783179
-1.2752 -0.782976
-1.35059 -0.866062
0.100308 -2.70531
0.141976 -2.06401
-0.696633 -2.39804
-0.666787 -2.25567
-0.0487766 -3.01263
-0.205349 -2.90676
-0.54318 -2.56572
-0.60827 -2.75139
-0.0613149 -2.79594
-0.946408 -0.639257
-1.12204 -0.677291
-1.04204 -0.689123
0.083706 -1.73339
0.121873 -1.82452
-1.04306 -1.10633
-0.690142 -1.64833
-0.164699 -1.87779
0.0317834 -1.63528
0.0176318 -1.74702
-0.170836 -2.02637
-0.734528 -1.76364
-1.10992 -1.14811
0.195828 -1.50667
0.276738 -2.08195
-1.72541 -1.32703
-1.68595 -1.05869
-1.42086 -0.850843
-1.48 -1.16367
0.353276 -2.15194
0.381829 -2.58846
0.304935 -2.50318
0.23996 -2.06633
0.23836 -1.61855
0.208582 -1.43973
-1.80453 -1.51683
-1.03464 -2.18978
-0.999989 -2.0434
-1.78082 -2.10856
0.276273 -3.19764
0.0125278 -4.04604
-0.658319 -3.02933
-0.13833 -3.19729
0.33578 -2.94422
-0.851547 -0.627403
-0.971476 -0.633338
-0.970531 -0.606472
-0.996842 -0.626816
-0.818575 -0.526582
-0.794406 -0.519449
-0.759208 -0.494458
-0.865278 -0.594701
0.113512 -1.48027
0.168481 -1.34465
0.181571 -1.31211
0.118754 -1.5207
-0.806051 -0.637986
-0.837297 -0.731535
-0.849449 -1.0835
-0.658961 -1.28271
-0.326863 -1.49729
-0.122362 -1.60991
-0.164826 -1.6911
-0.37698 -1.58473
-0.71235 -1.36857
-0.876859 -1.12043
-0.886241 -0.701733
-0.836577 -0.611903
0.189654 -1.27275
0.309424 -1.64744
-2.28243 -1.9009
-1.90296 -1.11016
-2.06098 -1.34806
0.461039 -2.16514
0.460357 -2.43421
0.284283 -1.62765
0.184905 -1.15624
-1.8112 -2.38009
-1.80964 -3.05948
0.491827 -3.47226
-0.861752 -3.60568
-1.83503 -3.76561
-0.700953 -3.13895
0.155833 -3.5741
-0.605555 -0.441227
-0.686657 -0.481534
-0.695822 -0.473836
-0.610342 -0.420057
-0.57217 -0.410675
-0.57653 -0.409423
0.13756 -1.23132
0.114669 -1.21165
-0.594925 -0.552494
-0.445422 -0.90431
-0.0636663 -1.25669
-0.127325 -1.30865
-0.485217 -0.923565
-0.596163 -0.511765
0.126467 -0.811871
0.157566 -0.931952
0.19022 -1.10473
0.228829 -1.12562
0.325333 -1.2285
0.425666 -1.60569
-1.95776 -2.98493
-2.4252 -1.19051
-2.19082 -2.06554
0.51676 -2.03395
0.527244 -2.15595
0.430146 -1.77655
0.328766 -1.44772
0.252396 -1.23834
0.16533 -0.965767
0.118514 -0.721094
-2.15291 -3.26684
-2.15026 -4.2972
0.589715 -2.57966
0.538988 -4.69173
-2.0445 -4.96986
0.613961 -3.4953
0.576507 -2.42883
-1.18796 -4.05547
0.330213 -4.25444
-0.328434 -0.309157
-0.356981 -0.308922
-0.434371 -0.348404
-0.381275 -0.348673
-0.498632 -0.354006
-0.466016 -0.35837
-0.473973 -0.325961
-0.474574 -0.333785
-0.387051 -0.289675
-0.409947 -0.288657
-0.37065 -0.318368
-0.416151 -0.313011
-0.313629 -0.281898
-0.3403 -0.296638
0.114435 -1.1058
0.133323 -1.0738
0.147013 -0.940797
0.108637 -0.711533
0.146998 -0.91014
0.120077 -1.10769
0.0443101 -1.18151
-0.411545 -0.408013
-0.322658 -0.53773
-0.148972 -0.805052
-0.000679295 -0.95981
-0.106027 -1.04351
-0.209447 -0.834138
-0.369983 -0.52363
-0.385636 -0.353161
0.0487472 -0.396403
0.104072 -0.652169
0.142108 -0.718246
0.212749 -0.859772
0.29737 -1.03146
0.0419983 -6.7595
-1.87769 -1.03436
-1.1427 -0.147831
-1.92717 -0.800969
-0.25787 -6.18398
0.453004 -1.60423
0.436048 -1.53394
0.298497 -1.12231
0.17756 -0.908956
0.0593148 -0.447932
0.0710641 -8.68249
-0.675738 -6.61929
0.0330218 -8.37848
-0.310427 -7.0931
0.475593 -2.72891
-1.20548 -6.85471
-3.83731 -8.02675
0.459909 -2.24911
-3.67368 -7.06767
-0.326845 -5.44595
-0.0725984 -0.182016
-0.163854 -0.223603
-0.270009 -0.222797
-0.304426 -0.207862
-0.280663 -0.195826
-0.201157 -0.199764
-0.074803 -0.186638
0.19882 -0.776625
0.0789018 -0.512635
0.105317 -0.568426
0.13173 -0.845556
-0.0518193 -0.257251
0.204166 -0.634571
0.305194 -0.553738
0.22897 -0.671872
0.0630224 -0.696764
-0.0640424 -0.235923
0.0478325 -0.270228
0.0463106 -0.337448
0.0115988 -0.192567
0.0327846 -0.297829
0.0302784 -0.294375
0.0608198 -0.431439
0.0521247 -0.367439
0.0789748 -0.451198
0.0831385 -0.443613
0.0950382 -0.46033
0.0789546 -0.403567
-1.69793 -2.9621
-0.91568 -0.300483
-0.827414 -0.267528
-1.74997 -2.1067
0.170497 -0.626092
0.214348 -0.751462
0.230866 -0.841687
0.160422 -0.715534
0.20419 -1.16907
0.190868 -1.05431
0.16902 -0.746894
0.209539 -0.780091
0.210911 -0.743653
0.161896 -0.609592
0.161303 -0.621122
0.120536 -0.529187
0.0702628 -0.397602
0.0856105 -0.474242
0.0216265 -0.265928
0.0316994 -0.272531
0.0287943 -0.281481
0.0205704 -0.247543
0.0864316 -4.70058
0.110119 -6.28123
-0.11784 -8.3248
0.0702352 -4.57027
0.060042 -7.99755
0.0472904 -6.04224
0.0752659 -1.41763
-0.234424 -1.30306
-0.196298 -9.72848
0.129169 -1.38584
0.261373 -6.60348
-0.0571023 -1.80256
0.149916 -0.0998484
0.345388 0.0770025
0.18943 -0.126952
0.0125448 -0.112671
0.0729967 -0.112652
-0.0633144 -0.119265
-0.143145 -0.114882
-0.109409 -0.112801
-0.181331 -0.112046
-0.214342 -0.11
-0.201184 -0.107364
-0.212926 -0.100231
-0.208123 -0.100937
-0.214339 -0.0974768
-0.183562 -0.0989098
-0.135139 -0.102228
-0.164545 -0.0971311
-0.0802137 -0.103721
0.0398757 -0.113198
-0.0346339 -0.101337
0.129615 -0.0778332
0.380342 0.0533251
0.178746 -0.0882894
0.0121507 -0.17267
0.0123679 -0.186931
0.0257904 -0.238078
0.0219698 -0.234254
0.113268 -0.511638
0.230851 -0.216008
0.135069 -0.507487
0.210694 -0.589829
0.179761 -0.272479
0.38868 -0.0777734
0.2382 -0.35951
0.165548 -0.417446
0.338829 -0.0749461
0.0167992 -0.149733
0.0144112 -0.141534
0.0189707 -0.0498143
0.0327143 -0.113047
0.0257521 -0.118868
0.0111965 -0.0688899
0.154515 0.0166792
0.751779 0.231908
0.187768 0.019374
0.170535 -0.0734454
0.189003 -0.0944833
0.58767 0.0227648
0.353174 -0.380804
0.446185 -0.18664
0.0627758 -0.215874
0.077044 -0.224211
-0.0582158 -0.437673
0.00996516 -0.445923
0.163949 -0.779309
0.146834 -0.755335
0.0498917 -0.401636
0.0267041 -0.278812
-0.0646207 -0.132023
-0.130707 -0.202625
-0.242075 -0.194811
-0.29108 -0.195977
-0.293229 -0.216273
-0.218965 -0.225326
-0.0849145 -0.217752
-0.165654 -0.152461
0.460008 -3.17011
0.333506 -4.09454
0.540655 -6.91452
0.584544 -7.12865
0.0684407 -0.45898
0.204719 -0.881045
0.374873 -1.28405
0.383662 -1.50589
0.474392 -1.92213
0.38281 -1.30563
-1.80056 -2.15538
-1.60128 -2.91174
0.214319 -0.794705
0.180329 -0.817869
0.140276 -0.777883
0.0742988 -0.507045
0.0981881 -0.922049
0.224041 -0.820428
-2.14196 -5.00614
-2.2932 -5.95146
-2.13956 -0.698823
-0.65612 -0.640496
-0.333123 -1.18743
-0.269169 -1.12845
-0.640759 -0.679072
0.0418556 -1.42672
0.157458 -1.01566
0.167109 -1.10482
0.0825978 -1.37759
-0.546655 -0.407161
-0.605864 -0.426224
-0.540767 -0.38452
-0.667435 -0.453094
-0.717797 -0.489353
-0.656764 -0.469684
-0.562047 -0.433626
-0.378341 -3.44257
0.524851 -3.14048
0.348853 -4.45338
0.505864 -2.72103
-2.19972 -2.818
-2.31199 -2.00164
0.220668 -1.28833
0.368181 -1.99415
-1.57821 -0.954955
-2.20436 -1.47513
0.386363 -1.69626
0.230113 -1.43117
-1.00813 -2.82452
-0.986268 -2.65001
-1.12274 -0.782274
-1.0904 -1.55531
-0.397123 -1.97668
-0.357428 -1.85747
-1.04411 -1.44564
-1.04416 -0.810773
0.195178 -1.60488
0.155255 -1.58404
-0.973165 -0.605199
-1.27082 -0.755466
0.0910435 -2.95118
-0.304668 -3.38746
0.113791 -2.46048
0.182708 -2.65392
0.0356379 -2.05765
0.0141393 -1.88952
-0.209259 -2.64606
-0.104357 -2.44531
0.20012 -2.00674
0.212392 -10.2035
-0.192796 -0.162735
-1.06792 -2.51026
-0.415835 -2.23935
-0.336689 -0.314519
0.418454 -4.47271
-0.145086 -0.211065
-1.7381 -13.7582
-1.11425 -4.44038
-0.215333 -0.276506
-0.582487 -2.5185
0.185042 -6.38317
-0.0135265 -7.08129
-0.955535 -7.10713
-0.858102 -5.80332
-0.603855 -11.2198
-0.546977 -3.05807
-0.88796 -3.37173
-0.600837 -4.9399
0.272692 -6.44518
0.232663 -7.09023
0.0560542 -5.20465
-0.326183 -4.52981
-0.250173 -3.87281
-1.20573 -3.71157
-1.57304 -4.62501
-0.0818136 -3.53424
0.21765 -5.82528
-0.0172737 -7.4048
-0.782014 -6.00304
-0.962394 -7.49664
-0.577716 -5.07074
-0.549013 -3.06198
-0.885787 -3.3819
-0.997947 -12.3145
0.18677 -7.28519
0.314533 -6.69175
0.0899142 -5.37863
-0.244318 -3.94636
-0.305604 -4.64424
-0.0746572 -3.60306
-1.20865 -3.73911
-1.57152 -4.70707
0.248928 -6.01904
-1.12007 -0.789877
0.0920296 -0.415298
0.607451 0.18121
0.490013 -0.0543958
-6.08443 -11.9639
-2.85431 -8.55282
-4.46521 -6.75832
-1.7327 -2.24243
-1.26639 -1.03359
-1.20647 -0.968036
0.479914 0.0917335
-0.00651665 -0.422757
-4.45411 -7.59163
-5.99537 -12.1311
-2.43498 -1.00177
0.472477 -0.0815171
-1.2405 -1.32826
-1.64713 -3.03102
-1.88764 -6.11104
-1.71989 -8.63722
0.0970905 -6.60397
-5.97461 -9.84516
0.518594 -4.82387
-2.0315 -4.81143
-2.68603 -5.86834
-3.43809 -7.39642
-0.781322 -8.58157
-4.20865 -9.74997
0.293759 -6.37585
-6.00072 -10.3046
-3.04697 -6.86681
-2.72407 -6.09802
-1.76089 -7.804
-1.66339 -9.64453
-0.276424 -7.67168
0.116762 -7.17525
-1.27597 -6.56691
-1.94302 -6.84956
-0.537274 -7.53016
-2.3749 -8.6875
-0.00166253 -7.06144
-1.45292 -5.75615
0.212676 -7.49142
-1.01434 -4.87647
-0.502719 -5.72315
-1.20259 -4.28581
-1.84956 -11.8446
0.412163 -7.65581
0.122416 -6.75775
-1.56202 -0.434679
-0.898114 -0.205459
-1.43196 -0.686223
0.38183 -0.103383
-1.82639 -1.38853
-1.9995 -0.72408
-1.69259 -0.489221
-1.53843 -0.553399
-1.4721 -0.863116
-0.945015 -0.235293
-1.73349 -1.80808
-1.97442 -0.831204
0.273424 -7.70021
-0.384202 -6.18795
-0.707898 -5.62351
-1.75176 -11.5215
-0.897642 -5.03439
0.234361 -6.89938
0.365799 -7.45462
-1.87981 -4.26066
-1.13616 -4.9375
-0.36484 -4.34383
-0.776594 -3.75373
-2.29279 -5.44617
-1.23157 -5.60717
-0.0375569 -5.65473
-0.272588 -4.91135
-2.04261 -4.37731
-1.52668 -3.90444
-1.071 -3.4265
-1.42091 -3.28935
-1.78047 -3.07365
-2.00452 -2.83794
-2.05464 -3.54467
-2.06901 -2.17842
-2.21067 -2.65397
-2.08882 -4.08745
-1.43172 -2.60791
-2.02618 -2.95153
-2.01252 -2.47911
-1.76762 -2.58022
-1.39946 -2.37193
-1.42485 -1.80466
-1.40002 -2.86472
-2.06146 -1.79221
-1.79141 -1.9393
-1.46061 -1.99158
-1.45905 -1.51367
-2.18611 -1.66364
-1.92661 -1.42089
-1.69117 -1.22975
-1.82328 -1.16833
-1.94007 -1.28011
-2.046 -1.26975
-1.79069 -1.07644
-1.59112 -0.944004
-1.73674 -1.02555
-1.4833 -0.899193
-1.73808 -1.69993
-2.03806 -1.9937
-2.01825 -1.65191
-2.22598 -2.3423
-2.23876 -1.66671
-1.95844 -1.38823
-1.39237 -1.35997
-1.6928 -1.18018
-1.46077 -0.926368
-1.13097 -0.788946
-1.23746 -0.768536
-1.47869 -1.0473
-1.39849 -1.10004
-1.37145 -5.62392
-0.369098 -7.04222
-1.31966 -7.17144
0.163137 -6.44361
-2.06436 -5.62187
-1.56912 -4.70848
-0.743965 -4.87842
0.0338328 -3.61444
-0.158203 -5.17498
-0.23499 -3.78486
-1.87677 -5.37037
-2.4849 -4.36603
-0.221539 -3.70636
-0.15698 -5.03566
0.0264515 -3.54614
0.144708 -6.23708
-1.90899 -5.1835
-2.43192 -4.45929
-0.71879 -4.83008
-1.32186 -7.03676
-0.357323 -6.83624
-1.34931 -5.54608
2.753 1.43111
2.12927 0.111656
-2.25832 -1.59617
-2.16266 -1.04921
-2.04669 -1.38304
-2.24693 -0.894434
-1.96448 -2.12875
-2.26139 -2.04522
-2.34013 -1.58458
-1.92333 -3.14147
-1.87362 -3.62892
-2.17095 -2.70938
-1.86309 -4.60615
-1.68188 -3.26802
-0.407108 -6.31242
-1.21249 -5.33216
-0.900245 -5.01782
-0.562967 -5.81842
-0.905101 -6.08541
-0.104969 -6.77908
-1.69548 -5.5153
-1.36615 -4.16797
-2.0238 -3.70948
-1.68782 -4.63379
-1.63889 -4.13333
-2.21059 -5.0727
-1.74333 -2.99413
-2.07908 -2.90104
-2.11776 -3.59314
-2.30487 -1.79659
-2.35119 -1.35423
-2.35455 -1.51293
-2.23397 -1.10972
-2.31233 -1.01198
-2.34425 -1.38656
-2.24055 -2.18797
-1.90511 -1.92215
-2.1172 -1.4072
-2.13274 -2.22735
-1.83958 -4.03794
-1.66935 -4.37553
-2.1827 -4.64796
-0.827044 -4.47233
-1.9782 -3.66602
-1.63806 -3.41227
-1.18102 -3.19941
-2.16472 -1.32262
-2.22894 -1.42422
-1.97738 -1.23469
-2.33009 -1.73594
-2.29672 -1.45951
-2.37617 -1.15455
-2.37614 -1.35828
-2.39318 -1.29521
-0.560507 -1.34831
-0.333163 -1.77036
-0.33027 -0.908127
-0.134463 -3.59319
-0.0156841 -2.68001
-0.207193 -0.769562
-0.328632 -0.251209
-0.506017 -0.191688
-0.786361 -1.43343
-0.539332 -5.95264
-0.27652 -4.56837
-0.736124 -3.24363
0.315887 -4.98297
-1.17295 -2.28221
-0.570188 -6.79566
0.15561 -7.57112
-2.99719 -18.4717
-3.5096 -4.72996
-2.05413 -8.20749
-0.364403 -9.04877
-1.85509 -8.62574
-4.76534 -16.4454
-3.50103 -4.56722
-3.69336 -19.3051
-2.03425 -8.90699
-1.9083 -9.40638
-0.533723 -9.5226
-4.5941 -17.6771
-3.69453 -9.10211
-2.75058 -10.8902
-1.07435 -9.95843
-8.21102 -15.2872
-3.54386 -15.3677
0.137601 -7.69334
-0.540353 -8.13895
-2.94149 -7.66662
-4.39887 -8.34355
0.275242 -5.67444
0.427439 -4.76399
0.362889 -5.54414
0.462002 -3.6924
0.477932 -4.06684
0.151029 -5.18656
-0.203678 -6.06191
0.0955996 -6.87346
0.367057 -5.24679
-1.97684 -5.40604
-2.41189 -5.34018
-2.41823 -5.96554
-2.14801 -4.93844
-2.38996 -5.44362
-3.01134 -6.48587
-2.91306 -6.59727
-1.02794 -5.81397
-1.44892 -5.5141
-0.113123 -7.28022
0.152012 -6.55988
-0.165015 -7.61237
0.322607 -5.32906
-0.617884 -9.47333
-1.08027 -7.71534
-0.355177 -6.67065
-3.18164 -11.8002
-4.80663 -12.2214
-5.67849 -9.91303
-6.55529 -18.9989
-8.31007 -16.0767
-4.31397 -9.13673
-4.44704 -8.68812
-1.99496 -10.2489
-0.85762 -11.6632
-3.46344 -7.12446
-3.08918 -6.48825
-2.89154 -6.68887
-2.51837 -6.35128
-2.66988 -6.04622
-2.01777 -6.44811
-2.31583 -7.17037
-3.98278 -7.75307
-3.23695 -7.42709
-3.26603 -10.0956
-2.86281 -11.0055
-1.39625 -10.7153
-0.710117 -8.9638
-2.783 -8.8417
-2.75048 -7.94097
-2.41942 -7.34683
-2.13917 -6.85452
-0.875766 -7.29346
-1.97412 -10.3502
-3.67581 -10.9693
-4.07971 -9.02079
-3.21067 -7.85253
-1.18108 -8.86731
-2.84901 -7.03299
-2.38027 -6.36507
-1.27198 -6.65369
-2.07348 -5.90336
-0.760105 -5.16238
-0.368402 -4.88795
-0.765075 -4.63701
-0.781093 -4.20376
-0.380149 -3.89453
-1.16199 -4.50263
0.0389009 -6.07469
0.269139 -5.23247
0.455088 -5.40388
0.186987 -4.98892
0.407572 -4.60477
0.428298 -4.47721
-0.53893 -6.21015
-0.717287 -5.26673
-0.194757 -5.29471
-0.599759 -5.64776
0.0549085 -4.70984
-1.22707 -6.20178
-1.72007 -5.27188
-0.979426 -5.00684
-0.100254 -4.45103
-0.578248 -4.68545
-1.17686 -4.13654
-1.42882 -4.74959
0.145743 -4.26336
-0.398447 -4.28536
-0.530927 -3.90594
-0.180051 -3.71972
0.00585876 -4.30419
0.210507 -3.92784
-0.0885238 -3.94202
0.447652 -3.6441
0.357035 -3.37112
-0.103859 -3.50948
0.0522441 -4.80111
0.0209532 -3.47295
-0.217349 -2.00652
0.119275 -3.18653
-0.328508 -1.14404
-0.137776 -0.956715
0.210675 -2.53579
-0.20776 -4.44968
-0.657672 -1.16518
-0.389115 -1.07532
-0.709925 -2.40045
-0.341053 -0.0953757
-0.386013 -4.63467
-0.941302 -1.16062
-0.590027 -0.386661
-1.22724 -3.65681
-1.93149 -1.70357
-0.729776 -6.03839
-0.588642 -0.0294004
-0.910815 -0.228102
0.0370248 -1.60104
-0.0568846 -0.944396
0.0400625 -0.733237
-2.19099 1.53667
-4.53012 -7.5912
0.0555943 -0.746543
0.269215 -2.29907
-1.73863 -4.05607
-0.737674 -7.80243
-2.31052 -2.77244
-0.739457 -0.0118602
-1.17124 0.488509
-0.124152 -1.45128
0.0125168 -0.738554
-0.0999857 -0.719136
0.0423022 -0.75771
-2.0697 3.33814
-4.57563 -6.44631
0.210158 -2.62303
0.0755987 -0.441182
0.0187091 -0.228937
0.0259997 -0.267062
0.0144662 -0.223523
-0.00141357 -0.102157
-0.00627071 -0.0952424
0.0318454 -0.273836
0.141879 -0.678556
0.139056 -0.632959
0.0946967 -0.462605
0.0345745 -0.27754
0.00547841 -0.21695
0.0245462 -0.271746
-0.0110091 -0.07884
-0.00836012 -0.0855839
0.162936 -0.706888
0.16169 -0.615954
0.0433819 -0.304645
0.0385632 -0.306926
0.0274439 -0.29768
-0.00227356 -0.0744764
-0.0118712 -0.0606755
0.0486023 -0.313883
0.266015 -0.955589
0.274315 -0.922548
0.184081 -0.690695
0.062195 -0.362192
0.0473854 -0.305167
0.0741092 -0.373
-0.0537778 -0.0504401
-0.0549482 -0.0402575
0.290472 -1.02951
0.192427 -0.768022
0.0535755 -0.393303
0.0805426 -0.402349
0.068987 -0.404158
-0.074669 -0.026187
-0.0706008 -0.0222788
0.0665682 -0.391844
0.301688 -1.12199
0.268888 -1.1316
0.179313 -0.912909
0.0841723 -0.579314
0.0800667 -0.416549
0.0912711 -0.568203
-0.0898414 -0.0117307
-0.0779936 -0.00988289
0.294224 -1.28778
0.179371 -0.958478
0.0731682 -0.395396
0.0937053 -0.633819
0.0648805 -0.391023
-0.0530615 -0.0522367
-0.036427 -0.0674038
0.0952196 -0.608169
0.344408 -1.54594
0.311807 -1.3102
0.198595 -0.785127
0.0923471 -0.435246
0.0500692 -0.380423
0.075556 -0.422255
-0.0290817 -0.0781306
-0.0273472 -0.132948
0.353063 -1.3482
0.190167 -0.696267
0.048092 -0.311129
0.0626892 -0.369553
0.0408368 -0.306375
-0.00518475 -0.102999
-0.0334829 -0.188614
0.0759535 -0.378636
0.299072 -1.0348
0.282132 -0.948399
0.0847432 -0.438146
0.0187359 -0.243848
0.0130166 -0.213546
0.0275138 -0.250616
-0.0433055 -0.0597129
-0.0488786 -0.0559907
0.00160988 -0.209798
0.149732 -0.587597
0.152951 -0.631026
0.079564 -0.452512
0.0229737 -0.256619
0.025472 -0.249357
0.027624 -0.262234
-0.0571256 -0.0382597
-0.0618816 -0.0332259
0.020609 -0.245314
0.134775 -0.623019
0.128693 -0.634612
-0.0791622 -0.0185289
0.0144537 -0.223091
0.0183161 -0.230923
0.0192681 -0.235369
0.0976119 -0.563476
-0.068635 -0.0148201
-1.86097 -7.24235
-0.585432 -7.43663
-0.829858 -6.41368
0.313791 -1.65948
0.305496 -1.83422
0.158311 -1.23803
0.469615 -2.65499
0.427736 -1.85098
-2.08812 -7.93884
-2.26618 -9.14136
-3.66361 -8.37345
0.333659 -1.9291
0.12736 -1.3562
0.283489 -2.03362
0.401495 -3.36756
0.472551 -2.33408
-1.71199 -8.82126
-0.777758 -8.1648
-2.02169 -7.7734
-1.10823 -7.79597
0.189276 -0.901728
0.135456 -0.682766
0.0755896 -0.475654
0.119988 -0.682377
0.230925 -0.866626
0.141137 -0.574946
0.209626 -0.826276
0.250688 -1.00636
0.333111 -1.21097
0.31695 -1.16874
0.209619 -0.771206
0.331851 -1.11249
0.400171 -1.42596
0.408753 -1.5343
0.339801 -1.1536
0.221126 -0.808893
0.341858 -1.23238
0.459918 -1.78918
0.41009 -1.46743
0.146048 -0.654597
0.0872807 -0.460241
0.158138 -0.649256
0.212726 -0.835544
0.195453 -0.844944
0.0963551 -0.542124
0.0637504 -0.414311
0.112648 -0.579282
0.159647 -0.770413
0.140103 -0.752535
-1.57659 -4.89406
-1.61246 -4.43526
0.610972 -2.90591
0.527443 -2.91243
0.514805 -2.36715
0.525109 -3.39008
0.47197 -1.98883
0.55668 -2.81498
0.542896 -3.35118
-1.9999 -5.88592
-2.26847 -5.47827
0.229781 -1.0542
0.213321 -1.07747
0.202756 -1.09472
0.238143 -1.26804
0.372627 -1.61136
0.367095 -1.44311
0.313181 -1.28771
0.405122 -1.5381
0.267866 -1.16307
0.35314 -1.71201
0.400017 -1.89173
0.541855 -2.31586
0.513927 -1.9438
0.482673 -1.86752
0.459764 -1.69408
0.539534 -2.6135
0.548684 -2.31585
0.486445 -1.82014
0.528031 -2.06909
0.455748 -1.65309
0.539967 -2.26027
0.54824 -2.65324
0.510796 -2.37151
0.371266 -1.42231
0.311358 -1.13411
0.366528 -1.30618
0.27403 -1.00091
0.251788 -0.916325
0.335175 -1.17646
0.405157 -1.45983
0.406264 -1.65322
0.358841 -1.45342
0.206006 -0.966253
0.184946 -0.922377
0.181757 -0.957559
0.230731 -1.27442
0.5906 -4.06072
0.486424 -3.91611
0.374468 -4.59029
0.30829 -1.54138
0.287961 -1.34461
0.271196 -1.42847
0.249623 -1.46039
0.31925 -1.81333
0.497122 -2.30059
0.469151 -1.97064
0.451571 -2.08963
0.405477 -2.21702
0.484009 -2.78666
0.445503 -1.8769
0.465897 -1.82762
0.489563 -2.10083
0.482825 -2.4421
0.421495 -1.9344
0.415012 -3.05491
0.257475 -3.24647
0.106698 -3.26657
0.222952 -2.95237
0.165478 -3.59631
0.36546 -3.3446
0.259286 -3.78768
0.389404 -2.97055
0.502831 -3.08254
0.438293 -3.93209
-0.00361267 -3.3125
0.30587 -2.03425
0.266072 -1.84007
0.207345 -1.83918
0.18264 -2.25706
0.315497 -2.73056
0.395476 -2.68418
0.38409 -2.47288
0.341061 -2.23971
0.202166 -2.72282
0.364327 -2.37436
0.407457 -2.16077
0.418369 -2.37615
0.371326 -1.91951
0.438622 -2.65845
0.289263 -2.62657
0.270298 -2.39879
0.346798 -1.67379
0.332082 -1.90104
0.259041 -1.82622
0.264164 -1.54117
0.333792 -2.8789
0.214857 -2.93636
0.263272 -2.28807
0.213337 -2.48249
0.307599 -1.24537
0.25508 -1.04659
0.265935 -1.04981
0.234106 -1.03904
0.336644 -1.47839
0.270993 -1.38876
0.258047 -1.19262
0.302011 -1.44342
0.21496 -0.759313
0.146089 -0.573086
0.234112 -0.834389
0.0223922 -0.25458
0.168503 -0.657881
0.000985984 -0.205086
0.0218077 -0.25406
0.101168 -0.458247
-0.0912598 -0.0110349
-0.0769439 -0.00531799
0.584277 -3.97625
0.554873 -3.06704
0.499261 -3.75364
0.54571 -2.64454
0.491465 -3.9508
0.536325 -3.0342
0.599244 -2.9736
0.548923 -3.4353
0 0
0 0
0 0
0 0
0 0
0 0
0 0
0 0
0 0
0 0
0 0
0 0
0 0
0 0
0 0
0 0
0 0
0 0
0 0
0 0
0 0
0 0
0 0
0 0
0 0
0 0
0 0
0 0
0 0
0 0
0 0
0 0
0 0
0 0
0 0
0 0
0 0
0 0
0 0
0 0
0 0
0 0
0 0
0 0
0 0
0 0
0 0
0 0
0 0
0 0
0 0
0 0
0 0
0 0
0 0
0 0
0 0
0 0
0 0
0 0
0 0
0 0
0 0
0 0
0 0
0 0
0 0
0 0
0 0
0 0
0 0
0 0
0 0
0 0
0 0
0 0
0 0
0 0
0 0
0 0
0 0
0 0
0 0
0 0
0 0
0 0
0 0
0 0
0 0
0 0
0 0
0 0
0 0
0 0
0 0
0 0
0 0
0 0
0 0
0 0
0 0
0 0
0 0
0 0
0 0
0 0
0 0
0 0
0 0
0 0
0 0
0 0
0 0
0 0
0 0
0 0
0 0
0 0
0 0
0 0
0 0
0 0
0 0
0 0
0 0
0 0
0 0
0 0
0 0
0 0
0 0
0 0
0 0
0 0
0 0
0 0
0 0
0 0
0 0
0 0
0 0
0 0
0 0
0 0
0 0
0 0
0 0
0 0
0 0
0 0
0 0
0 0
0 0
0 0
0 0
0 0
0 0
0 0
0 0
0 0
0 0
0 0
0 0
0 0
0 0
0 0
0 0
0 0
0 0
0 0
0 0
0 0
0 0
0 0
0 0
0 0
0 0
0 0
0 0
0 0
0 0
0 0
0 0
0 0
0 0
0 0
0 0
0 0
0 0
0 0
0 0
0 0
0 0
0 0
0 0
0 0
0 0
0 0
0 0
0 0
0 0
0 0
0 0
0 0
0 0
0 0
0 0
0 0
0 0
0 0
0 0
0 0
0 0
0 0
0 0
0 0
0 0
0 0
0 0
0 0
0 0
0 0
0 0
0 0
0 0
0 0
0 0
0 0
0 0
0 0
0 0
0 0
0 0
0 0
0 0
0 0
0 0
0 0
0 0
0 0
0 0
0 0
0 0
0 0
0 0
0 0
0 0
0 0
0 0
0 0
0 0
0 0
0 0
0 0
0 0
0 0
0 0
0 0
0 0
0 0
0 0
0 0
0 0
0 0
0 0
0 0
0 0
0 0
0 0
0 0
0 0
0 0
0 0
0 0
0 0
0 0
0 0
0 0
0 0
0 0
0 0
0 0
0 0
0 0
0 0
0 0
0 0
0 0
0 0
0 0
0 0
0 0
0 0
0 0
0 0
0 0
0 0
0 0
0 0
0 0
0 0
0 0
0 0
0 0
0 0
0 0
0 0
0 0
0 0
0 0
0 0
0 0
0 0
0 0
0 0
0 0
0 0
0 0
0 0
0 0
0 0
0 0
0 0
0 0
0 0
0 0
0 0
0 0
0 0
0 0
0 0
0 0
0 0
0 0
0 0
0 0
0 0
0 0
0 0
0 0
0 0
0 0
0 0
0 0
0 0
0 0
0 0
0 0
0 0
0 0
0 0
0 0
0 0
0 0
0 0
0 0
0 0
0 0
0 0
0 0
0 0
0 0
0 0
0 0
0 0
0 0
0 0
0 0
0 0
0 0
0 0
0 0
0 0
0 0
0 0
0 0
0 0
0 0
0 0
0 0
0 0
0 0
0 0
0 0
0 0
0 0
0 0
0 0
0 0
0 0
0 0
0 0
0 0
0 0
0 0
0 0
0 0
0 0
0 0
0 0
0 0
0 0
0 0
0 0
0 0
0 0
0 0
0 0
0 0
0 0
0 0
0 0
0 0
0 0
0 0
0 0
0 0
0 0
0 0
0 0
0 0
0 0
0 0
0 0
0 0
0 0
0 0
0 0
0 0
0 0
0 0
0 0
0 0
0 0
0 0
0 0
0 0
0 0
0 0
0 0
0 0
0 0
0 0
0 0
0 0
0 0
0 0
0 0
0 0
0 0
0 0
0 0
0 0
0 0
0 0
0 0
0 0
0 0
0 0
0 0
0 0
0 0
0 0
0 0
0 0
0 0
0 0
0 0
0 0
0 0
0 0
0 0
0 0
0 0
0 0
0 0
0 0
0 0
0 0
0 0
0 0
0 0
0 0
0 0
0 0
0 0
0 0
0 0
0 0
0 0
0 0
0 0
0 0
0 0
0 0
0 0
0 0
0 0
0 0
0 0
0 0
0 0
0 0
0 0
0 0
0 0
0 0
0 0
0 0
0 0
0 0
0 0
0 0
0 0
0 0
0 0
0 0
0 0
0 0
0 0
0 0
0 0
0 0
0 0
0 0
0 0
0 0
0 0
0 0
0 0
0 0
0 0
0 0
0 0
0 0
0 0
0 0
0 0
0 0
0 0
0 0
0 0
0 0
0 0
0 0
0 0
0 0
0 0
0 0
0 0
0 0
0 0
0 0
0 0
0 0
0 0
0 0
0 0
0 0
0 0
0 0
0 0
0 0
0 0
0 0
0 0
0 0
0 0
0 0
0 0
0 0
0 0
0 0
0 0
0 0
0 0
0 0
0 0
0 0
0 0
0 0
0 0
0 0
0 0
0 0
0 0
0 0
0 0
0 0
0 0
0 0
0 0
0 0
0 0
0 0
0 0
0 0
0 0
0 0
0 0
0 0
0 0
0 0
0 0
0 0
0 0
0 0
0 0
0 0
0 0
0 0
0 0
0 0
0 0
0 0
0 0
0 0
0 0
0 0
0 0
0 0
0 0
0 0
0 0
0 0
0 0
0 0
0 0
0 0
0 0
0 0
0 0
0 0
0 0
0 0
0 0
0 0
0 0
0 0
0 0
0 0
0 0
0 0
0 0
0 0
0 0
0 0
0 0
0 0
0 0
0 0
0 0
0 0
0 0
0 0
0 0
0 0
0 0
0 0
0 0
0 0
0 0
0 0
0 0
0 0
0 0
0 0
0 0
0 0
0 0
0 0
0 0
0 0
0 0
0 0
0 0
0 0
0 0
0 0
0 0
0 0
0 0
0 0
0 0
0 0
0 0
0 0
0 0
0 0
0 0
0 0
0 0
0 0
0 0
0 0
0 0
0 0
0 0
0 0
0 0
0 0
0 0
0 0
0 0
0 0
0 0
0 0
0 0
0 0
0 0
0 0
0 0
0 0
0 0
0 0
0 0
0 0
0 0
0 0
0 0
0 0
0 0
0 0
0 0
0 0
0 0
0 0
0 0
0 0
0 0
0 0
0 0
0 0
0 0
0 0
0 0
0 0
0 0
0 0
0 0
0 0
0 0
0 0
0 0
0 0
0 0
0 0
0 0
0 0
0 0
0 0
0 0
0 0
0 0
0 0
0 0
0 0
0 0
0 0
0 0
0 0
0 0
0 0
0 0
0 0
0 0
0 0
0 0
0 0
0 0
0 0
0 0
0 0
0 0
0 0
0 0
0 0
0 0
0 0
0 0
0 0
0 0
0 0
0 0
0 0
0 0
0 0
0 0
0 0
0 0
0 0
0 0
0 0
0 0
0 0
0 0
0 0
0 0
0 0
0 0
0 0
0 0
0 0
0 0
0 0
0 0
0 0
0 0
0 0
0 0
0 0
0 0
0 0
0 0
0 0
0 0
0 0
0 0
0 0
0 0
0 0
0 0
0 0
0 0
0 0
0 0
0 0
0 0
0 0
0 0
0 0
0 0
0 0
0 0
0 0
0 0
0 0
0 0
0 0
0 0
0 0
0 0
0 0
0 0
0 0
0 0
0 0
0 0
0 0
0 0
0 0
0 0
0 0
0 0
0 0
0 0
0 0
0 0
0 0
0 0
0 0
0 0
0 0
0 0
0 0
0 0
0 0
0 0
0 0
0 0
0 0
0 0
0 0
0 0
0 0
0 0
0 0
0 0
0 0
0 0
0 0
0 0
0 0
0 0
0 0
0 0
0 0
0 0
0 0
0 0
0 0
0 0
0 0
0 0
0 0
0 0
0 0
0 0
0 0
0 0
0 0
0 0
0 0
0 0
0 0
0 0
0 0
0 0
0 0
0 0
0 0
0 0
0 0
0 0
0 0
0 0
0 0
0 0
0 0
0 0
0 0
0 0
0 0
0 0
0 0
0 0
0 0
0 0
0 0
0 0
0 0
0 0
0 0
0 0
0 0
0 0
0 0
0 0
0 0
0 0
0 0
0 0
0 0
0 0
0 0
0 0
0 0
0 0
0 0
0 0
0 0
0 0
0 0
0 0
0 0
0 0
0 0
0 0
0 0
0 0
0 0
0 0
0 0
0 0
0 0
0 0
0 0
0 0
0 0
0 0
0 0
0 0
0 0
0 0
0 0
0 0
0 0
0 0
0 0
0 0
0 0
0 0
0 0
0 0
0 0
0 0
0 0
0 0
0 0
0 0
0 0
0 0
0 0
0 0
0 0
0 0
0 0
0 0
0 0
0 0
0 0
0 0
0 0
0 0
0 0
0 0
0 0
0 0
0 0
0 0
0 0
0 0
0 0
0 0
0 0
0 0
0 0
0 0
0 0
0 0
0 0
0 0
0 0
0 0
0 0
0 0
0 0
0 0
0 0
0 0
0 0
0 0
0 0
0 0
0 0
0 0
0 0
0 0
0 0
0 0
0 0
0 0
0 0
0 0
0 0
0 0
0 0
0 0
0 0
0 0
0 0
0 0
0 0
0 0
0 0
0 0
0 0
0 0
0 0
0 0
0 0
0 0
0 0
0 0
0 0
0 0
0 0
0 0
0 0
0 0
0 0
0 0
0 0
0 0
0 0
0 0
0 0
0 0
0 0
0 0
0 0
0 0
0 0
0 0
0 0
0 0
0 0
0 0
0 0
0 0
0 0
0 0
0 0
0 0
0 0
0 0
0 0
0 0
0 0
0 0
0 0
0 0
0 0
0 0
0 0
0 0
0 0
0 0
0 0
0 0
0 0
0 0
0 0
0 0
0 0
0 0
0 0
0 0
0 0
0 0
0 0
0 0
0 0
0 0
0 0
0 0
0 0
0 0
0 0
0 0
0 0
0 0
0 0
0 0
0 0
0 0
0 0
0 0
0 0
0 0
0 0
0 0
0 0
0 0
0 0
0 0
0 0
0 0
0 0
0 0
0 0
0 0
0 0
0 0
0 0
0 0
0 0
0 0
0 0
0 0
0 0
0 0
0 0
0 0
0 0
0 0
0 0
0 0
0 0
0 0
0 0
0 0
0 0
0 0
0 0
0 0
0 0
0 0
0 0
0 0
0 0
0 0
0 0
0 0
0 0
0 0
0 0
0 0
0 0
0 0
0 0
0 0
0 0
0 0
0 0
0 0
0 0
0 0
0 0
0 0
0 0
0 0
0 0
0 0
0 0
0 0
0 0
0 0
0 0
0 0
0 0
0 0
0 0
0 0
0 0
0 0
0 0
0 0
0 0
0 0
0 0
0 0
0 0
0 0
0 0
0 0
0 0
0 0
0 0
0 0
0 0
0 0
0 0
0 0
0 0
0 0
0 0
0 0
0 0
0 0
0 0
0 0
0 0
0 0
0 0
0 0
0 0
0 0
0 0
0 0
0 0
0 0
0 0
0 0
0 0
0 0
0 0
0 0
0 0
0 0
0 0
0 0
0 0
0 0
0 0
0 0
0 0
0 0
0 0
0 0
0 0
0 0
0 0
0 0
0 0
0 0
0 0
0 0
0 0
0 0
0 0
0 0
0 0
0 0
0 0
0 0
0 0
0 0
0 0
0 0
0 0
0 0
0 0
0 0
0 0
0 0
0 0
0 0
0 0
0 0
0 0
0 0
0 0
0 0
0 0
0 0
0 0
0 0
0 0
0 0
0 0
0 0
0 0
0 0
0 0
0 0
0 0
0 0
0 0
0 0
0 0
0 0
0 0
0 0
0 0
0 0
0 0
0 0
0 0
0 0
0 0
0 0
0 0
0 0
0 0
0 0
0 0
0 0
0 0
0 0
0 0
0 0
0 0
0 0
0 0
0 0
0 0
0 0
0 0
0 0
0 0
0 0
0 0
0 0
0 0
0 0
0 0
0 0
0 0
0 0
0 0
0 0
0 0
0 0
0 0
0 0
0 0
0 0
0 0
0 0
0 0
0 0
0 0
0 0
0 0
0 0
0 0
0 0
0 0
0 0
0 0
0 0
0 0
0 0
0 0
0 0
0 0
0 0
0 0
0 0
0 0
0 0
0 0
0 0
0 0
0 0
0 0
0 0
0 0
0 0
0 0
0 0
0 0
0 0
0 0
0 0
0 0
0 0
0 0
0 0
0 0
0 0
0 0
0 0
0 0
0 0
0 0
0 0
0 0
0 0
0 0
0 0
0 0
0 0
0 0
0 0
0 0
0 0
0 0
0 0
0 0
0 0
0 0
0 0
0 0
0 0
0 0
0 0
0 0
0 0
0 0
0 0
0 0
0 0
0 0
0 0
0 0
0 0
0 0
0 0
0 0
0 0
0 0
0 0
0 0
0 0
0 0
0 0
0 0
0 0
0 0
0 0
0 0
0 0
0 0
0 0
0 0
0 0
0 0
0 0
0 0
0 0
0 0
0 0
0 0
0 0
0 0
0 0
0 0
0 0
0 0
0 0
0 0
0 0
0 0
0 0
0 0
0 0
0 0
0 0
0 0
0 0
0 0
0 0
0 0
0 0
0 0
0 0
0 0
0 0
0 0
0 0
0 0
0 0
0 0
0 0
0 0
0 0
0 0
0 0
0 0
0 0
0 0
0 0
0 0
0 0
0 0
0 0
0 0
0 0
0 0
0 0
0 0
0 0
0 0
0 0
0 0
0 0
0 0
0 0
0 0
0 0
0 0
0 0
0 0
0 0
0 0
0 0
0 0
0 0
0 0
0 0
0 0
0 0
0 0
0 0
0 0
0 0
0 0
0 0
0 0
0 0
0 0
0 0
0 0
0 0
0 0
0 0
0 0
0 0
0 0
0 0
0 0
0 0
0 0
0 0
0 0
0 0
0 0
0 0
0 0
0 0
0 0
0 0
0 0
0 0
0 0
0 0
0 0
0 0
0 0
0 0
0 0
0 0
0 0
0 0
0 0
0 0
0 0
0 0
0 0
0 0
0 0
0 0
0 0
0 0
0 0
0 0
0 0
0 0
0 0
0 0
0 0
0 0
0 0
0 0
0 0
0 0
0 0
0 0
0 0
0 0
0 0
0 0
0 0
0 0
0 0
0 0
0 0
0 0
0 0
0 0
0 0
0 0
0 0
0 0
0 0
0 0
0 0
0 0
0 0
0 0
0 0
0 0
0 0
0 0
0 0
0 0
0 0
0 0
0 0
0 0
0 0
0 0
0 0
0 0
0 0
0 0
0 0
0 0
0 0
0 0
0 0
0 0
0 0
0 0
0 0
0 0
0 0
0 0
0 0
0 0
0 0
0 0
0 0
0 0
0 0
0 0
0 0
0 0
0 0
0 0
0 0
0 0
0 0
0 0
0 0
0 0
0 0
0 0
0 0
0 0
0 0
0 0
0 0
0 0
0 0
0 0
0 0
0 0
0 0
0 0
0 0
0 0
0 0
0 0
0 0
0 0
0 0
0 0
0 0
0 0
0 0
0 0
0 0
0 0
0 0
0 0
0 0
0 0
0 0
0 0
0 0
0 0
0 0
0 0
0 0
0 0
0 0
0 0
0 0
0 0
0 0
0 0
0 0
0 0
0 0
0 0
0 0
0 0
0 0
0 0
0 0
0 0
0 0
0 0
0 0
0 0
0 0
0 0
0 0
0 0
0 0
0 0
0 0
0 0
0 0
0 0
0 0
0 0
0 0
0 0
0 0
0 0
0 0
0 0
0 0
0 0
0 0
0 0
0 0
0 0
0 0
0 0
0 0
0 0
0 0
0 0
0 0
0 0
0 0
0 0
0 0
0 0
0 0
0 0
0 0
0 0
0 0
0 0
0 0
0 0
0 0
0 0
0 0
0 0
0 0
0 0
0 0
0 0
0 0
0 0
0 0
0 0
0 0
0 0
0 0
0 0
0 0
0 0
0 0
0 0
0 0
0 0
0 0
0 0
0 0
0 0
0 0
0 0
0 0
0 0
0 0
0 0
0 0
0 0
0 0
0 0
0 0
0 0
0 0
0 0
0 0
0 0
0 0
0 0
0 0
0 0
0 0
0 0
0 0
0 0
0 0
0 0
0 0
0 0
0 0
0 0
0 0
0 0
0 0
0 0
0 0
0 0
0 0
0 0
0 0
0 0
0 0
0 0
0 0
0 0
0 0
0 0
0 0
0 0
0 0
0 0
0 0
0 0
0 0
0 0
0 0
0 0
0 0
0 0
0 0
0 0
0 0
0 0
0 0
0 0
0 0
0 0
0 0
0 0
0 0
0 0
0 0
0 0
0 0
0 0
0 0
0 0
0 0
0 0
0 0
0 0
0 0
0 0
0 0
0 0
0 0
0 0
0 0
0 0
0 0
0 0
0 0
0 0
0 0
0 0
0 0
0 0
0 0
0 0
0 0
0 0
0 0
0 0
0 0
0 0
0 0
0 0
0 0
0 0
0 0
0 0
0 0
0 0
0 0
0 0
0 0
0 0
0 0
0 0
0 0
0 0
0 0
0 0
0 0
0 0
0 0
0 0
0 0
0 0
0 0
0 0
0 0
0 0
0 0
0 0
0 0
0 0
0 0
0 0
0 0
0 0
0 0
0 0
0 0
0 0
0 0
0 0
0 0
0 0
0 0
0 0
0 0
0 0
0 0
0 0
0 0
0 0
0 0
0 0
0 0
0 0
0 0
0 0
0 0
0 0
0 0
0 0
0 0
0 0
0 0
0 0
0 0
0 0
0 0
0 0
0 0
0 0
0 0
0 0
0 0
0 0
0 0
0 0
0 0
0 0
0 0
0 0
0 0
0 0
0 0
0 0
0 0
0 0
0 0
0 0
0 0
0 0
0 0
0 0
0 0
0 0
0 0
0 0
0 0
0 0
0 0
0 0
0 0
0 0
0 0
0 0
0 0
0 0
0 0
0 0
0 0
0 0
0 0
0 0
0 0
0 0
0 0
0 0
0 0
0 0
0 0
0 0
0 0
0 0
0 0
0 0
0 0
0 0
0 0
0 0
0 0
0 0
0 0
0 0
0 0
0 0
0 0
0 0
0 0
0 0
0 0
0 0
0 0
0 0
0 0
0 0
0 0
0 0
0 0
0 0
0 0
0 0
0 0
0 0
0 0
0 0
0 0
0 0
0 0
0 0
0 0
0 0
0 0
0 0
0 0
0 0
0 0
0 0
0 0
0 0
0 0
0 0
0 0
0 0
0 0
0 0
0 0
0 0
0 0
0 0
0 0
0 0
0 0
0 0
0 0
0 0
0 0
0 0
0 0
0 0
0 0
0 0
0 0
0 0
0 0
0 0
0 0
0 0
0 0
0 0
0 0
0 0
0 0
0 0
0 0
0 0
0 0
0 0
0 0
0 0
0 0
0 0
0 0
0 0
0 0
0 0
0 0
0 0
0 0
0 0
0 0
0 0
0 0
0 0
0 0
0 0
0 0
0 0
0 0
0 0
0 0
0 0
0 0
0 0
0 0
0 0
0 0
0 0
0 0
0 0
0 0
0 0
0 0
0 0
0 0
0 0
0 0
0 0
0 0
0 0
0 0
0 0
0 0
0 0
0 0
0 0
0 0
0 0
0 0
0 0
0 0
0 0
0 0
0 0
0 0
0 0
0 0
0 0
0 0
0 0
0 0
0 0
0 0
0 0
0 0
0 0
0 0
0 0
0 0
0 0
0 0
0 0
0 0
0 0
0 0
0 0
0 0
0 0
0 0
0 0
0 0
0 0
0 0
0 0
0 0
0 0
0 0
0 0
0 0
0 0
0 0
0 0
0 0
0 0
0 0
0 0
0 0
0 0
0 0
0 0
0 0
0 0
0 0
0 0
0 0
0 0
0 0
0 0
0 0
0 0
0 0
0 0
0 0
0 0
0 0
0 0
0 0
0 0
0 0
0 0
0 0
0 0
0 0
0 0
0 0
0 0
0 0
0 0
0 0
0 0
0 0
0 0
0 0
0 0
0 0
0 0
0 0
0 0
0 0
0 0
0 0
0 0
0 0
0 0
0 0
0 0
0 0
0 0
0 0
0 0
0 0
0 0
0 0
0 0
0 0
0 0
0 0
0 0
0 0
0 0
0 0
0 0
0 0
0 0
0 0
0 0
      </DataArray> 
      <DataArray type="Float64" NumberOfComponents="1" Name="CauchyShearStress" format="ascii">
-0.330352
0.287583
-0.0933269
0.0257859
0.0155769
0.0200095
0.0135961
0.00557422
-0.00391749
-0.00545462
-0.00504629
-0.00714533
-0.00927072
-0.00686227
-0.00342756
-0.00253928
-0.0025408
0.00149553
0.00489887
0.00494036
0.00407897
0.00707282
0.00813552
0.00375543
-0.00180217
-0.00253854
-0.00724981
-0.0295067
-0.0369952
-0.0476371
0.0266436
0.00260234
0.0165084
0.0370958
-0.38393
0.00274989
0.0135457
0.0159338
0.0153576
0.00792068
0.00817531
0.0134298
0.01955
0.0195505
0.0266841
0.0230247
0.0297608
0.0365994
0.0409489
0.0409983
0.0437313
0.044576
0.0462063
0.0180425
-0.00985699
-0.0196614
-0.0303044
-0.0384584
-0.046333
0.0827881
0.0584799
0.084527
0.166519
-1.87143
-0.944922
-0.405478
-0.60427
-0.744327
-1.06317
0.0138735
-1.78821
-1.55462
-1.1954
1.89451
-0.166152
-1.23789
1.8866
-0.442128
0.974279
0.419981
0.610909
0.746977
1.06502
-0.0230622
-0.0762641
-0.0945414
-0.195565
-0.000221364
-0.00605995
0.0197679
0.0333051
0.0573284
0.0589678
0.00745353
-0.0114336
-0.0201937
-0.0294592
-0.0374181
-0.0422758
-0.0457327
-0.0475495
-0.0509257
-0.0457137
-0.0445513
-0.0432948
-0.0392424
-0.0397129
-0.0306724
-0.0209074
-0.0165798
-0.018413
0.0344616
0.0687945
0.398482
0.125409
-1.00333
-0.60043
-1.03996
1.16278
0.652428
0.288211
0.263317
-0.22801
-0.0226005
-0.980069
0.980053
-0.226845
-0.236781
-0.479029
-0.449677
0.512211
-0.397168
0.44689
-0.437682
-0.448143
0.485295
0.487977
-0.382743
-0.36428
-0.433809
-0.208859
0.156182
0.21711
0.494065
0.408012
0.555438
-0.503253
-0.585427
-0.612543
-0.585456
0.643026
0.541166
-0.218071
0.0476591
0.201262
-0.371621
0.386543
-0.276526
-0.328866
-0.378805
-0.344377
0.364993
0.418533
0.375811
0.293531
-0.352042
-0.367975
-0.315069
-0.160207
0.0675706
0.318599
-0.333487
-0.329146
0.382305
0.390309
0.342182
0.33399
0.38859
0.532883
-0.472455
-0.553757
-0.434079
-0.641393
-0.708453
0.633689
0.36906
-0.248194
-0.171111
-0.0173318
-0.0842294
0.0650144
0.161026
0.113292
0.226511
-0.331096
-0.339168
0.332621
0.338785
-0.257324
-0.219632
-0.246294
-0.220654
-0.251626
-0.312433
0.334778
0.285536
0.252763
0.262398
0.223368
0.255362
-0.322663
-0.312839
-0.440445
0.00849953
0.2472
-0.207816
0.234851
0.322388
0.298704
0.661547
-0.806073
-0.186029
-0.876913
0.921282
0.739852
0.527815
-0.24911
-0.186609
-0.066502
0.0465089
0.14141
0.226446
-0.314112
0.306341
-0.212926
-0.151603
-0.22051
0.231277
0.165522
0.21928
-0.252728
-0.276786
-0.284576
-0.262004
-0.147942
-0.111785
-1.11589
-0.199137
0.873506
-0.0317351
0.0329402
0.174894
0.238398
0.264143
0.264488
0.212657
0.892343
-0.882569
0.100973
0.310254
-1.08869
-0.272445
-0.226199
1.01227
0.342944
-0.235292
-0.229485
-0.177046
-0.215843
-0.0902687
-0.131056
0.0110973
-0.0281006
0.0853158
0.0520838
0.172005
0.132387
0.232053
0.202397
-0.245183
-0.285094
-0.296667
0.245761
0.281766
0.281545
0.222059
-0.199346
-0.0892412
-0.0876631
-0.14278
0.146063
0.105414
0.0958522
0.212135
-0.145964
-0.205125
-0.181839
-0.146695
-0.0554033
-1.91054
-0.752064
-0.0605687
0.479615
2.03209
0.140308
-0.138244
0.142079
0.23182
0.148349
1.41188
0.746332
-1.19363
-0.753796
0.746748
-1.25159
0.07716
-0.568355
0.60245
0.864735
-0.235672
-0.154684
-0.0843901
-0.0167568
0.0450025
0.106716
0.191551
-0.265715
-0.200603
0.225778
0.224387
-0.116485
-0.0940713
-0.232204
0.182906
0.0733031
0.120992
-0.153572
0.171993
-0.0433175
-0.0840473
-0.0737939
-0.108226
-0.0820248
-0.0971125
-0.079648
-0.0641862
-0.034325
-3.60308
-0.553185
0.45091
3.24532
0.00857889
0.0656523
0.150566
0.207006
0.469006
-0.403883
-0.206324
-0.133741
-0.0590687
0.00510899
0.0512113
0.0711786
0.0611159
0.103466
0.0386967
0.0525561
0.0620194
0.0682299
1.11051
1.80613
0.989037
-1.08556
-1.41119
-1.80165
0.758536
0.962978
0.960713
-0.680294
-1.46183
-1.07085
-0.128385
-0.215125
-0.0954344
-0.0834667
-0.084636
-0.0597333
-0.0556125
-0.0594022
-0.0318877
-0.0215503
-0.027591
0.0031997
0.0137592
0.00859211
0.0354871
0.0429903
0.0403573
0.0625934
0.0619203
0.0655208
0.106432
0.211168
0.11634
-0.0546505
-0.0498069
0.0794739
0.0876218
-0.256375
-0.272912
0.242859
0.246747
0.255728
-0.0403543
-0.081221
0.0928734
0.0626604
-0.0878216
0.0803217
-0.124924
-0.099992
0.0875483
0.110457
-0.192651
-0.396474
-0.199043
0.195058
0.208193
0.322222
0.27364
-0.319896
0.193061
-0.217426
0.00509309
0.00217652
0.270896
-0.286266
0.170735
-0.111473
0.244299
0.14195
0.074898
0.0163636
-0.0498284
-0.118441
-0.195425
-0.243543
-0.860189
1.2485
-1.37527
1.39518
0.131598
0.177116
0.0327597
-0.326015
0.390017
0.0140165
1.5295
-1.88321
-0.0849594
-0.179236
-0.230652
-0.182085
0.150768
-0.200694
0.691478
-0.383309
-0.15938
0.181426
0.165115
-0.13859
-0.175939
0.296841
0.300076
-0.317819
-0.29424
0.249937
0.19209
0.0920093
3.54005e-05
-0.133749
-0.232021
-0.253134
0.751696
0.145863
-0.278693
-0.180696
-0.755924
0.511824
0.304518
0.300511
0.17268
-0.192729
-0.23112
-0.334577
0.723347
-0.658905
0.25686
0.355363
0.4018
-0.356087
-0.314318
-0.261691
0.361971
-0.361243
0.13327
-0.0377195
0.523475
-0.730571
0.46418
-0.463556
0.423968
-0.39299
0.5591
-0.503292
-0.40183
-1.83407
-0.221873
-2.27292
-1.58894
-0.27015
-1.1334
0.198364
1.40477
2.94187
0.294819
1.79412
1.53459
-1.67606
-2.55977
-2.63327
-2.57102
-1.39282
-1.77581
-2.02111
-1.52224
-1.46202
-1.41073
-1.64087
-1.24755
-2.15049
-2.69332
-0.912334
-1.24699
1.5297
2.6764
2.43027
2.02967
1.40235
1.78608
1.5209
1.32048
1.52689
1.42206
1.26545
1.64971
0.925268
2.1662
2.70646
1.26444
1.42461
0.132976
0.498285
0.163939
4.36034
1.18142
4.96601
2.15318
0.90499
-1.67399
-0.663953
-0.150876
-5.09341
-4.26785
-1.94421
-0.213414
-1.14944
-2.53952
1.4138
1.46154
0.293593
0.852108
-0.194924
1.08326
0.783305
-1.32127
-0.784606
-1.8093
0.154292
0.257639
-0.293762
-1.11706
-0.00993612
0.102292
-0.947412
-1.13906
-0.518191
0.133304
0.728274
-0.419341
1.12419
0.701015
1.96444
2.88295
2.85454
1.94049
2.08964
1.54037
1.57814
0.207287
0.175851
0.528653
-0.0129596
0.936739
0.138511
-0.111896
-0.414036
-0.724435
-0.283129
-1.24688
-0.426532
-1.72506
-2.74608
-2.91757
-1.81039
-2.05221
-1.51181
-1.44313
0.987537
1.13561
0.855644
0.888752
-0.772328
-1.22385
-0.58616
-0.810198
0.829532
0.943517
0.870812
0.843884
0.806001
0.783465
0.904909
0.582532
0.687133
0.820453
0.690899
-0.772367
-0.661212
-0.676581
-0.60589
-0.4445
-0.7458
0.453364
0.511092
0.521299
0.377863
0.379563
0.328542
0.275039
0.208354
-0.17884
-0.0968612
-0.080913
-0.0125852
0.0945926
-0.0993087
-0.418617
-0.497728
-0.381185
-0.584417
-0.29341
-0.251377
-0.328665
-0.236466
-0.178703
-0.246965
-0.127211
-0.255989
-0.289015
1.19953
1.03566
1.27506
1.14973
1.5515
1.79126
1.45273
0.776197
1.0692
0.739853
3.75737
4.29826
-0.72704
-1.05265
-0.758707
-1.13703
-3.62762
-4.17613
-1.43628
-1.24985
-1.01344
-1.2091
1.35495
0.22158
0.563846
0.39985
0.658779
0.0713782
1.193
0.692402
0.401202
1.05627
1.02375
0.879572
0.880397
1.4202
1.35455
0.960125
1.56753
-1.45341
-0.872405
-1.31463
-0.680813
-1.53235
-0.960719
-0.92073
-1.10971
-0.655837
-1.48537
-0.9315
-0.829044
-0.525597
-0.379106
-0.325203
-0.39748
-0.181841
-0.198017
-0.671427
-0.942072
-0.695838
-0.84347
-0.966478
-1.04109
-0.989807
-1.03311
-0.86336
-0.905358
-0.823315
0.0636411
0.189723
0.120281
0.323928
-0.0598678
0.0229939
0.21103
-0.037309
1.07267
1.32564
0.694632
1.52296
1.21971
0.568147
0.376672
0.476545
1.22783
2.10547
1.82188
2.22766
1.36352
1.79756
2.22921
1.37521
-2.98995
-4.81306
-3.55065
-1.9794
-3.46606
-7.58202
5.17761
1.8152
3.44656
3.30518
1.34907
7.12856
1.49158
0.340542
0.416746
0.241564
-2.65253
-1.75502
-0.0240934
1.06877
0.621668
-0.484931
-0.609345
-0.00596668
-0.989895
-0.56104
0.319248
0.642093
-0.437037
-1.29974
1.22931
0.921523
1.07484
0.860078
0.767573
0.689118
1.1316
1.14342
1.22859
-0.221308
0.730501
0.491283
0.752615
-0.0925139
-1.0844
-0.530453
-1.2193
-0.532796
-1.05912
2.44956
0.531999
0.222587
-0.679628
-0.707779
1.21615
-0.722329
-0.705568
-1.18102
-0.372744
-0.704621
-1.22299
-1.36518
-0.671771
-0.104452
0.464666
-1.0334
-0.891715
-0.7694
0.0302022
0.0785025
-0.110982
-0.153573
-0.421534
0.0435266
0.630306
-0.303029
0.162068
0.309814
0.233981
0.453292
0.452617
0.424764
1.00408
0.864646
0.997681
0.940253
0.807158
1.07837
-0.282359
-0.125328
0.259287
-0.407355
-0.0170467
0.725973
-0.886414
-1.01283
-0.716348
-0.902224
-0.540905
-1.2404
-1.14975
-1.11459
-0.714455
-0.917121
-1.03045
-1.09592
-0.476617
-0.83526
-0.86101
-0.697623
0.593457
0.452559
0.680799
0.230046
0.330001
0.637082
0.577716
-1.3817
-1.31484
-1.15752
-0.857451
-0.651407
-0.975159
-1.6694
-1.10238
-0.909534
-1.87094
-0.250278
-1.90966
-1.3222
-0.387578
-2.11378
-2.02476
-2.57233
-0.417439
-0.554818
-0.866114
-0.546891
-0.393077
-1.46383
-5.07101
-0.330649
-0.78529
2.60526
3.10015
2.4586
0.521971
0.646201
0.872256
0.437469
0.453083
0.355145
1.46472
4.79862
1.0154
0.0824684
0.0114757
0.0256296
0.00635453
-0.0119268
-0.00520679
0.0345768
0.143952
0.11681
0.0663678
0.0165257
0.00518286
0.0146196
-0.00318373
-0.0116672
0.124008
0.0248967
0.00259854
0.0117843
0.00225688
-0.0115143
-0.00652801
0.0152108
0.0482762
0.0179001
-0.0231033
-0.0169935
-0.00134832
-0.0231715
0.0496045
0.0465459
-0.0206544
-0.160683
-0.0674954
-0.0529184
-0.0808611
0.0376532
0.0303852
-0.041424
-0.227424
-0.26329
-0.302602
-0.182207
-0.100731
-0.218891
0.0175745
0.00790347
-0.36241
0.335152
0.0962122
0.209336
0.0772908
-0.0494925
-0.0582305
0.255691
0.434865
0.305581
0.170709
0.0601467
0.0679347
0.0481747
-0.0577095
-0.0354845
0.265541
0.0322379
0.00382075
0.0183705
0.00232719
-0.0230158
0.000100358
0.0248182
0.0459276
0.01333
-0.0488738
-0.00793071
-0.00156738
-0.0145656
0.0437092
0.0433353
0.00252657
-0.058484
-0.0776771
-0.0867223
-0.0235451
-0.0201275
-0.0306046
0.0423619
0.0387717
-0.0156215
-0.128641
-0.140081
0.0421732
-0.0180296
-0.0225001
-0.0301952
-0.155405
0.0296656
1.45832
0.761537
0.903567
-0.488536
-0.627051
-0.538039
-0.707663
-0.443525
-1.16934
-1.34159
-1.44814
0.597093
0.607237
0.763473
0.973572
0.559397
-0.0165479
-0.754013
-0.0396907
0.515936
0.201936
0.166455
0.114854
0.186974
0.0976083
0.0603025
0.106378
0.1612
0.0900119
-0.143938
-0.0905165
-0.0990272
-0.0444598
-0.225987
0.104144
0.102852
0.156014
0.249057
0.0691527
-0.116709
-0.0707387
-0.10456
-0.113744
-0.161942
-0.135324
-0.0891427
-0.139338
-0.178464
-0.203954
1.12799
1.06218
-0.253983
-0.439706
-0.384527
-0.543801
-0.285065
-0.0496066
-0.0374658
-1.23871
-1.09008
0.220273
0.249305
0.265121
0.28489
0.209272
0.155935
0.191424
0.1009
0.20833
0.266688
0.235559
-0.084904
-0.183589
-0.0581741
0.0295129
0.0829866
0.0285988
0.0628845
0.12281
-0.00647581
0.255154
-0.0434001
-0.106291
-0.133706
-0.0983947
-0.0816802
-0.11444
-0.0735644
-0.0264475
-0.0442278
-0.169398
-0.188378
-0.219993
-0.221243
-0.245176
-0.300632
-0.246147
0.023588
0.115222
0.280159
0.250197
0.290848
0.315642
0.314553
0.126812
0.113067
0.201006
0.273243
0.197392
-0.158968
-0.0769619
-0.1189
-0.193513
-0.221603
0.264665
0.441686
0.530463
0.443969
-0.524753
-0.322138
-0.408789
-0.308808
-0.177233
-0.222467
-0.580759
0.344971
0.352917
0.37841
0.423256
0.376505
0.304868
0.308154
0.338473
0.450318
-0.331569
-0.271231
-0.270854
-0.282798
-0.259563
-0.396683
-0.397379
-0.270205
-0.324238
-0.358887
-0.322513
-0.37419
-0.453951
0.390449
0.422292
-0.185601
-0.185277
-0.15033
-0.205402
-0.231373
-0.288299
-0.243021
-0.269382
-0.036918
-0.0103035
-0.0204694
-0.00347312
-0.0525408
-0.000648444
-0.00235367
-0.0299423
0.0236402
0.0111592
0.299136
0.49792
0.553165
0.329286
0.00146113
-0.0427011
0.183757
0.0287518
0
0
0
0
0
0
0
0
0
0
0
0
0
0
0
0
0
0
0
0
0
0
0
0
0
0
0
0
0
0
0
0
0
0
0
0
0
0
0
0
0
0
0
0
0
0
0
0
0
0
0
0
0
0
0
0
0
0
0
0
0
0
0
0
0
0
0
0
0
0
0
0
0
0
0
0
0
0
0
0
0
0
0
0
0
0
0
0
0
0
0
0
0
0
0
0
0
0
0
0
0
0
0
0
0
0
0
0
0
0
0
0
0
0
0
0
0
0
0
0
0
0
0
0
0
0
0
0
0
0
0
0
0
0
0
0
0
0
0
0
0
0
0
0
0
0
0
0
0
0
0
0
0
0
0
0
0
0
0
0
0
0
0
0
0
0
0
0
0
0
0
0
0
0
0
0
0
0
0
0
0
0
0
0
0
0
0
0
0
0
0
0
0
0
0
0
0
0
0
0
0
0
0
0
0
0
0
0
0
0
0
0
0
0
0
0
0
0
0
0
0
0
0
0
0
0
0
0
0
0
0
0
0
0
0
0
0
0
0
0
0
0
0
0
0
0
0
0
0
0
0
0
0
0
0
0
0
0
0
0
0
0
0
0
0
0
0
0
0
0
0
0
0
0
0
0
0
0
0
0
0
0
0
0
0
0
0
0
0
0
0
0
0
0
0
0
0
0
0
0
0
0
0
0
0
0
0
0
0
0
0
0
0
0
0
0
0
0
0
0
0
0
0
0
0
0
0
0
0
0
0
0
0
0
0
0
0
0
0
0
0
0
0
0
0
0
0
0
0
0
0
0
0
0
0
0
0
0
0
0
0
0
0
0
0
0
0
0
0
0
0
0
0
0
0
0
0
0
0
0
0
0
0
0
0
0
0
0
0
0
0
0
0
0
0
0
0
0
0
0
0
0
0
0
0
0
0
0
0
0
0
0
0
0
0
0
0
0
0
0
0
0
0
0
0
0
0
0
0
0
0
0
0
0
0
0
0
0
0
0
0
0
0
0
0
0
0
0
0
0
0
0
0
0
0
0
0
0
0
0
0
0
0
0
0
0
0
0
0
0
0
0
0
0
0
0
0
0
0
0
0
0
0
0
0
0
0
0
0
0
0
0
0
0
0
0
0
0
0
0
0
0
0
0
0
0
0
0
0
0
0
0
0
0
0
0
0
0
0
0
0
0
0
0
0
0
0
0
0
0
0
0
0
0
0
0
0
0
0
0
0
0
0
0
0
0
0
0
0
0
0
0
0
0
0
0
0
0
0
0
0
0
0
0
0
0
0
0
0
0
0
0
0
0
0
0
0
0
0
0
0
0
0
0
0
0
0
0
0
0
0
0
0
0
0
0
0
0
0
0
0
0
0
0
0
0
0
0
0
0
0
0
0
0
0
0
0
0
0
0
0
0
0
0
0
0
0
0
0
0
0
0
0
0
0
0
0
0
0
0
0
0
0
0
0
0
0
0
0
0
0
0
0
0
0
0
0
0
0
0
0
0
0
0
0
0
0
0
0
0
0
0
0
0
0
0
0
0
0
0
0
0
0
0
0
0
0
0
0
0
0
0
0
0
0
0
0
0
0
0
0
0
0
0
0
0
0
0
0
0
0
0
0
0
0
0
0
0
0
0
0
0
0
0
0
0
0
0
0
0
0
0
0
0
0
0
0
0
0
0
0
0
0
0
0
0
0
0
0
0
0
0
0
0
0
0
0
0
0
0
0
0
0
0
0
0
0
0
0
0
0
0
0
0
0
0
0
0
0
0
0
0
0
0
0
0
0
0
0
0
0
0
0
0
0
0
0
0
0
0
0
0
0
0
0
0
0
0
0
0
0
0
0
0
0
0
0
0
0
0
0
0
0
0
0
0
0
0
0
0
0
0
0
0
0
0
0
0
0
0
0
0
0
0
0
0
0
0
0
0
0
0
0
0
0
0
0
0
0
0
0
0
0
0
0
0
0
0
0
0
0
0
0
0
0
0
0
0
0
0
0
0
0
0
0
0
0
0
0
0
0
0
0
0
0
0
0
0
0
0
0
0
0
0
0
0
0
0
0
0
0
0
0
0
0
0
0
0
0
0
0
0
0
0
0
0
0
0
0
0
0
0
0
0
0
0
0
0
0
0
0
0
0
0
0
0
0
0
0
0
0
0
0
0
0
0
0
0
0
0
0
0
0
0
0
0
0
0
0
0
0
0
0
0
0
0
0
0
0
0
0
0
0
0
0
0
0
0
0
0
0
0
0
0
0
0
0
0
0
0
0
0
0
0
0
0
0
0
0
0
0
0
0
0
0
0
0
0
0
0
0
0
0
0
0
0
0
0
0
0
0
0
0
0
0
0
0
0
0
0
0
0
0
0
0
0
0
0
0
0
0
0
0
0
0
0
0
0
0
0
0
0
0
0
0
0
0
0
0
0
0
0
0
0
0
0
0
0
0
0
0
0
0
0
0
0
0
0
0
0
0
0
0
0
0
0
0
0
0
0
0
0
0
0
0
0
0
0
0
0
0
0
0
0
0
0
0
0
0
0
0
0
0
0
0
0
0
0
0
0
0
0
0
0
0
0
0
0
0
0
0
0
0
0
0
0
0
0
0
0
0
0
0
0
0
0
0
0
0
0
0
0
0
0
0
0
0
0
0
0
0
0
0
0
0
0
0
0
0
0
0
0
0
0
0
0
0
0
0
0
0
0
0
0
0
0
0
0
0
0
0
0
0
0
0
0
0
0
0
0
0
0
0
0
0
0
0
0
0
0
0
0
0
0
0
0
0
0
0
0
0
0
0
0
0
0
0
0
0
0
0
0
0
0
0
0
0
0
0
0
0
0
0
0
0
0
0
0
0
0
0
0
0
0
0
0
0
0
0
0
0
0
0
0
0
0
0
0
0
0
0
0
0
0
0
0
0
0
0
0
0
0
0
0
0
0
0
0
0
0
0
0
0
0
0
0
0
0
0
0
0
0
0
0
0
0
0
0
0
0
0
0
0
0
0
0
0
0
0
0
0
0
0
0
0
0
0
0
0
0
0
0
0
0
0
0
0
0
0
0
0
0
0
0
0
0
0
0
0
0
0
0
0
0
0
0
0
0
0
0
0
0
0
0
0
0
0
0
0
0
0
0
0
0
0
0
0
0
0
0
0
0
0
0
0
0
0
0
0
0
0
0
0
0
0
0
0
0
0
0
0
0
0
0
0
0
0
0
0
0
0
0
0
0
0
0
0
0
0
0
0
0
0
0
0
0
0
0
0
0
0
0
0
0
0
0
0
0
0
0
0
0
0
0
0
0
0
0
0
0
0
0
0
0
0
0
0
0
0
0
0
0
0
0
0
0
0
0
0
0
0
0
0
0
0
0
0
0
0
0
0
0
0
0
0
0
0
0
0
0
0
0
0
0
0
0
0
0
0
0
0
0
0
0
0
0
0
0
0
0
0
0
0
0
0
0
0
0
0
0
0
0
0
0
0
0
0
0
0
0
0
0
0
0
0
0
0
0
0
0
0
0
0
0
0
0
0
0
0
0
0
0
0
0
0
0
0
0
0
0
0
0
0
0
0
0
0
0
0
0
0
0
0
0
0
0
0
0
0
0
0
0
0
0
0
0
0
0
0
0
0
0
0
0
0
0
0
0
0
0
0
0
0
0
0
0
0
0
0
0
0
0
0
0
0
0
0
0
0
0
0
0
0
0
0
0
0
0
0
0
0
0
0
0
0
0
0
0
0
0
0
0
0
0
0
0
0
0
0
0
0
0
0
0
0
0
0
0
0
0
0
0
0
0
0
0
0
0
0
0
0
0
0
0
0
0
0
0
0
0
0
0
0
0
0
0
0
0
0
0
0
0
0
0
0
0
0
0
0
0
0
0
0
0
0
0
0
0
0
0
0
0
0
0
0
0
0
0
0
0
0
0
0
0
0
0
0
0
0
0
0
0
0
0
0
0
0
0
0
0
0
0
0
0
0
0
0
0
0
0
0
0
0
0
0
0
0
0
0
0
0
0
0
0
0
0
0
0
0
0
0
0
0
0
0
0
0
0
0
0
0
0
0
0
0
0
0
0
0
0
0
0
0
0
0
0
0
0
0
0
0
0
0
0
0
0
0
0
0
0
0
0
0
0
0
0
0
0
0
0
0
0
0
0
0
0
0
0
0
0
0
0
0
0
0
0
0
0
0
0
0
0
0
0
0
0
0
0
0
0
0
0
0
0
0
0
0
0
0
0
0
0
0
0
0
0
0
0
0
0
0
0
0
0
0
0
0
0
0
0
0
0
0
0
0
0
0
0
0
0
0
0
0
0
0
0
0
0
0
0
0
0
0
0
0
0
0
0
0
0
0
0
0
0
0
0
0
0
0
0
0
0
0
0
0
0
0
0
0
0
0
0
0
0
0
0
0
0
0
0
0
0
0
0
0
0
0
0
0
0
0
0
0
0
0
0
0
0
0
0
0
0
0
0
0
0
0
0
0
0
0
0
0
0
0
0
0
0
0
0
0
0
0
0
0
0
0
0
0
0
0
0
0
0
0
0
0
0
0
0
0
0
0
0
0
0
0
0
0
0
0
0
0
0
0
0
0
0
0
0
0
0
0
0
0
0
0
0
0
0
0
0
0
0
0
0
0
0
0
0
0
0
0
0
0
0
0
0
0
0
0
0
0
0
0
0
0
0
0
0
0
0
0
0
0
0
0
0
0
0
0
0
0
0
0
0
0
0
0
0
0
0
0
0
0
0
0
0
0
0
0
0
0
0
0
0
0
0
0
0
0
0
0
0
0
0
0
0
0
0
0
0
0
0
0
0
0
0
0
0
0
0
0
0
0
0
0
0
0
0
0
0
0
0
0
0
0
0
0
0
0
0
0
0
0
0
0
0
0
0
0
0
0
0
0
0
0
0
0
0
0
0
0
0
0
0
0
0
0
0
0
0
0
0
0
0
0
0
0
0
0
0
0
0
0
0
0
0
0
0
0
0
0
0
0
0
0
0
0
0
0
0
0
0
0
0
0
0
0
0
0
0
0
0
0
0
0
0
0
0
0
0
0
0
0
0
0
0
0
0
0
0
0
0
0
0
0
0
0
0
0
0
0
0
0
0
0
0
0
0
0
0
0
0
0
0
0
0
0
0
0
0
0
0
0
0
0
0
0
0
0
0
0
0
0
0
0
0
      </DataArray> 
      <DataArray type="Float64" NumberOfComponents="1" Name="NormalFibers" format="ascii">
0
0
0
0
0
0
0
0
0
0
0
0
0
0
0
0
0
0
0
0
0
0
0
0
0
0
0
0
0
0
0
0
0
0
0
0
0
0
0
0
0
0
0
0
0
0
0
0
0
0
0
0
0
0
0
0
0
0
0
0
0
0
0
0
0
0
0
0
0
0
0
0
0
0
0
0
0
0
0
0
0
0
0
0
0
0
0
0
0
0
0
0
0
0
0
0
0
0
0
0
0
0
0
0
0
0
0
0
0
0
0
0
0
0
0
0
0
0
0
0
0
0
0
0
0
0
0
0
0
0
0
0
0
0
0
0
0
0
0
0
0
0
0
0
0
0
0
0
0
0
0
0
0
0
0
0
0
0
0
0
0
0
0
0
0
0
0
0
0
0
0
0
0
0
0
0
0
0
0
0
0
0
0
0
0
0
0
0
0
0
0
0
0
0
0
0
0
0
0
0
0
0
0
0
0
0
0
0
0
0
0
0
0
0
0
0
0
0
0
0
0
0
0
0
0
0
0
0
0
0
0
0
0
0
0
0
0
0
0
0
0
0
0
0
0
0
0
0
0
0
0
0
0
0
0
0
0
0
0
0
0
0
0
0
0
0
0
0
0
0
0
0
0
0
0
0
0
0
0
0
0
0
0
0
0
0
0
0
0
0
0
0
0
0
0
0
0
0
0
0
0
0
0
0
0
0
0
0
0
0
0
0
0
0
0
0
0
0
0
0
0
0
0
0
0
0
0
0
0
0
0
0
0
0
0
0
0
0
0
0
0
0
0
0
0
0
0
0
0
0
0
0
0
0
0
0
0
0
0
0
0
0
0
0
0
0
0
0
0
0
0
0
0
0
0
0
0
0
0
0
0
0
0
0
0
0
0
0
0
0
0
0
0
0
0
0
0
0
0
0
0
0
0
0
0
0
0
0
0
0
0
0
0
0
0
0
0
0
0
0
0
0
0
0
0
0
0
0
0
0
0
0
0
0
0
0
0
0
0
0
0
0
0
0
0
0
0
0
0
0
0
0
0
0
0
0
0
0
0
0
0
0
0
0
0
0
0
0
0
0
0
0
0
0
0
0
0
0
0
0
0
0
0
0
0
0
0
0
0
0
0
0
0
0
0
0
0
0
0
0
0
0
0
0
0
0
0
0
0
0
0
0
0
0
0
0
0
0
0
0
0
0
0
0
0
0
0
0
0
0
0
0
0
0
0
0
0
0
0
0
0
0
0
0
0
0
0
0
0
0
0
0
0
0
0
0
0
0
0
0
0
0
0
0
0
0
0
0
0
0
0
0
0
0
0
0
0
0
0
0
0
0
0
0
0
0
0
0
0
0
0
0
0
0
0
0
0
0
0
0
0
0
0
0
0
0
0
0
0
0
0
0
0
0
0
0
0
0
0
0
0
0
0
0
0
0
0
0
0
0
0
0
0
0
0
0
0
0
0
0
0
0
0
0
0
0
0
0
0
0
0
0
0
0
0
0
0
0
0
0
0
0
0
0
0
0
0
0
0
0
0
0
0
0
0
0
0
0
0
0
0
0
0
0
0
0
0
0
0
0
0
0
0
0
0
0
0
0
0
0
0
0
0
0
0
0
0
0
0
0
0
0
0
0
0
0
0
0
0
0
0
0
0
0
0
0
0
0
0
0
0
0
0
0
0
0
0
0
0
0
0
0
0
0
0
0
0
0
0
0
0
0
0
0
0
0
0
0
0
0
0
0
0
0
0
0
0
0
0
0
0
0
0
0
0
0
0
0
0
0
0
0
0
0
0
0
0
0
0
0
0
0
0
0
0
0
0
0
0
0
0
0
0
0
0
0
0
0
0
0
0
0
0
0
0
0
0
0
0
0
0
0
0
0
0
0
0
0
0
0
0
0
0
0
0
0
0
0
0
0
0
0
0
0
0
0
0
0
0
0
0
0
0
0
0
0
0
0
0
0
0
0
0
0
0
0
0
0
0
0
0
0
0
0
0
0
0
0
0
0
0
0
0
0
0
0
0
0
0
0
0
0
0
0
0
0
0
0
0
0
0
0
0
0
0
0
0
0
0
0
0
0
0
0
0
0
0
0
0
0
0
0
0
0
0
0
0
0
0
0
0
0
0
0
0
0
0
0
0
0
0
0
0
0
0
0
0
0
0
0
0
0
0
0
0
0
0
0
0
0
0
0
0
0
0
0
0
0
0
0
0
0
0
0
0
0
0
0
0
0
0
0
0
0
0
0
0
0
0
0
0
0
0
0
0
0
0
0
0
0
0
0
0
0
0
0
0
0
0
0
0
0
0
0
0
0
0
0
0
0
0
0
0
0
0
0
0
0
0
0
0
0
0
0
0
0
0
0
0
0
0
0
0
0
0
0
0
0
0
0
0
0
0
0
0
0
0
0
0
0
0
0
0
0
0
0
0
0
0
0
0
0
0
0
0
0
0
0
0
0
0
0
0
0
0
0
0
0
0
0
0
0
0
0
0
0
0
0
0
0
0
0
0
0
0
0
0
0
0
0
0
0
0
0
0
0
0
0
0
0
0
0
0
0
0
0
0
0
0
0
0
0
0
0
0
0
0
0
0
0
0
0
0
0
0
0
0
0
0
0
0
0
0
0
0
0
0
0
0
0
0
0
0
0
0
0
0
0
0
0
0
0
0
0
0
0
0
0
0
0
0
0
0
0
0
0
0
0
0
0
0
0
0
0
0
0
0
0
0
0.000527443
0.000527443
0.00263628
0.00263628
-0.00862127
-0.00862127
-0.00435353
-0.00435353
-0.000279369
-0.000279369
-0.00416827
-0.00416827
0.000253268
0.000253268
0.00192125
0.00192125
-0.0105862
-0.0105862
-0.00136807
-0.00136807
-0.00364245
-0.00364245
-0.00535743
-0.00535743
-0.0090655
-0.0090655
0.00232239
0.00232239
-0.00431642
-0.00431642
0.00604447
0.00604447
-0.00367519
-0.00367519
-0.000335843
-0.000335843
0.00352442
0.00352442
-0.00227166
-0.00227166
-0.00127652
-0.00127652
-0.00548596
-0.00548596
-0.0206854
-0.0206854
-0.00208201
-0.00208201
-0.00267042
-0.00267042
-0.00185818
-0.00185818
-0.00132788
-0.00132788
-0.000240534
-0.000240534
-0.0104218
-0.0104218
0.000891248
0.000891248
0.000881003
0.000881003
0.00105403
0.00105403
-0.0140255
-0.0140255
-0.0023106
-0.0023106
-0.0156605
-0.0156605
-0.000869129
-0.000869129
-0.00343108
-0.00343108
-0.00116561
-0.00116561
0.000723015
0.000723015
-0.00404041
-0.00404041
-0.00304154
-0.00304154
0.00504788
0.00504788
-0.0047973
-0.0047973
-0.00432449
-0.00432449
-0.0150128
-0.0150128
-0.00415353
-0.00415353
-0.00239099
-0.00239099
-0.0025703
-0.0025703
-0.00176296
-0.00176296
-0.00156432
-0.00156432
0.00737413
0.00737413
-0.00240114
-0.00240114
0.00143818
0.00143818
-0.0123332
-0.0123332
-0.000502482
-0.000502482
-0.00126466
-0.00126466
-0.00621423
-0.00621423
-0.00783349
-0.00783349
-0.000497957
-0.000497957
-0.00160912
-0.00160912
-0.00609577
-0.00609577
0.00437087
0.00437087
1.2857e-05
1.2857e-05
-0.00596728
-0.00596728
-0.0043679
-0.0043679
-0.00436945
-0.00436945
-0.00446844
-0.00446844
0.00418229
0.00418229
0.00579953
0.00579953
-0.00968707
-0.00968707
-0.00669518
-0.00669518
-0.00212746
-0.00212746
-0.0160161
-0.0160161
0.00388908
0.00388908
-0.00800314
-0.00800314
-4.58401e-05
-4.58401e-05
-0.00240252
-0.00240252
-0.000302762
-0.000302762
-0.00626199
-0.00626199
-0.00461902
-0.00461902
-0.0104408
-0.0104408
0.00100202
0.00100202
-0.00563627
-0.00563627
-0.0146833
-0.0146833
-0.00922804
-0.00922804
-0.00742844
-0.00742844
-0.00206468
-0.00206468
-0.000574841
-0.000574841
0.00218185
0.00218185
-0.000463111
-0.000463111
-0.00211833
-0.00211833
-0.000103603
-0.000103603
0.00374554
0.00374554
-0.00791331
-0.00791331
-0.0123231
-0.0123231
-0.000873432
-0.000873432
0.000552504
0.000552504
-0.00312968
-0.00312968
-0.019304
-0.019304
-0.00408295
-0.00408295
-0.000115213
-0.000115213
-0.00529818
-0.00529818
-0.00221098
-0.00221098
-0.00418646
-0.00418646
-0.000791966
-0.000791966
0.000721182
0.000721182
-0.0144862
-0.0144862
-0.00361859
-0.00361859
-0.00250334
-0.00250334
-0.00283866
-0.00283866
-0.00913347
-0.00913347
0.00707525
0.00707525
0.00459865
0.00459865
0.00108014
0.00108014
0.00358201
0.00358201
-0.000896142
-0.000896142
-0.000427239
-0.000427239
-0.00630904
-0.00630904
-0.0100301
-0.0100301
0.00104876
0.00104876
-0.000435775
-0.000435775
-0.00196952
-0.00196952
0.00107839
0.00107839
-0.00315242
-0.00315242
-0.00517083
-0.00517083
-0.0116628
-0.0116628
-0.000404109
-0.000404109
-0.000528042
-0.000528042
0.00031994
0.00031994
-0.0149906
-0.0149906
-0.00776182
-0.00776182
0.00254412
0.00254412
0.000408824
0.000408824
-0.00194943
-0.00194943
0.00423218
0.00423218
-0.00270113
-0.00270113
-0.000413711
-0.000413711
-0.00574079
-0.00574079
-0.00665293
-0.00665293
-0.00224713
-0.00224713
-0.00079809
-0.00079809
-0.00316535
-0.00316535
-0.000470433
-0.000470433
-0.00165908
-0.00165908
-0.00122446
-0.00122446
-0.000600153
-0.000600153
-0.00208682
-0.00208682
0.00125286
0.00125286
-0.00191877
-0.00191877
-0.0065324
-0.0065324
-0.00125021
-0.00125021
-0.000708772
-0.000708772
0.00168904
0.00168904
-0.0123852
-0.0123852
-0.0107434
-0.0107434
-0.0292095
-0.0292095
-0.014502
-0.014502
-0.0111132
-0.0111132
0.000194436
0.000194436
-0.0019837
-0.0019837
-0.00568511
-0.00568511
0.00394353
0.00394353
-0.00265225
-0.00265225
0.00278195
0.00278195
-0.000533729
-0.000533729
-0.00360659
-0.00360659
-0.00605406
-0.00605406
0.0021113
0.0021113
-0.00500376
-0.00500376
-0.0029717
-0.0029717
-0.0021608
-0.0021608
-0.00709473
-0.00709473
-0.00679211
-0.00679211
-0.000919431
-0.000919431
0.000459977
0.000459977
-0.00418981
-0.00418981
-0.00121693
-0.00121693
-0.00571983
-0.00571983
-0.00503317
-0.00503317
-0.00694177
-0.00694177
-0.000923405
-0.000923405
-0.00132399
-0.00132399
-0.000132585
-0.000132585
-0.0131722
-0.0131722
-0.00750334
-0.00750334
-0.0150167
-0.0150167
-0.000665369
-0.000665369
-0.000811576
-0.000811576
0.00267839
0.00267839
0.00130305
0.00130305
0.00300704
0.00300704
0.00524525
0.00524525
-0.00471548
-0.00471548
-0.00504704
-0.00504704
0.000260636
0.000260636
-0.00165408
-0.00165408
-0.000114226
-0.000114226
-0.00128805
-0.00128805
-0.0033425
-0.0033425
0.00152744
0.00152744
-0.00197082
-0.00197082
-0.0100335
-0.0100335
-0.000814829
-0.000814829
0.00336227
0.00336227
-0.00151702
-0.00151702
-0.0199358
-0.0199358
0.00335557
0.00335557
0.000858721
0.000858721
-0.00148529
-0.00148529
-0.00751265
-0.00751265
-0.00045026
-0.00045026
-0.00144499
-0.00144499
-0.00841215
-0.00841215
-0.00389655
-0.00389655
0.00337751
0.00337751
-0.00182035
-0.00182035
-0.00381491
-0.00381491
-0.00968375
-0.00968375
0.0056191
0.0056191
0.00553629
0.00553629
-0.000327685
-0.000327685
-0.011729
-0.011729
0.00132438
0.00132438
-0.00298506
-0.00298506
-0.00452461
-0.00452461
-0.000802879
-0.000802879
2.07714e-05
2.07714e-05
-0.00134473
-0.00134473
-0.00925838
-0.00925838
-0.00287303
-0.00287303
-0.000947617
-0.000947617
-0.000671306
-0.000671306
-0.00291152
-0.00291152
-0.0119062
-0.0119062
0.00031017
0.00031017
-0.00253637
-0.00253637
-0.00355455
-0.00355455
-0.0150827
-0.0150827
-0.0107056
-0.0107056
-0.00922673
-0.00922673
-0.00273288
-0.00273288
-0.000636753
-0.000636753
-0.000574718
-0.000574718
0.00601488
0.00601488
-0.000265727
-0.000265727
-0.00115615
-0.00115615
-0.000702762
-0.000702762
0.00548819
0.00548819
-0.0106068
-0.0106068
-0.00485544
-0.00485544
-0.00075822
-0.00075822
-0.0143404
-0.0143404
-0.0145841
-0.0145841
-0.000586464
-0.000586464
-0.0162126
-0.0162126
-0.000161209
-0.000161209
-0.00945156
-0.00945156
0.00290681
0.00290681
-0.00136372
-0.00136372
-3.84247e-05
-3.84247e-05
-0.00234383
-0.00234383
-0.0218596
-0.0218596
-0.00269926
-0.00269926
-0.00129085
-0.00129085
-0.00290876
-0.00290876
-0.00982939
-0.00982939
-0.00463572
-0.00463572
-0.00449213
-0.00449213
0.00660369
0.00660369
-0.000877886
-0.000877886
-0.0110695
-0.0110695
-0.00135851
-0.00135851
-0.000562159
-0.000562159
-0.0144267
-0.0144267
-0.00196635
-0.00196635
-0.0116844
-0.0116844
-0.001488
-0.001488
-0.000239135
-0.000239135
-0.00549904
-0.00549904
0.00216305
0.00216305
0.000120661
0.000120661
-0.00349473
-0.00349473
-0.00438927
-0.00438927
-0.00308972
-0.00308972
-0.00562497
-0.00562497
-0.0132948
-0.0132948
0.00428397
0.00428397
-0.0117291
-0.0117291
0.000622533
0.000622533
-0.0137878
-0.0137878
-0.00414282
-0.00414282
-0.00545214
-0.00545214
-0.000799115
-0.000799115
0.00243519
0.00243519
-0.0157926
-0.0157926
0.00314476
0.00314476
0.00112071
0.00112071
0.00613247
0.00613247
-0.0132955
-0.0132955
-0.00404482
-0.00404482
-0.000244852
-0.000244852
-0.00713903
-0.00713903
-0.00989104
-0.00989104
-0.00279605
-0.00279605
-0.0121597
-0.0121597
-0.00478636
-0.00478636
-0.00143297
-0.00143297
-0.00218857
-0.00218857
0.0024763
0.0024763
-0.0108421
-0.0108421
0.0042402
0.0042402
-0.0034484
-0.0034484
3.43679e-05
3.43679e-05
-0.00430947
-0.00430947
0.000681688
0.000681688
0.00230704
0.00230704
-0.00393057
-0.00393057
-0.0067272
-0.0067272
-0.0101014
-0.0101014
0.00056163
0.00056163
-0.0147585
-0.0147585
0.00280132
0.00280132
-0.00189871
-0.00189871
-0.00594021
-0.00594021
-0.00940904
-0.00940904
-0.0127898
-0.0127898
-0.0120357
-0.0120357
-0.00157134
-0.00157134
-0.00575148
-0.00575148
-8.9738e-05
-8.9738e-05
-0.000908386
-0.000908386
-0.0161795
-0.0161795
-0.00176807
-0.00176807
0.00513717
0.00513717
0.00248753
0.00248753
-0.00190245
-0.00190245
-9.65111e-05
-9.65111e-05
5.85846e-05
5.85846e-05
-8.73306e-05
-8.73306e-05
-0.00471187
-0.00471187
-0.00444935
-0.00444935
0.00115899
0.00115899
-0.000678408
-0.000678408
-0.00677258
-0.00677258
0.00144114
0.00144114
-0.00351512
-0.00351512
-0.00243553
-0.00243553
-0.00267463
-0.00267463
-0.00121165
-0.00121165
-0.00124126
-0.00124126
-0.00839215
-0.00839215
-0.000898592
-0.000898592
0.000571982
0.000571982
-0.000477814
-0.000477814
0.00540825
0.00540825
-0.00670494
-0.00670494
-0.00547395
-0.00547395
-0.00484888
-0.00484888
-0.00564572
-0.00564572
-0.00202149
-0.00202149
-0.00846309
-0.00846309
-0.00915136
-0.00915136
-0.0041982
-0.0041982
-0.0174382
-0.0174382
0.00268727
0.00268727
-0.00132758
-0.00132758
-0.000770249
-0.000770249
0.00560654
0.00560654
0.00264592
0.00264592
-0.000841029
-0.000841029
3.82315e-06
3.82315e-06
-0.0015091
-0.0015091
-0.00180275
-0.00180275
-0.00670435
-0.00670435
-0.00456583
-0.00456583
-0.00442833
-0.00442833
-0.00394484
-0.00394484
-0.00594019
-0.00594019
-0.00146157
-0.00146157
0.00147393
0.00147393
0.00405027
0.00405027
-0.00281072
-0.00281072
-0.00430261
-0.00430261
-0.00178111
-0.00178111
-0.0249391
-0.0249391
0.000673501
0.000673501
0.00274756
0.00274756
-0.0134018
-0.0134018
0.00326894
0.00326894
-0.00214144
-0.00214144
0.00171488
0.00171488
-0.0231391
-0.0231391
-0.0028037
-0.0028037
0.00260148
0.00260148
-0.0163212
-0.0163212
-0.00778018
-0.00778018
-0.0042402
-0.0042402
-0.0165628
-0.0165628
-0.00163831
-0.00163831
-0.00157234
-0.00157234
-0.00548729
-0.00548729
-0.0228473
-0.0228473
-0.00569347
-0.00569347
-0.000556539
-0.000556539
-0.00178585
-0.00178585
0.000417331
0.000417331
-0.011545
-0.011545
-0.00608782
-0.00608782
0.000955225
0.000955225
-0.0053084
-0.0053084
-0.00209378
-0.00209378
-0.00186835
-0.00186835
-0.00861068
-0.00861068
-0.00942419
-0.00942419
-0.013489
-0.013489
-0.000175963
-0.000175963
-0.00315375
-0.00315375
-0.00508441
-0.00508441
-0.00289876
-0.00289876
-0.00333189
-0.00333189
0.000316636
0.000316636
-0.00458569
-0.00458569
0.00180856
0.00180856
-0.00333733
-0.00333733
-0.00262769
-0.00262769
-0.00105307
-0.00105307
0.00315199
0.00315199
-0.00734641
-0.00734641
-0.00943805
-0.00943805
-0.000999779
-0.000999779
-0.0107111
-0.0107111
-0.00248871
-0.00248871
-0.0165032
-0.0165032
-0.0275248
-0.0275248
0.00159966
0.00159966
0.00306568
0.00306568
0.00165333
0.00165333
-0.0065792
-0.0065792
3.77963e-05
3.77963e-05
-0.000287125
-0.000287125
-0.0113687
-0.0113687
-0.000801331
-0.000801331
-0.000865575
-0.000865575
0.000488726
0.000488726
-0.000580904
-0.000580904
-0.00674747
-0.00674747
-0.0182498
-0.0182498
-0.000394202
-0.000394202
-2.1637e-05
-2.1637e-05
-0.00179334
-0.00179334
-0.00200282
-0.00200282
-0.0137205
-0.0137205
-0.000700969
-0.000700969
-0.0104849
-0.0104849
0.000488148
0.000488148
-0.0049705
-0.0049705
-0.00328757
-0.00328757
0.00191541
0.00191541
-0.00281132
-0.00281132
0.00109415
0.00109415
0.000977676
0.000977676
-0.00262914
-0.00262914
-0.000444289
-0.000444289
-0.00360533
-0.00360533
-0.00378231
-0.00378231
-0.00129348
-0.00129348
0.00308031
0.00308031
-0.0029445
-0.0029445
-0.00458882
-0.00458882
0.00307872
0.00307872
-0.000699843
-0.000699843
-0.00825137
-0.00825137
-0.000390294
-0.000390294
-0.00531402
-0.00531402
-0.0157114
-0.0157114
-0.00209748
-0.00209748
-0.00389945
-0.00389945
-0.00695936
-0.00695936
0.0045327
0.0045327
0.00166662
0.00166662
-0.00383564
-0.00383564
0.00118331
0.00118331
-0.000517988
-0.000517988
-0.00419511
-0.00419511
-0.0035832
-0.0035832
-0.00333291
-0.00333291
-0.000858939
-0.000858939
3.46737e-06
3.46737e-06
-0.00312119
-0.00312119
-0.00322816
-0.00322816
-0.00120125
-0.00120125
-0.0022408
-0.0022408
-0.0227038
-0.0227038
-0.000829581
-0.000829581
-0.00270416
-0.00270416
-0.00349881
-0.00349881
-0.0015289
-0.0015289
0.00168832
0.00168832
-0.00205591
-0.00205591
-0.00318493
-0.00318493
0.0015686
0.0015686
0.00049651
0.00049651
-0.00540056
-0.00540056
-0.00407688
-0.00407688
-0.010274
-0.010274
-0.00175449
-0.00175449
0.000399583
0.000399583
-0.00132813
-0.00132813
-0.0010046
-0.0010046
-0.00627959
-0.00627959
-0.000759257
-0.000759257
-0.00214062
-0.00214062
-0.00194149
-0.00194149
-0.0117203
-0.0117203
-0.0011792
-0.0011792
-0.00145213
-0.00145213
-0.00313456
-0.00313456
-0.00972939
-0.00972939
-0.000342663
-0.000342663
-0.010995
-0.010995
-0.000349028
-0.000349028
-0.0141114
-0.0141114
-0.0117665
-0.0117665
-0.000132509
-0.000132509
0.00285127
0.00285127
0.000938922
0.000938922
-0.00864114
-0.00864114
-0.000259317
-0.000259317
-0.00242156
-0.00242156
-0.0133458
-0.0133458
0.00350205
0.00350205
-0.00864676
-0.00864676
-0.00302818
-0.00302818
-0.00807047
-0.00807047
-0.0112041
-0.0112041
0.00480869
0.00480869
-0.00180561
-0.00180561
-0.00443774
-0.00443774
-0.00108765
-0.00108765
-0.00472222
-0.00472222
-0.00117471
-0.00117471
-0.00154327
-0.00154327
-0.0030132
-0.0030132
-0.00829225
-0.00829225
-0.00542853
-0.00542853
0.000533693
0.000533693
-0.00914394
-0.00914394
-0.0039858
-0.0039858
-0.00464973
-0.00464973
-0.0070208
-0.0070208
-0.00903819
-0.00903819
-0.00557435
-0.00557435
0.00175263
0.00175263
-0.0205154
-0.0205154
0.00107436
0.00107436
-0.00534241
-0.00534241
-0.00249172
-0.00249172
-0.0129136
-0.0129136
-0.00764301
-0.00764301
0.00382817
0.00382817
-0.00678865
-0.00678865
-0.00993619
-0.00993619
-0.0029864
-0.0029864
-0.00860972
-0.00860972
-0.0137058
-0.0137058
0.0042458
0.0042458
-0.00308586
-0.00308586
3.26329e-05
3.26329e-05
-0.00120068
-0.00120068
-0.0118646
-0.0118646
-0.011491
-0.011491
-0.000587366
-0.000587366
-0.00340018
-0.00340018
0.00222106
0.00222106
-0.00833074
-0.00833074
-0.000676195
-0.000676195
-0.0186383
-0.0186383
-0.0135177
-0.0135177
-0.00203554
-0.00203554
-0.00226482
-0.00226482
-0.0113234
-0.0113234
-0.00440637
-0.00440637
0.00664518
0.00664518
-0.00982056
-0.00982056
0.006184
0.006184
-0.00247938
-0.00247938
-0.0023706
-0.0023706
-0.0109474
-0.0109474
-0.00152151
-0.00152151
-0.000340323
-0.000340323
-0.0021538
-0.0021538
-0.00320343
-0.00320343
-0.00257533
-0.00257533
-0.00260099
-0.00260099
0.000157143
0.000157143
-0.00179895
-0.00179895
-0.00693753
-0.00693753
-0.00235865
-0.00235865
-0.00273168
-0.00273168
-0.00203898
-0.00203898
-0.000952438
-0.000952438
-0.00330706
-0.00330706
0.00117677
0.00117677
-0.00234475
-0.00234475
0.000451322
0.000451322
-0.00141534
-0.00141534
-0.0150037
-0.0150037
-0.00267523
-0.00267523
-0.00448818
-0.00448818
0.00236464
0.00236464
-0.00119412
-0.00119412
0.000817946
0.000817946
-0.00259747
-0.00259747
-0.0120086
-0.0120086
-0.000920328
-0.000920328
-0.0100508
-0.0100508
-0.0022573
-0.0022573
-0.000453023
-0.000453023
-0.00252723
-0.00252723
-0.00269445
-0.00269445
-0.00235583
-0.00235583
-0.00346349
-0.00346349
-0.00509651
-0.00509651
0.0050507
0.0050507
0.00014823
0.00014823
-0.00032717
-0.00032717
-0.0052536
-0.0052536
0.0031226
0.0031226
-0.00143161
-0.00143161
-0.000796954
-0.000796954
-0.00289216
-0.00289216
-0.00239612
-0.00239612
-0.000368384
-0.000368384
-0.00178024
-0.00178024
-0.000117125
-0.000117125
-0.000999814
-0.000999814
-0.00341359
-0.00341359
0.000666296
0.000666296
-0.00660783
-0.00660783
-0.00321483
-0.00321483
0.00646026
0.00646026
-0.000886067
-0.000886067
0.00206451
0.00206451
-0.00190799
-0.00190799
-0.0176679
-0.0176679
-0.0149608
-0.0149608
-0.00649625
-0.00649625
0.0039152
0.0039152
-0.00990253
-0.00990253
-0.000277904
-0.000277904
-0.00110171
-0.00110171
-0.00127394
-0.00127394
-0.000330197
-0.000330197
-0.00260275
-0.00260275
-0.00330055
-0.00330055
-0.000954661
-0.000954661
-0.00488226
-0.00488226
-0.0220457
-0.0220457
-0.00176315
-0.00176315
-0.00263545
-0.00263545
-0.00186524
-0.00186524
-0.00611753
-0.00611753
0.00192563
0.00192563
-0.0099749
-0.0099749
-0.00046728
-0.00046728
0.00277795
0.00277795
-0.000485629
-0.000485629
-0.00122096
-0.00122096
-0.015422
-0.015422
-0.0154037
-0.0154037
-0.0132739
-0.0132739
-0.000286391
-0.000286391
0.000627987
0.000627987
-0.00308995
-0.00308995
-0.000810912
-0.000810912
-0.00104347
-0.00104347
-0.00110277
-0.00110277
-0.000643245
-0.000643245
0.00360175
0.00360175
-0.0165308
-0.0165308
-0.0010399
-0.0010399
-0.000103822
-0.000103822
-0.000669569
-0.000669569
-0.00150258
-0.00150258
-0.000651288
-0.000651288
0.00121986
0.00121986
-0.009319
-0.009319
-0.00200078
-0.00200078
-0.00533544
-0.00533544
-0.010087
-0.010087
-0.00343206
-0.00343206
-0.0134769
-0.0134769
-0.00452507
-0.00452507
-0.00435865
-0.00435865
-0.000315503
-0.000315503
-0.00160468
-0.00160468
0.00355636
0.00355636
0.00517383
0.00517383
-0.00107651
-0.00107651
-0.000580434
-0.000580434
0.00108824
0.00108824
-0.0070111
-0.0070111
-0.000659455
-0.000659455
0.0026438
0.0026438
-0.00245684
-0.00245684
2.23621e-05
2.23621e-05
-0.000996849
-0.000996849
-0.00149354
-0.00149354
-0.0129049
-0.0129049
0.00516855
0.00516855
-0.000773457
-0.000773457
-0.0047266
-0.0047266
-0.00716381
-0.00716381
-0.00786242
-0.00786242
-0.0011045
-0.0011045
-0.000525089
-0.000525089
-0.00963178
-0.00963178
0.00129735
0.00129735
-0.0128002
-0.0128002
-0.016731
-0.016731
0.00133486
0.00133486
-0.00110691
-0.00110691
-0.0119359
-0.0119359
-0.00227054
-0.00227054
-0.00296075
-0.00296075
-0.00495558
-0.00495558
-0.00171658
-0.00171658
0.00261345
0.00261345
-0.0111336
-0.0111336
-0.00444009
-0.00444009
0.00171441
0.00171441
-0.00974463
-0.00974463
-0.00274299
-0.00274299
-0.00227034
-0.00227034
-0.000962376
-0.000962376
-0.00065183
-0.00065183
-0.00309435
-0.00309435
-0.00582556
-0.00582556
-0.00113458
-0.00113458
0.00281091
0.00281091
-0.0270413
-0.0270413
0.000318676
0.000318676
-0.0014776
-0.0014776
-0.003943
-0.003943
0.00172413
0.00172413
-0.00377424
-0.00377424
-0.00180692
-0.00180692
-0.00261103
-0.00261103
-0.000363362
-0.000363362
0.000744671
0.000744671
0.000533738
0.000533738
0.00096747
0.00096747
-0.0136296
-0.0136296
-0.00383544
-0.00383544
0.000529077
0.000529077
0.00357395
0.00357395
0.000674386
0.000674386
0.00342441
0.00342441
-0.00169844
-0.00169844
0.000758916
0.000758916
-0.00151355
-0.00151355
-0.00195965
-0.00195965
-0.0230812
-0.0230812
0.0012568
0.0012568
-0.0194106
-0.0194106
0.00328367
0.00328367
0.000241778
0.000241778
-0.00354843
-0.00354843
-0.00202623
-0.00202623
-0.00627727
-0.00627727
-0.00704002
-0.00704002
-0.00237034
-0.00237034
-0.000256763
-0.000256763
0.00357334
0.00357334
-0.00816165
-0.00816165
-0.00215589
-0.00215589
-0.0017829
-0.0017829
0.00479244
0.00479244
0.000101971
0.000101971
-0.000440543
-0.000440543
4.76565e-06
4.76565e-06
-0.000866049
-0.000866049
-0.0052175
-0.0052175
-0.011091
-0.011091
-0.0126686
-0.0126686
-0.00204287
-0.00204287
0.00257643
0.00257643
-0.0129286
-0.0129286
-0.00513204
-0.00513204
0.00482268
0.00482268
-0.00064401
-0.00064401
0.000144526
0.000144526
-0.00351925
-0.00351925
-0.00288205
-0.00288205
-0.000883207
-0.000883207
-0.0123589
-0.0123589
0.00732578
0.00732578
-0.00889803
-0.00889803
-0.000857568
-0.000857568
-0.00376146
-0.00376146
-0.016219
-0.016219
0.000589562
0.000589562
-0.00306326
-0.00306326
-0.014157
-0.014157
0.00527535
0.00527535
-0.000393277
-0.000393277
0.00069692
0.00069692
-0.00223669
-0.00223669
0.00304455
0.00304455
-0.000184251
-0.000184251
-0.000629988
-0.000629988
-0.00417925
-0.00417925
-0.00684109
-0.00684109
-0.0205231
-0.0205231
-0.0162007
-0.0162007
0.00188774
0.00188774
-0.0151821
-0.0151821
-0.00299497
-0.00299497
-0.00148312
-0.00148312
0.000240627
0.000240627
-0.00489221
-0.00489221
0.00119106
0.00119106
-0.000662936
-0.000662936
0.000962303
0.000962303
-0.000582763
-0.000582763
-2.78819e-05
-2.78819e-05
-0.00415612
-0.00415612
-0.00246923
-0.00246923
-0.000532837
-0.000532837
-0.0081237
-0.0081237
0.000419777
0.000419777
-0.00319633
-0.00319633
-0.0037054
-0.0037054
0.00265696
0.00265696
-0.00406552
-0.00406552
-0.00191476
-0.00191476
0.00409429
0.00409429
0.00109145
0.00109145
0.00374633
0.00374633
-0.00506701
-0.00506701
-0.00018495
-0.00018495
-0.0105028
-0.0105028
-0.00310825
-0.00310825
-0.0154512
-0.0154512
-0.00840981
-0.00840981
-0.015483
-0.015483
-0.00127821
-0.00127821
-0.0108666
-0.0108666
0.000333718
0.000333718
-0.00284765
-0.00284765
-0.013614
-0.013614
-0.0154796
-0.0154796
0.00233817
0.00233817
-0.00316825
-0.00316825
0.00286207
0.00286207
0.00365653
0.00365653
-0.00570968
-0.00570968
-0.0144222
-0.0144222
-0.000560874
-0.000560874
0.00146575
0.00146575
0.000968072
0.000968072
0.00282426
0.00282426
-0.00773679
-0.00773679
-0.00283807
-0.00283807
0.000295385
0.000295385
-0.00284078
-0.00284078
-0.00310534
-0.00310534
-0.00401583
-0.00401583
0.00155616
0.00155616
-0.0085246
-0.0085246
-0.00106738
-0.00106738
-0.00102483
-0.00102483
-0.00197161
-0.00197161
-0.00288508
-0.00288508
-0.000861088
-0.000861088
-0.00941985
-0.00941985
-0.0133124
-0.0133124
-0.00205127
-0.00205127
-0.00047712
-0.00047712
-0.00301429
-0.00301429
0.000671681
0.000671681
-0.0138445
-0.0138445
-0.000246993
-0.000246993
0.00384765
0.00384765
-0.0167567
-0.0167567
-0.00020816
-0.00020816
-0.0042712
-0.0042712
-0.00471984
-0.00471984
-0.0108138
-0.0108138
-0.00230552
-0.00230552
-0.00248432
-0.00248432
-0.00042306
-0.00042306
-0.0120296
-0.0120296
-0.00300664
-0.00300664
-0.00800059
-0.00800059
7.68279e-05
7.68279e-05
-0.00116533
-0.00116533
0.0012753
0.0012753
0.00199871
0.00199871
-0.00557106
-0.00557106
0.000356112
0.000356112
0.000318187
0.000318187
0.000286488
0.000286488
4.84851e-05
4.84851e-05
-0.00050749
-0.00050749
-0.00321054
-0.00321054
-0.00322928
-0.00322928
-0.00700609
-0.00700609
-0.00114151
-0.00114151
0.00314007
0.00314007
-0.00354131
-0.00354131
-0.0108775
-0.0108775
0.00237589
0.00237589
-0.00354739
-0.00354739
-0.00121093
-0.00121093
-0.00333158
-0.00333158
-0.00243635
-0.00243635
-0.00196491
-0.00196491
-0.00115465
-0.00115465
-0.00908941
-0.00908941
-0.00130541
-0.00130541
-0.00193183
-0.00193183
-0.00189127
-0.00189127
-0.0112992
-0.0112992
-0.0180019
-0.0180019
-0.00238433
-0.00238433
-0.00117823
-0.00117823
-0.0115899
-0.0115899
-0.00259404
-0.00259404
-0.00110657
-0.00110657
-0.00767924
-0.00767924
-0.00823315
-0.00823315
-0.00339574
-0.00339574
-0.000776493
-0.000776493
-0.00640203
-0.00640203
0.00109017
0.00109017
0.00219563
0.00219563
0.00022458
0.00022458
-0.000683092
-0.000683092
-0.00222182
-0.00222182
0.00219613
0.00219613
0.00565845
0.00565845
-0.0117232
-0.0117232
-0.00171336
-0.00171336
-0.00217353
-0.00217353
-0.00492525
-0.00492525
-0.00363074
-0.00363074
0.00137291
0.00137291
-0.00403229
-0.00403229
0.00210552
0.00210552
-0.00946638
-0.00946638
-0.0136536
-0.0136536
0.00638765
0.00638765
-0.0108591
-0.0108591
-0.0131614
-0.0131614
-0.00877934
-0.00877934
-0.00457994
-0.00457994
-0.00182421
-0.00182421
-0.00168735
-0.00168735
-0.00665797
-0.00665797
-0.00462024
-0.00462024
0.000116368
0.000116368
-0.00144448
-0.00144448
-0.000837556
-0.000837556
0.00149125
0.00149125
-0.00415262
-0.00415262
-0.00956042
-0.00956042
-0.0197451
-0.0197451
-0.0136951
-0.0136951
-0.00762268
-0.00762268
-0.00527533
-0.00527533
-0.0236654
-0.0236654
-0.00116604
-0.00116604
-0.0102816
-0.0102816
0.00245186
0.00245186
-0.000364363
-0.000364363
-0.0137462
-0.0137462
-0.0045245
-0.0045245
-0.00403203
-0.00403203
-0.0105384
-0.0105384
-0.000939587
-0.000939587
-0.00131279
-0.00131279
-0.000822599
-0.000822599
-0.00204045
-0.00204045
-0.0103995
-0.0103995
-0.00133627
-0.00133627
-0.00101267
-0.00101267
-0.000964304
-0.000964304
-0.000207654
-0.000207654
-0.0078489
-0.0078489
-0.000488089
-0.000488089
-0.014191
-0.014191
-0.0231689
-0.0231689
-0.00236601
-0.00236601
0.00191843
0.00191843
-0.00420993
-0.00420993
-0.00438725
-0.00438725
-0.00167207
-0.00167207
-0.00586099
-0.00586099
0.00111167
0.00111167
-0.00119582
-0.00119582
-0.000928324
-0.000928324
-0.000757395
-0.000757395
-0.000651544
-0.000651544
-0.000517132
-0.000517132
-0.000411367
-0.000411367
-0.000311787
-0.000311787
-0.000222032
-0.000222032
-0.000147585
-0.000147585
-7.33553e-05
-7.33553e-05
-1.13209e-05
-1.13209e-05
4.42415e-05
4.42415e-05
9.75093e-05
9.75093e-05
0.000131081
0.000131081
0.000161798
0.000161798
0.000190218
0.000190218
0.00020133
0.00020133
0.000211793
0.000211793
0.000207049
0.000207049
0.00020602
0.00020602
0.000186535
0.000186535
0.00015633
0.00015633
0.000133702
0.000133702
9.21018e-05
9.21018e-05
4.58383e-05
4.58383e-05
-1.83184e-05
-1.83184e-05
-7.25042e-05
-7.25042e-05
-0.000131338
-0.000131338
-0.000224829
-0.000224829
-0.000300397
-0.000300397
-0.000436516
-0.000436516
-0.000514809
-0.000514809
-0.000601304
-0.000601304
-0.000800739
-0.000800739
-0.000952407
-0.000952407
-0.00100951
-0.00100951
-0.00119579
-0.00119579
-0.00153966
-0.00153966
-0.00169393
-0.00169393
-0.00187228
-0.00187228
-0.00231514
-0.00231514
-0.00273568
-0.00273568
-0.00321964
-0.00321964
-0.00390488
-0.00390488
-0.00506182
-0.00506182
-0.00621344
-0.00621344
-0.00849506
-0.00849506
-0.00990301
-0.00990301
-0.00485876
-0.00485876
0.00045331
0.00045331
-0.00134346
-0.00134346
-0.00188663
-0.00188663
-0.00147639
-0.00147639
-0.00148852
-0.00148852
-0.00141485
-0.00141485
-0.00198287
-0.00198287
-0.00291126
-0.00291126
-0.00349446
-0.00349446
-0.00410618
-0.00410618
-0.00468181
-0.00468181
-0.00508912
-0.00508912
-0.00520139
-0.00520139
-0.00508244
-0.00508244
-0.00483651
-0.00483651
-0.00445209
-0.00445209
-0.003978
-0.003978
-0.00344196
-0.00344196
-0.00294324
-0.00294324
-0.00246144
-0.00246144
-0.00208709
-0.00208709
-0.00191574
-0.00191574
-0.00174963
-0.00174963
-0.00100583
-0.00100583
-0.000932274
-0.000932274
-0.000808102
-0.000808102
-0.000619324
-0.000619324
-0.000515721
-0.000515721
-0.000445809
-0.000445809
-0.000299669
-0.000299669
-0.000235594
-0.000235594
-0.000130701
-0.000130701
-7.12185e-05
-7.12185e-05
-1.80818e-05
-1.80818e-05
4.82326e-05
4.82326e-05
9.18562e-05
9.18562e-05
0.000132681
0.000132681
0.000153895
0.000153895
0.000190927
0.000190927
0.000199302
0.000199302
0.000206329
0.000206329
0.000200392
0.000200392
0.00020677
0.00020677
0.000187225
0.000187225
0.000159499
0.000159499
0.000135389
0.000135389
9.02257e-05
9.02257e-05
4.56489e-05
4.56489e-05
-9.2664e-06
-9.2664e-06
-7.56157e-05
-7.56157e-05
-0.000143391
-0.000143391
-0.000226498
-0.000226498
-0.000315673
-0.000315673
-0.000419273
-0.000419273
-0.00052139
-0.00052139
-0.000640832
-0.000640832
-0.000770616
-0.000770616
-0.000940514
-0.000940514
-0.00121294
-0.00121294
-0.00172047
-0.00172047
-0.00191909
-0.00191909
-0.00208961
-0.00208961
-0.00246936
-0.00246936
-0.00294345
-0.00294345
-0.003476
-0.003476
-0.00403337
-0.00403337
-0.00450368
-0.00450368
-0.00489594
-0.00489594
-0.00514185
-0.00514185
-0.00521575
-0.00521575
-0.0050881
-0.0050881
-0.00475868
-0.00475868
-0.00405007
-0.00405007
-0.00332537
-0.00332537
-0.0025882
-0.0025882
-0.00204414
-0.00204414
-0.00172386
-0.00172386
-0.00129528
-0.00129528
-0.00133985
-0.00133985
-0.00148742
-0.00148742
-0.0012618
-0.0012618
-0.000495818
-0.000495818
-0.00405246
-0.00405246
-0.00926921
-0.00926921
-0.00920157
-0.00920157
-0.00677629
-0.00677629
-0.00480975
-0.00480975
-0.00409368
-0.00409368
-0.00308246
-0.00308246
-0.00268015
-0.00268015
-0.00241635
-0.00241635
-0.00193087
-0.00193087
-0.00162422
-0.00162422
-0.0015185
-0.0015185
-0.00127951
-0.00127951
      </DataArray> 
    </PointData>
    <CellData>
    </CellData>
  </Piece>
  </UnstructuredGrid>
</VTKFile>
