<?xml version="1.0"?>
<VTKFile type="UnstructuredGrid">
  <UnstructuredGrid>
  <Piece NumberOfPoints="3487"  NumberOfCells="1698">
    <Points>
      <DataArray type="Float64" NumberOfComponents="3" format="ascii">
39.9738 48.8263 0
60.0265 48.8259 0
40.6343 48.957 0
41.2964 49.0788 0
41.96 49.1916 0
42.625 49.2955 0
43.2913 49.3904 0
43.9587 49.4762 0
44.6273 49.5531 0
45.2968 49.621 0
45.9672 49.6798 0
46.6382 49.7296 0
47.3099 49.7703 0
47.9821 49.802 0
48.6546 49.8246 0
49.3273 49.8382 0
50.0002 49.8427 0
50.6731 49.8382 0
51.3458 49.8246 0
52.0183 49.8019 0
52.6905 49.7702 0
53.3622 49.7294 0
54.0332 49.6796 0
54.7036 49.6208 0
55.3731 49.5529 0
56.0416 49.476 0
56.7091 49.3901 0
57.3754 49.2952 0
58.0403 49.1913 0
58.7039 49.0785 0
59.366 48.9566 0
39.9974 49.842 0
39.9963 49.588 0
39.9919 49.3341 0
39.9844 49.0801 0
19.9554 69.8002 0
39.9952 50.1037 0
39.9895 50.3653 0
39.9753 50.7437 0
39.9539 51.1217 0
39.9103 51.6679 0
39.8517 52.2128 0
39.7405 52.998 0
39.5982 53.7781 0
39.3378 54.8956 0
39.0135 55.9965 0
38.7398 56.7804 0
38.4338 57.5524 0
38.0959 58.311 0
37.7268 59.055 0
37.1387 60.1029 0
36.4887 61.1137 0
35.7792 62.0836 0
-0.0234352 49.779 0
17.3453 69.6251 0
14.7803 69.1112 0
12.3042 68.2673 0
9.95925 67.1076 0
7.78565 65.652 0
11.5254 31.7596 0
0.180173 46.9599 0
0.780039 44.198 0
1.76432 41.5486 0
0 0 0
0.128205 3.71924 0
0.540653 7.42111 0
1.23247 11.0828 0
2.19919 14.6814 0
3.10324 17.3323 0
49.9999 -0.150328 0
5.1116 0 0
10.2232 0 0
15.3348 0 0
100 0 0
57.3971 -0.145625 0
64.7943 -0.128458 0
72.1881 -0.0925551 0
88.4749 31.7592 0
99.8718 3.71923 0
99.4594 7.42099 0
98.7676 11.0827 0
97.8009 14.6812 0
96.8969 17.3322 0
100.023 49.7788 0
99.8199 46.9597 0
99.22 44.1978 0
98.2357 41.5484 0
80.0445 69.7999 0
99.8554 52.3893 0
99.3477 54.9554 0
98.5091 57.4332 0
97.3541 59.7805 0
95.9027 61.9567 0
60.0028 49.8416 0
77.5337 69.6458 0
75.0619 69.1781 0
72.6684 68.4041 0
70.3908 67.336 0
68.9038 66.4348 0
67.5005 65.4079 0
66.1917 64.263 0
64.9873 63.0088 0
64.2208 62.0833 0
63.5113 61.1134 0
62.8613 60.1026 0
62.2733 59.0546 0
61.5663 57.5521 0
60.9866 55.9961 0
60.6624 54.8953 0
60.4019 53.7777 0
60.2596 52.9976 0
60.0039 49.5876 0
60.0083 49.3337 0
60.0158 49.0797 0
52.8193 30.0959 0
26.5276 36.9187 0
40.3319 24.221 0
24.9347 22.4873 0
71.9358 22.5152 0
72.7055 43.9787 0
54.8036 24.0454 0
15.3026 47.4441 0
38.3607 49.4551 0
23.6015 65.2732 0
7.69694 7.74335 0
91.9447 7.7218 0
29.1647 56.917 0
37.1839 51.9272 0
28.0885 47.225 0
29.7276 48.1861 0
71.5152 46.7095 0
30.986 49.0844 0
70.5147 48.1879 0
31.6358 45.6698 0
30.887 47.1261 0
70.0641 46.6974 0
68.9836 45.0201 0
31.2902 50.1798 0
30.9028 51.4036 0
28.1874 49.1829 0
45.3075 41.3006 0
53.8444 40.9218 0
56.0285 40.4707 0
73.1276 47.4655 0
70.1148 49.429 0
68.3332 42.448 0
32.3103 42.778 0
26.1364 45.7072 0
27.6766 44.7104 0
30.3036 43.3369 0
70.4139 42.6476 0
72.6769 45.9754 0
44.8483 43.0932 0
51.4308 41.9997 0
55.4105 42.5862 0
32.4497 49.1198 0
68.5555 49.6644 0
39.4757 42.0848 0
35.4384 43.4023 0
32.8942 46.5678 0
33.5768 48.3163 0
67.1042 48.2616 0
67.9829 46.4986 0
65.0742 43.0657 0
60.4205 41.7224 0
32.3666 51.4392 0
28.2154 51.0426 0
41.7763 37.3062 0
46.8226 37.711 0
52.0494 39.8842 0
58.6798 39.2538 0
26.6043 51.9407 0
24.2991 50.3752 0
74.228 49.981 0
71.1661 50.6818 0
69.1434 52.2616 0
67.9182 52.3944 0
59.7648 36.3733 0
66.5049 40.6925 0
34.1058 41.0689 0
36.0223 35.8043 0
23.183 47.204 0
21.6458 43.3051 0
28.3518 41.8198 0
74.3178 44.735 0
76.6374 48.5882 0
43.0534 43.6813 0
46.2681 42.967 0
49.968 43.0149 0
48.4325 42.7977 0
51.7633 44.0526 0
54.0888 44.1683 0
52.9063 44.4639 0
56.2734 43.7171 0
33.8811 49.412 0
33.7819 50.9261 0
66.5376 51.7421 0
66.5961 49.7503 0
41.831 43.9189 0
40.7017 43.6566 0
38.4592 43.2643 0
37.1409 43.87 0
35.3455 45.5792 0
34.3255 46.8597 0
66.0238 46.5839 0
65.0194 45.3095 0
63.1912 43.5539 0
61.7056 43.1041 0
58.8796 43.5171 0
57.5399 43.8331 0
33.3945 52.1501 0
29.1653 53.764 0
40.8317 31.0277 0
50.8855 36.0249 0
55.6691 34.3069 0
23.559 53.4902 0
76.9194 51.9584 0
70.2394 53.3701 0
66.4083 52.9837 0
65.4759 35.1887 0
30.9491 34.6059 0
19.4458 47.3277 0
26.1264 40.056 0
72.0065 34.1261 0
72.0545 41.4076 0
77.4852 45.3401 0
43.1665 45.1235 0
45.809 44.7596 0
48.7646 44.8506 0
51.4434 45.4792 0
53.7691 45.5949 0
56.2183 45.4154 0
34.9091 50.1227 0
65.0862 50.3392 0
40.8146 45.0988 0
38.3668 45.442 0
36.0284 47.328 0
64.1404 47.0729 0
61.6503 45.3488 0
58.8249 45.2153 0
36.0669 52.397 0
34.9158 53.1609 0
33.5005 53.6738 0
31.8999 55.4675 0
26.0911 58.9408 0
22.9945 57.3465 0
32.3946 22.726 0
47.0362 26.714 0
63.1403 23.0722 0
19.9873 55.0566 0
80.1906 54.3218 0
75.8029 55.8278 0
71.94 56.1778 0
69.0929 55.4966 0
65.7758 53.9923 0
64.0999 53.8356 0
68.1561 29.0276 0
26.7737 30.1153 0
17.2369 51.7882 0
14.5996 42.4829 0
22.3998 34.0948 0
84.8964 46.9055 0
84.7227 52.0616 0
75.1714 37.9662 0
81.2137 43.977 0
42.4561 46.4542 0
41.4155 46.2627 0
44.9652 46.2995 0
43.6788 46.2165 0
47.736 46.2408 0
46.3853 46.1733 0
50.62 46.5541 0
49.2719 46.458 0
53.0508 46.9492 0
51.7632 46.9655 0
55.5134 46.5616 0
54.2335 46.6536 0
58.0618 46.5156 0
56.7803 46.6777 0
36.3729 48.6507 0
36.0261 49.6527 0
35.9268 51.1672 0
63.3865 52.101 0
63.83 51.0882 0
63.8886 49.0959 0
63.8375 48.1928 0
40.286 46.0002 0
39.3703 46.18 0
38.0517 46.7854 0
37.3931 47.3701 0
62.833 46.9182 0
62.0173 46.5932 0
60.5315 46.1437 0
59.4018 46.1993 0
38.0582 52.5972 0
36.1728 53.9211 0
34.07 56.784 0
29.5925 59.8559 0
22.8665 61.407 0
21.7383 15.4307 0
39.9645 16.2464 0
48.901 11.531 0
56.9434 16.9779 0
76.6453 15.6698 0
15.6294 57.1068 0
84.5294 57.5423 0
73.4174 59.5224 0
66.5239 55.6532 0
62.4587 53.6054 0
82.9396 7.84564 0
79.7428 22.6306 0
16.3087 7.92679 0
18.3475 22.3448 0
10.7163 46.8077 0
16.5796 36.0339 0
15.5217 30.4322 0
89.4107 49.6849 0
83.3111 31.2769 0
81.5762 39.3314 0
41.9277 47.3558 0
44.255 47.6303 0
46.8925 47.7808 0
49.5915 47.9443 0
52.2274 48.0242 0
54.7952 47.916 0
57.357 47.6619 0
37.3908 49.6951 0
37.9183 51.3671 0
62.1888 50.8576 0
62.581 48.9415 0
39.9711 47.3441 0
38.3965 48.1084 0
38.5116 48.8784 0
61.7652 48.577 0
61.7141 47.7135 0
59.7686 47.4443 0
38.8881 51.1274 0
61.349 51.0619 0
39.1954 52.9076 0
38.4611 53.4676 0
38.1688 54.5767 0
37.0177 55.3404 0
36.5134 57.1139 0
34.8651 58.6368 0
33.3576 60.4944 0
30.741 62.6052 0
27.9808 64.7572 0
27.1693 7.84721 0
38.6562 8.38172 0
59.8765 8.60675 0
71.7666 7.92915 0
19.2271 64.7187 0
14.9306 62.9854 0
10.7312 60.1979 0
6.28391 57.1547 0
5.99324 51.2218 0
94.2405 52.3191 0
93.3254 57.3733 0
89.3412 60.7175 0
84.589 63.2291 0
79.4818 64.9003 0
74.5831 63.9326 0
70.275 62.6506 0
66.838 61.1964 0
65.2232 58.5241 0
62.7226 57.1972 0
62.0793 55.668 0
61.787 54.5589 0
61.0736 52.824 0
93.4912 14.5541 0
89.7945 20.7331 0
86.1093 25.0874 0
6.25527 14.5469 0
13.0101 24.5507 0
9.7904 20.7221 0
5.7564 45.6539 0
5.65219 40.7105 0
12.303 34.7648 0
94.233 47.2001 0
88.1195 37.1144 0
93.3612 42.471 0
41.0915 48.1215 0
40.4305 47.9952 0
42.1325 48.3131 0
43.4635 48.5117 0
42.7967 48.4214 0
44.7501 48.5948 0
46.0898 48.7214 0
45.4191 48.6671 0
47.4408 48.7889 0
48.7853 48.8432 0
48.1127 48.8251 0
50.1335 48.9393 0
51.479 48.9211 0
50.8064 48.9393 0
52.7667 48.9049 0
54.1093 48.8143 0
53.4386 48.8687 0
55.3895 48.7224 0
56.7253 48.5596 0
56.0585 48.65 0
58.0072 48.3974 0
59.3325 48.1628 0
58.6714 48.2891 0
39.3733 51.5795 0
39.3222 52.125 0
60.9469 52.0414 0
60.8958 51.4959 0
38.0137 50.4574 0
39.1345 49.6407 0
61.7924 50.0489 0
61.8164 49.4803 0
60.9766 49.6845 0
39.5145 48.1749 0
39.1705 48.2938 0
60.9493 48.2522 0
60.4624 48.1071 0
39.4687 50.6695 0
60.4994 50.6872 0
39.4905 50.0297 0
39.4865 50.2913 0
60.4816 50.309 0
60.4777 50.0474 0
39.6415 49.4529 0
39.6296 48.9451 0
39.6387 49.1989 0
60.5016 49.4786 0
60.5044 49.2247 0
60.5135 48.9709 0
61.0006 49.1158 0
39.2855 49.064 0
60.9527 50.2532 0
38.9835 50.2175 0
60.8984 47.3885 0
39.0552 47.5237 0
62.6323 49.8447 0
37.0438 50.6973 0
61.7454 51.8706 0
38.7926 52.0372 0
58.6387 47.4997 0
56.0753 47.824 0
53.5151 48.0079 0
50.9397 48.0404 0
48.2434 47.8482 0
45.5415 47.7133 0
42.9684 47.5473 0
40.8869 47.1642 0
89.1552 44.8371 0
10.9238 40.9633 0
13.2812 16.1947 0
85.8811 16.4039 0
63.1722 55.3402 0
68.9214 58.5115 0
78.9486 59.9126 0
89.2953 54.9691 0
11.7665 52.916 0
19.2293 59.74 0
66.7145 15.7917 0
30.7566 15.5096 0
26.352 62.1789 0
32.1584 58.0257 0
35.0217 54.685 0
37.3238 53.1573 0
62.53 48.0383 0
37.7377 48.6929 0
75.9454 28.7187 0
20.5079 28.626 0
47.9144 19.3329 0
60.1647 44.899 0
63.1361 45.7982 0
37.0482 46.0473 0
39.6852 44.8363 0
65.145 48.3473 0
65.0278 52.3314 0
34.8098 51.6371 0
35.0082 48.6085 0
57.4851 45.5314 0
54.9516 45.2993 0
52.5866 45.8905 0
50.3003 45.0678 0
47.2289 44.6334 0
44.389 44.8858 0
41.944 45.3611 0
74.3462 42.7387 0
80.2655 48.9303 0
17.996 43.384 0
21.3107 50.8414 0
34.4384 29.7472 0
59.9878 30.2999 0
67.7889 53.636 0
73.4019 53.0762 0
54.4626 38.8064 0
46.5075 32.9618 0
26.2337 55.4465 0
31.9791 52.6631 0
69.7637 40.0758 0
30.978 40.4455 0
57.5948 42.1349 0
63.2464 41.3097 0
66.9027 44.8209 0
33.6427 45.1112 0
37.2334 41.6927 0
41.718 42.4768 0
68.0475 51.153 0
32.754 50.2154 0
53.226 43.0373 0
49.6358 40.9621 0
74.2894 46.7315 0
25.7246 43.1933 0
71.9659 48.1998 0
26.5483 48.2217 0
69.0636 48.1761 0
32.1454 48.0243 0
71.0647 45.2191 0
29.6286 46.2281 0
29.8264 50.1444 0
88.1574 34.4515 0
96.8865 39.0653 0
91.3021 35.8213 0
92.2291 38.6865 0
96.0832 37.9018 0
88.4963 40.8545 0
3.11354 39.0655 0
11.8669 33.2208 0
10.0014 35.098 0
3.91694 37.902 0
8.3174 37.604 0
11.6909 37.109 0
11.4 22.637 0
10.9841 26.4983 0
9.37407 24.5862 0
11.8603 28.9893 0
4.15576 19.9271 0
5.35347 22.4572 0
8.24028 22.8168 0
11.5353 18.4576 0
13.1448 20.3731 0
8.02224 17.6358 0
6.97252 20.3249 0
5.20471 17.236 0
6.69228 24.9144 0
7.78877 26.7082 0
4.22695 14.6143 0
9.76754 15.3717 0
87.9521 22.9107 0
90.4185 24.5913 0
88.5757 26.7656 0
91.5523 22.8221 0
95.8443 19.9269 0
94.6466 22.457 0
87.7219 29.3061 0
85.9961 20.7461 0
87.8382 18.5677 0
91.6435 17.645 0
94.6686 17.2394 0
92.8201 20.3304 0
95.6463 14.6178 0
93.3077 24.9142 0
92.2112 26.708 0
89.6869 15.48 0
65.8221 8.26181 0
62.3318 4.23783 0
68.2797 3.89762 0
54.9415 4.22517 0
79.5536 0 0
84.6652 0 0
75.6599 3.95459 0
69.2398 11.8586 0
63.2953 12.199 0
32.9124 8.10813 0
31.1883 3.856 0
36.9341 4.12591 0
23.8081 3.91553 0
20.4464 0 0
27.8122 -0.0922196 0
44.3243 4.11184 0
34.7071 11.9455 0
28.9635 11.6772 0
81.6602 35.1407 0
85.4313 34.6372 0
85.0556 38.224 0
86.3013 31.6865 0
85.0271 42.3052 0
77.298 34.0748 0
80.0392 31.2495 0
16.0553 32.9532 0
14.1022 35.3648 0
13.9107 32.9054 0
14.1597 38.5939 0
13.5227 31.0979 0
17.6107 30.0817 0
18.7426 33.0517 0
16.5173 27.3972 0
14.1 28.3564 0
15.6788 23.447 0
15.8143 19.2694 0
19.4287 25.4843 0
81.6229 27.3317 0
82.926 23.8584 0
84.8596 28.7444 0
82.8116 19.5162 0
77.8428 25.6732 0
79.7919 11.7562 0
74.2041 11.8032 0
77.3496 7.89325 0
71.6781 15.7296 0
81.2481 3.9206 0
84.4109 12.1241 0
81.2625 16.0374 0
52.9228 14.2533 0
54.388 10.0659 0
58.4088 12.792 0
49.4501 5.6897 0
61.8286 16.3824 0
52.4286 18.1538 0
48.4077 15.4321 0
44.4323 13.8874 0
39.3114 12.314 0
43.7794 9.95363 0
35.3611 15.8757 0
43.9398 17.7882 0
19.0236 11.678 0
21.7417 7.89384 0
24.4555 11.6429 0
18.3761 3.96099 0
26.2492 15.4698 0
17.5101 15.8132 0
14.7944 12.06 0
74.6522 34.1005 0
78.7653 37.5151 0
78.1011 41.1087 0
74.7587 40.3522 0
21.4551 31.3599 0
19.3658 36.7862 0
17.0652 39.6061 0
19.7385 40.4095 0
73.9753 31.4217 0
73.5885 36.0465 0
72.4675 39.0207 0
70.8849 37.1005 0
68.741 34.6571 0
66.8157 32.1075 0
70.0807 31.5774 0
62.7314 32.7446 0
64.0716 29.6631 0
72.0504 28.8732 0
67.6192 37.6328 0
32.6941 32.1769 0
35.2306 32.7754 0
33.4858 35.2049 0
33.5008 38.1255 0
36.6279 38.7482 0
30.9639 37.5257 0
59.8762 33.3365 0
62.6202 35.7808 0
64.3611 38.2488 0
61.5052 38.8418 0
57.8285 32.303 0
57.7168 35.3401 0
57.1138 37.5897 0
55.0659 36.5565 0
46.6651 35.3363 0
48.6964 34.4932 0
48.8542 36.8679 0
50.2607 38.4935 0
52.6739 37.4156 0
48.2291 39.3365 0
38.8994 36.5551 0
38.4274 33.4163 0
41.3041 34.1668 0
37.6352 30.387 0
43.6696 31.9945 0
44.1422 35.1341 0
39.5053 39.4998 0
44.2995 37.5086 0
46.0652 39.5058 0
43.5128 41.8888 0
47.4717 41.1314 0
43.5418 39.3033 0
41.7473 39.8914 0
90.8623 3.8607 0
87.4429 7.78545 0
86.3631 3.92729 0
88.915 12.0656 0
89.7768 0 0
94.8884 0 0
95.9756 3.86282 0
96.4771 10.9906 0
92.7189 11.1374 0
95.7022 7.57269 0
91.0395 28.452 0
90.4252 29.3039 0
4.11865 7.58346 0
6.97514 11.1446 0
3.39617 10.9869 0
10.4871 11.9716 0
8.96061 28.4524 0
9.5748 29.3044 0
3.84532 3.87344 0
13.2613 3.96729 0
12.0021 7.83656 0
8.95858 3.87138 0
35.2055 -0.128261 0
42.6027 -0.145478 0
58.9717 23.5578 0
55.8732 20.5116 0
60.0416 20.0252 0
51.3591 21.6886 0
64.9269 19.4312 0
61.5637 26.6857 0
57.3954 27.173 0
67.5373 22.7929 0
70.0452 25.7704 0
65.6478 26.0506 0
73.9404 25.6178 0
69.3247 19.155 0
78.1945 19.1508 0
75.8384 22.5728 0
74.2896 19.0904 0
23.3371 18.9574 0
21.6418 22.4158 0
20.0424 18.8882 0
22.7212 25.5575 0
27.8461 19.0005 0
29.5846 26.4219 0
25.8552 26.3005 0
28.6654 22.6064 0
23.6411 29.3705 0
31.5759 19.1175 0
33.4169 26.2363 0
30.6063 29.9312 0
40.582 27.6245 0
43.6842 25.4669 0
43.9342 28.871 0
44.1232 21.7766 0
47.4754 23.0237 0
46.772 29.8381 0
37.3856 26.9847 0
36.18 19.4867 0
40.1486 20.2339 0
36.3637 23.4724 0
26.6515 33.5169 0
24.4637 35.5064 0
24.5873 32.1057 0
22.5889 39.0679 0
28.8617 32.3599 0
28.7387 35.7626 0
28.7527 38.6816 0
51.8525 33.0603 0
54.2441 32.2013 0
53.2773 35.1658 0
56.4035 30.1975 0
49.6636 31.5286 0
50.9199 25.379 0
53.8114 27.0707 0
49.9277 28.4048 0
6.559 37.2009 0
6.98455 39.1565 0
5.22588 38.7549 0
9.62 39.2846 0
8.28741 40.8369 0
4.3827 39.8879 0
4.80091 36.7987 0
5.76126 35.7612 0
7.5544 36.2 0
10.8457 36.1044 0
10.0037 37.3565 0
9.15905 36.3502 0
11.3069 39.0355 0
8.39695 34.9455 0
11.1518 34.9319 0
11.9966 35.9364 0
11.6923 30.3774 0
10.2072 30.142 0
11.0329 29.564 0
12.4345 26.7703 0
10.4099 28.7205 0
10.8568 30.9624 0
89.7929 30.1413 0
88.0985 30.5349 0
88.7584 29.7216 0
89.3814 28.8784 0
86.9163 27.197 0
89.1437 30.9618 0
85.8659 33.1616 0
87.2273 33.0713 0
86.794 34.546 0
87.388 31.7239 0
88.317 33.1043 0
88.1387 35.7825 0
86.7754 35.8767 0
84.3696 32.958 0
84.8063 31.4819 0
86.7763 39.5395 0
86.7617 41.5805 0
85.0417 40.2642 0
88.826 42.8454 0
87.0914 43.5711 0
83.3016 40.8188 0
83.3158 38.7781 0
86.5876 37.6702 0
88.3083 38.9839 0
79.4788 34.6081 0
78.6684 32.6619 0
80.8487 33.1954 0
76.6209 31.3968 0
77.9922 29.9844 0
81.6753 31.2633 0
82.485 33.2085 0
81.6182 37.2359 0
80.2129 36.3277 0
14.1306 36.9789 0
12.9252 37.8521 0
12.8964 36.2374 0
12.5414 39.7786 0
13.2026 35.0654 0
15.341 35.6997 0
15.3698 37.3145 0
12.8893 33.0645 0
12.6976 32.1617 0
13.7175 32.0016 0
11.6961 32.4899 0
12.5243 31.43 0
14.5221 30.7652 0
14.7174 31.6693 0
13.1074 33.8363 0
12.0848 33.9925 0
16.8338 31.5177 0
18.1773 31.5665 0
17.3989 33.0026 0
19.0593 29.354 0
19.6261 30.839 0
17.6619 34.5434 0
16.3176 34.4935 0
15.7893 31.6926 0
16.5661 30.257 0
13.8116 29.7273 0
12.6927 30.0416 0
12.9802 28.6717 0
13.5548 26.4537 0
14.8115 29.3936 0
16.0197 28.9148 0
17.0646 28.7391 0
18.5131 28.0112 0
17.4321 24.8713 0
86.2905 29.024 0
87.0096 30.4944 0
85.5799 30.2157 0
84.0845 30.0101 0
85.4844 26.9155 0
82.4665 29.3044 0
80.8301 29.2902 0
80.683 24.9813 0
78.7836 28.0248 0
80.1705 38.4236 0
79.8386 40.2201 0
78.4332 39.3118 0
76.6359 39.5378 0
76.2236 41.9236 0
76.9683 37.7407 0
15.6125 39.1004 0
15.8323 41.0446 0
14.3793 40.538 0
17.5304 41.4948 0
16.2979 42.9338 0
12.7616 41.7237 0
16.8222 37.8198 0
19.5521 38.5977 0
18.4019 40.008 0
18.2157 38.1966 0
18.8673 41.8968 0
17.9727 36.4102 0
20.8833 35.4409 0
20.9773 37.9269 0
20.6921 41.8571 0
21.1639 39.7389 0
24.5586 37.9936 0
22.4948 36.5813 0
19.821 43.3448 0
22.1175 41.1865 0
24.1566 41.1302 0
23.6854 43.2493 0
79.6572 42.5432 0
79.3494 44.6586 0
77.7932 43.2242 0
80.7397 46.4533 0
78.8754 47.1353 0
75.9155 44.0396 0
81.3951 41.6538 0
90.3632 39.7715 0
92.7955 40.5785 0
90.9292 41.6623 0
94.5579 38.8748 0
95.1244 40.7684 0
91.2586 43.6546 0
90.1749 37.8999 0
93.2507 36.3085 0
93.7145 37.7425 0
91.7659 37.2537 0
95.1992 36.7986 0
89.7115 36.469 0
92.2548 35.3079 0
94.239 35.7611 0
89.5554 33.7767 0
91.1272 34.4596 0
89.7303 35.1355 0
93.2071 34.7948 0
92.1088 33.9051 0
93.7974 44.8353 0
96.2909 43.3331 0
96.7269 45.6989 0
90.9492 33.0972 0
89.7365 32.3784 0
97.1285 48.4884 0
91.6945 46.018 0
10.4573 33.159 0
10.9334 34.1577 0
9.52464 34.0986 0
6.79293 34.795 0
7.89129 33.9052 0
5.70382 43.1823 0
3.26798 44.9256 0
3.21585 42.453 0
2.86611 47.715 0
9.0504 33.0972 0
10.2641 32.3782 0
8.33941 43.3069 0
66.0306 59.8603 0
65.1746 61.1548 0
64.3672 59.8186 0
65.9126 62.1025 0
60.1484 52.2124 0
60.0898 51.6675 0
63.7482 58.7892 0
67.0722 58.5177 0
67.8796 59.8538 0
68.5565 61.9235 0
68.8877 64.029 0
67.1692 63.302 0
70.3329 64.9931 0
60.0462 51.1213 0
60.0248 50.7432 0
69.5982 60.5809 0
77.0325 64.4163 0
77.2716 67.0388 0
74.8225 66.5551 0
79.7632 67.3498 0
60.0106 50.3649 0
60.005 50.1033 0
72.4867 65.634 0
76.7656 61.9223 0
79.2153 62.4062 0
82.0353 64.0646 0
84.9044 66.1697 0
82.3511 67.0052 0
87.3152 65.1677 0
94.1796 63.9251 0
92.2143 65.6518 0
81.7691 61.5706 0
91.3333 59.0454 0
93.7526 60.6488 0
91.7606 62.3208 0
95.3399 58.5765 0
90.0407 67.1074 0
87.6958 68.267 0
89.691 63.912 0
89.3183 57.8429 0
91.3105 56.1709 0
93.783 54.8462 0
96.7943 53.6366 0
96.3367 56.1642 0
97.1322 51.0488 0
85.2197 69.111 0
82.6546 69.6249 0
91.768 53.6442 0
6.13846 54.1881 0
3.46799 56.0549 0
3.32247 53.0878 0
4.46475 58.4673 0
5.82044 63.9253 0
4.09732 61.9569 0
2.98465 50.5 0
8.87971 52.069 0
9.02483 55.0345 0
8.50758 58.6763 0
8.27554 62.0611 0
6.05209 60.5396 0
10.3451 63.6523 0
2.64589 59.7807 0
1.49088 57.4334 0
11.2487 56.5563 0
17.0789 63.8519 0
17.0034 66.9146 0
14.8554 66.0479 0
19.5913 67.2592 0
0.65233 54.9556 0
0.144592 52.3894 0
12.4446 65.046 0
17.0797 61.3625 0
19.2282 62.2291 0
29.3609 63.6811 0
31.6203 64.0065 0
30.2403 65.0825 0
32.877 62.807 0
35.0127 63.0092 0
33.8083 64.2634 0
28.7951 66.0466 0
27.1665 63.4679 0
28.5466 62.3919 0
34.1113 59.5656 0
35.677 59.8752 0
34.9232 60.804 0
36.296 58.8458 0
32.4995 65.4082 0
31.0962 66.4351 0
34.1852 61.7517 0
32.758 59.26 0
33.5118 58.3312 0
29.6092 67.3363 0
37.1201 58.0844 0
37.4736 57.3331 0
37.7635 56.5552 0
35.7676 55.8993 0
27.3316 68.4044 0
83.5456 34.8894 0
85.2439 36.4302 0
83.3572 36.6835 0
91.8259 51.0015 0
91.8221 48.4428 0
94.2369 49.7595 0
89.2831 47.2607 0
89.3531 52.3267 0
15.0796 34.1599 0
14.0064 34.135 0
14.983 32.9295 0
8.35437 49.0138 0
5.87457 48.4378 0
8.23607 46.2309 0
10.8197 43.8849 0
11.2413 49.8616 0
15.3087 27.8767 0
14.7642 25.9729 0
83.2413 28.0381 0
83.8651 26.2081 0
67.7227 57.0824 0
65.8735 57.0885 0
64.1977 56.9322 0
64.848 55.4966 0
74.0003 61.7273 0
72.4291 63.2915 0
71.8461 61.0862 0
71.1694 59.0169 0
76.183 59.7174 0
86.9356 59.1295 0
86.965 61.9732 0
84.5592 60.3853 0
81.7389 58.7274 0
86.9123 56.2557 0
15.2799 60.0457 0
12.831 61.5916 0
13.1801 58.652 0
13.6981 55.0114 0
17.4295 58.4234 0
31.4751 60.1751 0
32.0493 61.5498 0
30.1668 61.2304 0
27.9722 61.0174 0
30.8754 58.9408 0
35.2917 56.9489 0
35.6892 57.8754 0
34.4676 57.7104 0
33.1142 57.4049 0
34.5458 55.7345 0
78.0313 35.7952 0
76.2346 36.0202 0
84.8097 49.4832 0
87.1539 48.295 0
87.0667 50.8735 0
87.0259 45.8718 0
87.0092 53.5151 0
82.4943 50.496 0
82.5809 47.9182 0
19.0545 34.9189 0
20.5712 33.5732 0
69.0071 57.0039 0
67.8084 55.5748 0
67.1564 54.6445 0
68.4409 54.5663 0
73.8714 56.0028 0
74.61 57.6749 0
72.6787 57.85 0
77.3759 57.8701 0
70.4306 57.3445 0
72.6709 54.6269 0
74.6024 54.452 0
82.4566 53.1918 0
84.6261 54.8016 0
82.3602 55.9319 0
79.5696 57.1168 0
80.2281 51.6257 0
18.6122 53.4223 0
17.8083 56.0816 0
16.433 54.4471 0
19.6083 57.398 0
14.5016 52.3521 0
19.2738 51.3149 0
20.649 52.9488 0
24.5429 58.1436 0
24.4788 60.1739 0
22.9305 59.3766 0
26.2216 60.5598 0
24.6093 61.7929 0
21.048 60.5734 0
21.1118 58.5432 0
24.6141 56.3965 0
26.1624 57.1936 0
32.0292 56.7465 0
32.985 56.1257 0
33.4609 55.0762 0
31.9396 54.0652 0
84.962 44.605 0
83.0552 45.4414 0
83.1203 43.1414 0
71.0897 54.774 0
70.5165 55.8372 0
69.6662 54.4332 0
69.0142 53.503 0
71.8206 53.2231 0
78.5551 53.1402 0
77.9967 55.0748 0
76.3611 53.8929 0
75.1606 52.5173 0
78.5924 50.4443 0
23.2768 55.4182 0
21.491 56.2015 0
21.7732 54.2734 0
22.4349 52.1657 0
24.8964 54.4683 0
78.4514 48.7594 0
77.0613 46.964 0
75.8873 46.0358 0
75.4634 47.6599 0
22.4144 45.2543 0
21.3145 47.266 0
20.5458 45.3164 0
22.2469 49.0227 0
20.3783 49.0844 0
18.7208 45.3556 0
24.454 45.1988 0
72.284 51.879 0
70.7028 52.0258 0
69.6068 50.9173 0
71.566 49.4407 0
75.4327 49.2846 0
76.7784 50.2732 0
75.5737 50.9698 0
73.8149 51.5285 0
74.2587 48.3562 0
25.4518 51.1579 0
25.0817 52.7155 0
23.9291 51.9326 0
26.419 53.6935 0
22.8049 50.6084 0
25.4237 49.2985 0
26.5763 50.0811 0
27.6995 54.6053 0
27.8849 52.8523 0
29.4959 51.9541 0
30.5723 53.2136 0
23.7411 48.7894 0
24.8657 47.7128 0
72.697 50.3314 0
73.0969 49.0905 0
27.6279 57.9289 0
29.3786 58.3864 0
27.8419 59.3983 0
30.6616 57.4712 0
27.6993 56.1816 0
30.5327 54.6156 0
30.5323 56.1922 0
29.165 55.3404 0
23.2341 63.3399 0
21.4144 64.9959 0
21.0467 63.0627 0
21.7783 67.5365 0
24.9767 63.726 0
26.4593 66.9676 0
24.2698 67.2256 0
25.7912 65.0151 0
24.938 69.1784 0
22.4663 69.6461 0
14.9509 44.9631 0
13.0094 47.1262 0
12.6575 44.6447 0
13.5342 50.1794 0
16.6491 45.4139 0
18.3412 49.5577 0
16.2698 49.616 0
17.3742 47.3862 0
58.4041 8.30965 0
60.0087 10.2271 0
79.5441 20.3128 0
77.0501 20.5089 0
69.2542 14.022 0
67.6019 15.8907 0
37.1835 13.4124 0
34.8372 12.5574 0
72.2316 44.6056 0
70.3991 42.9053 0
36.701 22.1465 0
37.2991 24.5711 0
46.0447 8.29566 0
45.1566 10.6328 0
1.85107 10.4279 0
4.05574 9.24653 0
16.1421 4.00506 0
14.3622 2.25921 0
37.8014 13.4836 0
37.7681 10.9847 0
72.2694 1.20656 0
69.8047 1.6113 0
65.3777 25.1417 0
65.8346 22.6873 0
17.0813 0.163441 0
19.0992 1.6294 0
30.7686 0.443596 0
29.0264 2.23863 0
20.1546 29.0364 0
18.0293 27.7253 0
87.229 22.937 0
89.7063 23.301 0
80.4478 11.9122 0
79.0343 9.85292 0
53.4976 14.441 0
52.9712 16.8847 0
79.8793 20.7207 0
77.3776 20.6709 0
95.4252 2.47106 0
96.8308 4.53671 0
40.4054 38.5014 0
38.1976 39.6726 0
34.3644 27.1597 0
35.0258 29.567 0
88.3822 30.5399 0
87.76 28.1324 0
42.4414 32.0269 0
44.3219 30.3815 0
26.0669 12.9289 0
26.9027 10.5746 0
40.5521 37.5766 0
42.7825 36.4499 0
65.9219 38.7506 0
67.4495 40.7286 0
21.656 36.6256 0
24.1478 36.8257 0
87.3002 18.0392 0
88.9246 16.1477 0
31.3005 10.0283 0
28.8672 10.6045 0
60.2786 8.36795 0
61.5816 10.5022 0
62.4211 9.4412 0
60.9671 7.4067 0
18.7621 7.00231 0
18.1819 9.42481 0
63.0465 43.907 0
62.3516 46.307 0
84.2954 25.8992 0
83.6098 28.2928 0
47.3524 44.35 0
49.2161 42.6844 0
30.735 4.8543 0
33.1074 5.63578 0
37.1964 2.37351 0
36.9053 -0.10872 0
39.5256 0.618309 0
37.8546 2.47845 0
66.8619 34.6049 0
64.6033 35.6707 0
25.2301 21.4083 0
23.6574 23.3491 0
89.234 30.2722 0
86.9715 29.2011 0
74.2901 10.1137 0
76.6679 9.35143 0
80.3529 12.8424 0
81.7561 14.9081 0
81.1003 16.9889 0
80.1894 19.3067 0
78.4157 10.7882 0
79.7602 12.8927 0
67.6782 27.5628 0
65.1822 27.4531 0
62.4374 24.9744 0
60.0077 24.3927 0
61.7279 24.799 0
62.4984 27.1762 0
69.5229 32.9557 0
67.0364 32.7071 0
82.5803 12.5344 0
85.022 13.0926 0
51.459 18.2441 0
53.5397 19.6271 0
66.9948 16.0674 0
65.1697 14.3575 0
20.0163 22.4668 0
20.4715 20.0167 0
53.0651 24.1388 0
52.9568 21.6414 0
62.0836 34.0305 0
64.0489 35.5744 0
67.9544 28.3257 0
69.9204 26.7878 0
27.3479 19.4433 0
25.4202 17.8594 0
43.3848 4.05519 0
43.918 1.61305 0
90.219 10.3067 0
88.4221 8.57009 0
67.9698 36.8769 0
68.6528 34.476 0
9.53167 8.21586 0
11.987 7.73055 0
49.9622 6.65382 0
52.3372 7.43476 0
81.151 29.2701 0
83.0928 27.7015 0
43.1375 20.0965 0
45.5313 20.8079 0
73.0283 25.6245 0
75.252 24.4882 0
59.3139 18.6485 0
57.0677 19.7397 0
94.8229 14.9208 0
92.4033 14.2813 0
8.74889 19.5125 0
11.2085 19.0448 0
17.4481 22.8192 0
15.7899 20.9565 0
16.937 36.5685 0
18.1424 34.3832 0
59.7845 42.0664 0
57.5911 43.2631 0
84.616 20.4686 0
84.6662 22.9578 0
9.90341 20.1308 0
7.80188 21.4895 0
16.828 30.1247 0
15.2016 32.0166 0
46.6533 3.52827 0
48.106 5.56284 0
57.7872 40.4795 0
55.748 41.9231 0
67.5252 37.1696 0
69.5976 38.5674 0
68.3642 7.6259 0
70.2496 5.99023 0
24.7958 8.60781 0
27.2212 9.2019 0
16.121 15.5673 0
15.2166 17.8908 0
96.9744 4.65555 0
94.5039 5.04261 0
25.2175 33.9628 0
26.0344 31.6038 0
16.8111 15.768 0
17.9346 17.9908 0
86.893 15.7357 0
88.5979 13.9153 0
26.9698 36.5335 0
28.2468 38.6772 0
45.0552 37.1984 0
42.7587 38.1831 0
25.9723 33.8136 0
28.4501 33.4838 0
70.5591 16.0637 0
72.5301 17.6039 0
49.8255 47.8042 0
50.9705 45.5821 0
82.771 18.4305 0
81.091 16.5809 0
12.4159 5.6183 0
9.99123 5.00949 0
18.3007 2.67301 0
20.5317 1.53945 0
98.8932 4.27675 0
97.6964 6.46592 0
80.3049 37.5516 0
80.8996 35.1316 0
48.5368 3.72429 0
48.4443 1.22657 0
46.0846 5.38958 0
43.9284 6.65552 0
61.1136 38.1848 0
59.0253 39.5556 0
81.2072 11.1634 0
81.79 8.74501 0
79.3386 30.5721 0
77.0109 31.4769 0
52.3971 8.24639 0
50.9319 6.22083 0
25.8831 30.0952 0
23.7487 28.8001 0
94.5602 17.4921 0
96.8389 16.467 0
29.5582 32.2367 0
31.8668 33.189 0
65.8273 4.50344 0
65.8089 7.00286 0
53.2562 2.02727 0
51.4511 3.7576 0
14.5769 9.09975 0
15.1069 6.66609 0
7.22156 18.8923 0
5.02802 17.6978 0
61.2193 40.4697 0
59.8997 42.5911 0
74.215 7.37021 0
73.8011 4.90656 0
23.563 30.4153 0
23.8039 27.9328 0
78.8073 6.95556 0
76.6492 5.68463 0
79.0474 11.3614 0
81.1626 12.6997 0
7.64028 2.5393 0
5.1406 2.61028 0
76.4609 16.0563 0
74.4784 14.5295 0
47.9012 9.46263 0
49.6883 11.2101 0
80.0433 2.05213 0
82.5007 1.594 0
29.1595 30.064 0
27.2047 28.512 0
70.9871 16.4692 0
71.5387 14.0374 0
4.5292 13.5958 0
6.48636 12.0392 0
40.5664 0.317372 0
39.5258 2.59017 0
60.4163 12.4917 0
59.846 14.9245 0
41.2097 3.66006 0
39.1713 5.1087 0
33.6396 29.5738 0
36.1307 29.7592 0
33.1806 21.078 0
32.9624 18.5908 0
79.6085 15.63 0
80.1646 18.0597 0
72.6744 34.8344 0
70.5397 33.5337 0
56.731 8.38761 0
54.3227 7.71788 0
44.5352 9.01619 0
43.2039 11.1324 0
82.5756 16.5914 0
83.6854 14.362 0
11.5884 0.313197 0
10.6963 2.64331 0
78.0262 16.2152 0
80.0578 17.6748 0
59.4256 3.12001 0
60.7516 5.23967 0
72.2814 1.33436 0
72.1957 3.83161 0
66.8086 2.77992 0
68.0882 0.629009 0
13.3345 3.77752 0
15.153 2.06447 0
71.9852 26.6536 0
74.4423 27.1131 0
16.8377 17.56 0
15.4265 19.6192 0
72.2224 38.4431 0
72.1492 35.9484 0
43.4755 20.8829 0
41.2114 21.9396 0
57.2648 19.353 0
57.531 21.8383 0
64.6946 28.8991 0
67.1779 28.6297 0
24.6403 32.0021 0
27.0463 31.3244 0
50.1168 28.8898 0
49.1076 31.1759 0
59.8146 37.2901 0
58.5495 35.1347 0
22.4308 29.171 0
24.8463 28.5282 0
39.6915 36.0063 0
37.2407 36.4928 0
5.91079 10.0799 0
3.88275 11.5431 0
54.8059 20.886 0
56.8395 22.338 0
68.5255 19.7379 0
68.8334 17.2611 0
42.0118 42.7917 0
42.7775 45.1708 0
19.072 24.6423 0
16.9221 25.9174 0
69.263 4.23495 0
66.9151 3.37291 0
18.7274 12.8776 0
19.4303 10.4867 0
97.8424 0.54917 0
97.0246 2.90436 0
21.3137 0.613114 0
21.7804 3.05002 0
13.4451 5.99144 0
14.5818 8.20767 0
94.8152 5.81414 0
95.3463 3.37848 0
58.6764 11.7036 0
59.4782 14.0717 0
26.7262 40.0497 0
25.2311 42.0517 0
62.4369 18.8376 0
64.5441 17.4992 0
9.52953 7.76199 0
11.9425 7.09845 0
44.2774 18.1795 0
41.8897 18.9145 0
89.0186 10.8416 0
91.4808 10.3981 0
65.4992 41.7101 0
63.0746 41.102 0
51.2713 34.4914 0
53.6831 33.8421 0
12.7528 8.59911 0
14.7417 10.1073 0
75.0656 18.5053 0
72.5713 18.3172 0
69.181 26.5113 0
69.635 28.9665 0
19.572 11.8494 0
21.83 12.9181 0
36.8878 40.1321 0
34.4803 39.4633 0
29.3008 28.3688 0
30.9178 30.2695 0
12.3786 19.6315 0
13.5802 17.4442 0
42.0341 43.2364 0
39.6407 43.9566 0
34.2191 5.22381 0
33.7236 7.67452 0
94.9527 17.0854 0
93.8659 14.837 0
53.7789 26.3617 0
54.3588 28.7927 0
68.3025 36.391 0
67.5265 38.7636 0
71.2557 37.1092 0
69.3131 38.6778 0
30.4572 15.621 0
32.6134 16.8774 0
62.7543 8.13816 0
65.2385 8.41284 0
52.3956 17.4075 0
51.126 19.5602 0
68.8475 3.70232 0
68.9138 6.20136 0
24.0052 7.78641 0
26.0408 9.22323 0
31.764 14.7305 0
33.4801 16.5419 0
72.4535 6.06641 0
74.7268 5.04942 0
47.2216 15.3232 0
45.6789 17.2899 0
36.6597 41.914 0
38.6914 40.458 0
22.809 10.4846 0
24.4503 8.59659 0
22.9577 37.8361 0
25.3383 37.07 0
79.5641 20.5543 0
81.8164 21.6437 0
80.4494 16.1664 0
78.1742 15.1222 0
68.1909 34.2936 0
68.4362 36.7785 0
32.7667 27.0355 0
34.9971 28.1578 0
49.097 3.67602 0
47.4574 5.56353 0
34.1772 40.7066 0
32.8167 42.8027 0
47.6788 12.6584 0
48.1997 15.1035 0
50.2587 18.8756 0
51.632 16.7875 0
33.8159 30.7116 0
34.5016 28.3097 0
2.36254 13.8314 0
4.84786 14.1108 0
40.0815 40.311 0
40.8267 42.6961 0
10.1275 16.1884 0
9.50986 18.6043 0
32.9219 16.168 0
31.8777 18.439 0
43.2591 1.02746 0
45.6764 0.381239 0
37.1174 36.9137 0
39.3595 35.81 0
81.2575 10.1243 0
81.7517 7.68673 0
30.4485 3.70437 0
28.296 4.98003 0
49.4066 1.43405 0
47.6098 3.17308 0
60.7793 31.3263 0
62.5548 33.085 0
26.1641 37.3312 0
24.4877 35.4831 0
33.9284 3.27358 0
36.4168 3.51067 0
46.8651 29.1433 0
45.8417 31.4233 0
19.469 36.2542 0
21.1945 38.0557 0
56.124 28.3395 0
58.6212 28.3743 0
92.8208 9.47885 0
95.2377 10.1263 0
22.0664 29.1005 0
24.538 29.4681 0
48.2778 17.7794 0
50.7287 18.26 0
28.7937 21.7422 0
27.7408 19.4815 0
88.6615 18.065 0
91.0165 18.9146 0
85.3202 15.5548 0
82.8206 15.696 0
59.5461 45.2796 0
60.8283 47.4255 0
89.5259 2.52827 0
89.7338 5.01207 0
95.454 9.80926 0
93.3605 8.44118 0
64.4657 41.5278 0
62.9786 43.5351 0
56.0222 26.1301 0
58.3441 25.211 0
71.0188 1.94361 0
71.028 4.44307 0
51.4194 11.8824 0
50.5041 9.55598 0
58.3383 27.9059 0
57.6635 25.4996 0
9.33213 7.86581 0
7.78592 5.90886 0
51.6908 13.4913 0
49.2101 13.1958 0
49.7136 24.4264 0
50.1427 26.8887 0
72.616 28.458 0
70.2132 27.7691 0
81.3039 36.4177 0
78.9903 37.36 0
80.7729 18.3298 0
81.4277 20.7346 0
63.0487 6.37554 0
60.7616 5.36537 0
49.6092 11.859 0
47.1167 11.6884 0
44.4713 28.5641 0
42.0163 29.0237 0
88.6329 7.82856 0
88.1029 10.2619 0
72.3112 6.42388 0
71.0215 8.55754 0
87.6916 13.9439 0
88.6378 16.2515 0
36.5577 40.9489 0
38.2796 42.7589 0
62.5533 3.67253 0
63.7274 1.46583 0
39.9439 15.164 0
40.0901 12.6687 0
19.3804 6.4625 0
21.5229 5.16684 0
36.3603 45.9212 0
38.7245 46.7335 0
34.5656 31.4007 0
32.3325 32.523 0
58.9188 19.6129 0
60.711 21.3553 0
78.2614 16.2434 0
75.8356 15.6241 0
15.8472 28.9964 0
17.21 26.9087 0
80.5529 1.67162 0
78.1498 2.3496 0
37.6398 41.7518 0
35.1574 42.0444 0
84.0801 21.4458 0
84.5731 23.8874 0
86.5627 7.34197 0
86.2198 4.87505 0
44.764 6.08486 0
46.5617 7.82167 0
84.1649 19.7914 0
84.0338 22.2776 0
71.9704 17.6176 0
74.4538 17.3312 0
77.1308 25.0607 0
76.519 22.643 0
97.1444 15.2976 0
94.6803 14.8642 0
38.335 23.6719 0
40.4204 22.2946 0
40.9214 1.80298 0
39.856 4.06456 0
60.1807 22.5688 0
57.8466 21.6775 0
23.1308 0.971261 0
24.597 2.97874 0
71.921 32.2796 0
69.4553 32.6818 0
44.2028 38.2686 0
42.2566 39.8364 0
34.1415 4.42643 0
35.5926 6.45988 0
19.9475 15.6203 0
21.6962 17.3981 0
1.49538 8.36942 0
3.18525 10.2078 0
85.6183 25.0448 0
87.7374 23.7237 0
82.6883 14.906 0
80.2598 14.2948 0
60.7629 3.31039 0
60.1658 5.73746 0
17.2816 24.3353 0
15.7915 22.3368 0
51.8061 38.9527 0
50.5938 36.7672 0
59.7313 46.9172 0
62.0341 45.9452 0
81.7004 19.2509 0
81.997 21.724 0
60.0642 15.164 0
57.6538 14.5056 0
21.5872 24.5345 0
21.4778 27.0246 0
50.5586 36.7337 0
51.5026 34.4197 0
68.8418 24.1902 0
66.7771 22.7808 0
85.4235 32.104 0
83.0763 32.9542 0
10.027 12.7415 0
7.96405 14.1562 0
90.6742 3.19096 0
88.5773 1.82952 0
85.5555 8.47926 0
87.7127 7.2201 0
32.9572 40.5242 0
33.1233 43.0159 0
16.5738 0.846577 0
18.935 1.66184 0
80.4318 27.6032 0
82.3732 26.0339 0
21.4093 11.0914 0
19.7286 9.2521 0
93.5243 17.1336 0
91.2265 16.1416 0
19.3954 35.7438 0
19.2505 33.2555 0
17.9716 35.3743 0
20.2221 34.2846 0
76.6327 12.1374 0
75.0655 14.0738 0
20.8956 4.75525 0
18.5515 3.89393 0
26.3161 33.8809 0
24.1599 32.6225 0
55.3271 7.11498 0
57.4751 5.837 0
69.3434 3.8912 0
70.4282 6.14529 0
22.4059 17.102 0
21.7131 14.7104 0
89.4905 6.16393 0
86.9885 6.14826 0
60.156 4.29875 0
57.6676 4.05094 0
86.6771 11.3682 0
84.2715 10.6734 0
80.9336 22.6046 0
82.1075 20.407 0
69.788 32.5442 0
68.9886 30.1781 0
42.4533 49.0013 0
40.5291 47.4054 0
30.6413 29.4566 0
31.5666 31.7742 0
19.9298 37.5806 0
20.2358 35.1057 0
64.2199 5.67909 0
62.4877 7.47918 0
91.4337 1.97702 0
90.9743 4.42653 0
85.7571 10.1547 0
87.2364 12.1662 0
16.1115 1.27957 0
14.0728 2.72503 0
71.9538 36.6868 0
74.3779 36.081 0
14.8973 16.2956 0
17.323 16.907 0
85.8705 30.9333 0
87.5577 32.7687 0
8.11733 22.0881 0
10.6166 21.9571 0
49.9334 35.6368 0
52.4242 35.4501 0
9.11206 20.5743 0
10.8342 18.7621 0
62.5367 31.998 0
60.2687 33.0432 0
37.5399 6.84656 0
39.029 4.83784 0
9.7689 9.21794 0
11.9464 7.98675 0
60.151 26.0216 0
57.655 26.1055 0
32.8384 17.2305 0
33.7847 19.5399 0
92.6162 11.4927 0
92.945 13.9644 0
50.0439 4.4447 0
52.1269 5.82779 0
21.7639 11.869 0
23.2287 13.8833 0
16.4449 4.92513 0
18.7607 3.97857 0
38.9438 33.8128 0
41.0796 32.5158 0
2.05084 4.99404 0
2.9573 2.66823 0
17.4251 17.1469 0
16.397 19.419 0
81.466 37.6226 0
82.489 35.3505 0
72.9126 12.5837 0
74.7461 10.8956 0
66.3185 41.4901 0
63.927 42.215 0
63.749 26.483 0
65.7351 24.9708 0
49.8632 6.09538 0
48.3248 8.06594 0
60.1818 40.7588 0
62.4037 41.9034 0
23.3863 10.9081 0
24.489 13.1402 0
60.0897 31.2652 0
61.0358 33.5781 0
85.0573 22.4499 0
87.5596 22.381 0
74.5833 19.8388 0
72.1565 19.2317 0
56.05 12.4094 0
58.4924 12.9372 0
61.6808 4.26443 0
60.6339 1.99428 0
60.7167 47.5252 0
58.2185 47.6222 0
50.6465 16.8313 0
50.9628 19.3112 0
26.137 33.2433 0
27.1265 30.9507 0
43.694 22.6162 0
41.6414 21.1941 0
70.2517 18.5755 0
72.725 18.9452 0
72.5426 1.55559 0
72.7223 4.04866 0
33.4102 17.0807 0
35.0457 18.9658 0
55.2425 3.53427 0
57.6858 4.0682 0
62.7381 26.9946 0
60.2405 27.0176 0
59.5672 35.5163 0
59.7128 33.0221 0
41.7357 31.3542 0
39.3539 32.1082 0
65.7126 33.8546 0
63.69 32.3865 0
41.2752 36.1755 0
39.9721 38.3081 0
73.2402 29.7651 0
72.8078 32.222 0
50.7633 40.1732 0
51.8566 42.4208 0
59.8205 10.0653 0
58.322 8.06379 0
82.5633 20.0069 0
84.8632 19.0276 0
66.2508 0.725793 0
68.7433 0.491568 0
72.7833 32.6666 0
74.6595 31.0209 0
66.5288 33.5472 0
65.2518 35.6924 0
67.803 46.265 0
68.5271 43.8754 0
63.7305 23.0232 0
64.8282 20.7811 0
80.4328 11.2916 0
82.0408 13.2041 0
30.9899 20.4617 0
30.0407 18.1548 0
25.3018 20.6977 0
26.874 22.6339 0
53.9877 28.7042 0
56.4718 28.448 0
85.733 28.3286 0
85.2046 25.8965 0
37.9073 1.81809 0
40.3877 2.14451 0
42.0988 29.5474 0
43.0838 27.2505 0
19.9513 35.393 0
22.4379 35.646 0
84.4652 11.5404 0
86.9681 11.4844 0
30.5275 1.28467 0
32.9945 0.868721 0
61.994 42.4713 0
59.8296 41.2212 0
40.0236 13.4603 0
38.0294 14.9679 0
71.92 29.1688 0
70.0741 27.4842 0
60.3652 30.2925 0
59.6037 27.9125 0
6.60412 10.6739 0
5.73433 13.0131 0
33.6185 6.84477 0
32.0026 4.94092 0
57.2949 24.7613 0
59.7302 24.2088 0
61.752 28.0532 0
59.2664 28.2963 0
12.9875 2.03772 0
15.1433 3.29602 0
72.4142 4.98425 0
69.9273 4.73748 0
30.5129 6.24933 0
28.1168 6.96582 0
80.793 3.74735 0
78.2926 3.85326 0
54.3853 35.9821 0
52.3743 37.4643 0
30.5863 14.3026 0
33.0081 14.912 0
80.5821 9.20907 0
82.8675 8.19849 0
11.9957 31.5949 0
12.9848 29.3165 0
46.3787 5.37205 0
48.8281 5.87441 0
2.74012 5.32692 0
5.23992 5.22827 0
10.2194 9.56865 0
11.2212 11.8498 0
4.34423 17.8765 0
6.59373 16.7809 0
29.3815 8.49168 0
26.8832 8.45234 0
43.6932 2.04758 0
46.0006 3.01271 0
77.3485 2.81645 0
75.5782 4.56061 0
55.2148 26.7876 0
57.464 27.8749 0
24.8016 19.3587 0
26.9888 18.1444 0
12.7826 30.9216 0
14.0342 28.7697 0
13.7551 17.8795 0
15.6127 19.5451 0
31.538 36.0787 0
33.6421 37.4238 0
85.1142 18.9708 0
85.4423 16.5031 0
54.9613 42.4057 0
56.137 40.2006 0
56.8623 43.0607 0
54.3738 42.833 0
69.3598 41.1355 0
68.437 43.4552 0
81.6139 5.23175 0
81.1843 7.67964 0
67.3157 28.7824 0
69.408 27.4209 0
23.3679 28.2873 0
20.874 28.4555 0
76.578 33.129 0
74.6844 31.4985 0
40.4031 1.84703 0
41.954 -0.114108 0
21.4824 3.49359 0
19.2775 2.33113 0
32.7098 28.054 0
34.5157 29.7771 0
39.7619 2.29389 0
37.974 4.04215 0
68.5862 6.28483 0
66.5236 7.6915 0
7.18778 2.11168 0
8.7262 0.142763 0
59.082 33.4549 0
57.125 31.9013 0
22.6467 35.4377 0
24.1797 37.4055 0
76.7136 24.9619 0
76.1607 22.53 0
8.87776 16.7388 0
9.71923 19.0838 0
27.0179 16.6977 0
28.4429 14.6437 0
31.937 37.0076 0
32.7662 34.6512 0
22.1961 34.9529 0
19.9564 33.8496 0
73.3322 37.1242 0
72.0073 35.0064 0
15.0345 2.09088 0
16.9736 0.516337 0
52.2294 12.1968 0
52.0965 9.70012 0
33.8224 8.78077 0
32.6862 6.55716 0
24.9695 41.8247 0
27.3595 41.0875 0
57.5786 12.5657 0
59.8004 11.4241 0
84.197 35.1925 0
82.3938 33.4633 0
40.398 47.1777 0
38.8855 45.1879 0
18.0741 12.1822 0
20.5312 12.6544 0
92.6996 8.18014 0
94.3825 6.33776 0
81.3739 33.0323 0
80.6593 30.6429 0
38.8269 14.8756 0
38.6905 17.3713 0
28.5785 11.5955 0
29.9634 13.6686 0
51.9113 39.5636 0
54.4009 39.7728 0
86.5607 28.1 0
85.8926 25.7019 0
22.1607 2.34895 0
23.5627 4.39744 0
49.3549 3.22621 0
47.2355 1.89829 0
18.8545 19.7219 0
21.336 20.0415 0
2.11113 9.03454 0
4.29378 7.81336 0
20.2604 3.60612 0
18.8563 5.66946 0
62.9425 44.4553 0
65.1619 45.6062 0
34.4837 21.2294 0
36.5713 19.8542 0
94.5931 1.03451 0
93.9515 3.44323 0
49.7444 42.4368 0
49.3583 39.9673 0
58.6784 10.8423 0
56.3268 9.99562 0
36.6077 10.7537 0
34.3222 11.7677 0
56.826 43.8972 0
56.7514 46.3957 0
2.44598 12.622 0
1.78463 10.2155 0
82.4225 4.97542 0
83.3158 2.65301 0
37.674 47.3429 0
35.4161 46.2703 0
65.9779 39.57 0
68.3066 40.4796 0
24.646 34.1124 0
27.1223 34.4472 0
68.4675 39.4807 0
70.8693 38.7917 0
13.8036 30.6531 0
12.1876 28.7572 0
58.8633 44.4647 0
61.2978 45.0313 0
24.3242 5.65016 0
24.1924 8.13995 0
81.1294 20.9307 0
78.7493 21.6968 0
29.8692 39.7722 0
29.5081 42.2428 0
23.7053 17.0689 0
21.4482 15.999 0
2.74646 8.23391 0
4.97097 7.09039 0
48.026 30.8933 0
49.9852 29.3432 0
87.058 23.1669 0
84.6755 23.9265 0
34.6611 10.9591 0
32.3257 11.8531 0
47.5571 26.0698 0
46.0998 24.0405 0
67.4357 24.3344 0
65.4441 22.8237 0
58.2162 30.1921 0
56.8724 32.2975 0
32.3183 34.9356 0
34.6105 35.9275 0
57.4136 36.397 0
56.0529 34.3007 0
26.6856 3.39499 0
28.7978 2.05395 0
11.1725 26.6665 0
12.7094 24.6972 0
63.5162 33.1409 0
61.9192 35.0605 0
28.4853 11.4311 0
26.0377 11.9499 0
44.5041 45.8349 0
42.0055 45.9018 0
30.8366 14.5031 0
31.9651 16.728 0
13.2082 1.82967 0
15.3329 0.512622 0
76.1336 15.0348 0
73.8766 16.1021 0
12.68 6.53753 0
13.3274 8.94181 0
35.4832 4.98362 0
36.3448 7.32904 0
53.9974 17.7383 0
51.5392 18.1794 0
31.3125 8.52978 0
29.0091 7.56941 0
24.2867 6.65804 0
21.793 6.87364 0
48.6126 3.68002 0
51.0488 4.24626 0
32.1566 13.8283 0
32.0919 11.3315 0
1.58807 3.46319 0
4.06788 3.78618 0
62.8157 44.3458 0
60.4978 43.4099 0
42.6359 24.5104 0
40.1439 24.3472 0
48.3453 30.8279 0
50.5235 32.0501 0
58.8806 35.3728 0
56.3921 35.5892 0
50.0159 46.6514 0
52.0708 45.2286 0
26.9494 5.72884 0
26.3184 8.14791 0
43.5127 36.1136 0
42.0935 34.0579 0
52.8779 28.0222 0
50.9814 29.6479 0
60.9545 40.0315 0
62.0901 42.2578 0
46.9329 23.7238 0
45.6666 21.5699 0
19.2553 2.95977 0
18.541 0.579227 0
48.2289 41.9718 0
49.1911 39.665 0
47.8182 39.5612 0
45.3662 39.0828 0
73.2219 11.5708 0
72.6917 9.12998 0
52.526 17.9026 0
50.7828 16.112 0
25.0084 41.8757 0
27.4924 41.5844 0
51.9703 24.1621 0
50.5573 26.2229 0
25.8366 30.3839 0
28.2633 30.976 0
5.3688 8.01588 0
2.88762 7.70162 0
20.8733 35.3086 0
18.7552 36.6372 0
31.8876 19.2355 0
34.162 20.2652 0
30.0973 19.3194 0
27.7481 18.4718 0
78.7327 17.5552 0
79.4707 19.9369 0
41.9131 32.2113 0
42.4594 29.7728 0
44.7904 12.6122 0
45.2503 10.1546 0
44.1961 20.1502 0
46.0446 18.4684 0
36.131 2.50658 0
35.7811 4.98131 0
94.4715 4.86674 0
95.2816 7.22763 0
41.9087 21.8596 0
40.3581 23.82 0
57.7816 26.2326 0
55.7413 24.7904 0
62.701 27.0253 0
65.1096 27.6905 0
8.55838 15.6639 0
8.47751 18.155 0
70.8305 31.0055 0
68.3867 30.482 0
45.8811 35.7541 0
46.1272 33.2671 0
87.0735 2.7495 0
88.7628 4.58969 0
22.5098 38.5648 0
22.8802 41.0309 0
66.2438 43.2259 0
64.2126 41.7689 0
77.3468 11.9996 0
77.8834 14.4342 0
50.8449 47.0719 0
49.16 48.9185 0
14.9022 13.412 0
15.4088 10.9731 0
75.6198 18.9991 0
75.4109 21.4828 0
59.0496 45.66 0
61.101 47.0888 0
83.7396 9.46792 0
86.1864 8.94603 0
6.96788 1.8034 0
4.46903 1.89692 0
80.7443 19.0097 0
82.5464 17.2849 0
13.6045 0.199566 0
11.1065 0.10557 0
14.9001 32.2086 0
17.2784 31.4432 0
14.2066 12.8695 0
15.5755 14.9511 0
66.7097 0.985041 0
64.2449 1.41649 0
72.2642 24.5053 0
71.3077 26.8092 0
52.0197 31.4827 0
50.0646 29.9279 0
29.313 29.2208 0
28.0457 27.0719 0
76.0662 25.4042 0
76.3006 22.9224 0
88.1025 17.2648 0
90.3433 18.3801 0
56.59 9.0989 0
54.3008 10.1007 0
30.5997 42.3677 0
32.0861 44.3744 0
49.5608 38.3025 0
50.1526 35.8743 0
33.5711 30.6839 0
35.8067 31.7961 0
51.2957 20.2315 0
50.1622 22.4589 0
48.0067 20.2372 0
46.7609 18.0708 0
56.3113 36.7875 0
54.2189 38.1522 0
27.9168 28.0587 0
28.4976 30.4849 0
32.5669 34.5235 0
33.2007 36.9383 0
91.7359 14.7276 0
93.5693 16.4278 0
6.69412 6.17175 0
6.37008 8.64477 0
30.5873 35.8435 0
31.2557 33.4371 0
65.2075 34.9474 0
64.2719 37.2626 0
70.8869 2.25244 0
72.4774 0.329484 0
72.2113 25.1049 0
72.6897 22.6569 0
12.9629 14.6453 0
14.9612 16.1417 0
48.3615 3.49589 0
50.7925 4.08422 0
17.3699 5.87277 0
17.5672 8.35173 0
6.48696 18.6013 0
4.00033 18.3366 0
31.8322 33.9515 0
32.0152 36.4414 0
59.3267 32.9215 0
59.0296 35.4022 0
80.5897 24.488 0
80.9745 26.9499 0
96.0329 18.413 0
96.446 15.9523 0
81.6422 13.1823 0
84.1087 12.7595 0
31.408 34.4794 0
30.3285 32.2293 0
95.0506 8.65816 0
94.1795 10.9947 0
92.6713 17.9182 0
94.8885 16.7672 0
25.3169 37.9614 0
25.0253 35.484 0
11.1108 27.221 0
12.9177 28.936 0
25.1982 17.136 0
22.7378 17.5942 0
33.0446 22.2962 0
35.5357 22.4826 0
75.1025 23.1003 0
72.6029 23.1441 0
50.0607 27.6402 0
49.6798 30.1102 0
20.9829 18.715 0
20.4694 21.1539 0
93.0663 7.23346 0
92.2429 9.5862 0
49.1249 48.1707 0
47.6818 46.1297 0
60.3019 39.1159 0
62.1811 37.4705 0
68.5073 12.6557 0
66.4474 11.2367 0
74.7598 11.5225 0
72.5916 12.7563 0
59.6127 41.9528 0
61.2473 43.8438 0
83.0201 12.054 0
83.6999 9.66061 0
12.3169 9.77683 0
11.2346 7.53286 0
46.236 43.0906 0
44.2323 41.5979 0
78.0963 4.21418 0
75.6339 4.63789 0
79.2518 34.6724 0
79.7143 32.2229 0
50.3186 26.359 0
47.8552 25.95 0
15.8986 14.9602 0
18.3725 14.5713 0
24.6571 1.8533 0
27.1423 2.05971 0
21.7825 5.94903 0
23.7391 4.38653 0
38.4367 26.8149 0
35.9926 27.333 0
39.597 38.0087 0
37.1028 37.864 0
20.435 23.3003 0
19.0386 21.2351 0
55.8224 8.72511 0
53.5446 9.75323 0
30.7932 38.7885 0
33.2404 38.2788 0
56.7831 41.838 0
59.2538 41.4656 0
59.0588 12.4473 0
61.5087 11.9597 0
84.7868 1.9511 0
82.4288 2.77648 0
54.6879 35.7669 0
52.9183 37.5305 0
27.9011 39.4225 0
30.3958 39.2577 0
56.9146 32.6498 0
56.6268 30.1675 0
77.6235 21.3105 0
75.7427 22.9508 0
36.6769 36.6079 0
36.0412 39.0242 0
70.6751 32.4427 0
68.2079 32.8351 0
48.9425 32.4775 0
50.2824 30.3685 0
64.3858 19.4283 0
65.3937 21.7155 0
36.9144 30.6169 0
39.4119 30.6623 0
52.0997 3.09059 0
54.2084 4.43494 0
16.1043 26.986 0
13.8985 25.8125 0
28.8226 37.7223 0
26.3537 38.1171 0
66.3159 34.8651 0
64.7269 32.9362 0
86.8413 13.79 0
85.7552 16.031 0
79.9079 37.517 0
77.6065 38.4891 0
1.08938 9.65744 0
2.7756 11.4993 0
22.3105 7.04461 0
19.8228 6.78139 0
28.0055 24.2254 0
25.5312 23.8736 0
48.7821 5.52489 0
46.412 4.72801 0
39.4123 8.42952 0
37.1187 7.43896 0
13.1976 16.2091 0
11.7661 14.1689 0
35.1937 37.9283 0
33.3793 39.6474 0
76.1364 8.03468 0
78.2029 6.63912 0
38.8887 43.9199 0
38.0741 41.5578 0
46.1932 9.55937 0
48.2303 8.11065 0
39.8956 31.0287 0
37.4725 31.6374 0
37.3175 29.2689 0
36.6509 31.6766 0
36.7071 27.0015 0
34.2321 27.343 0
30.6703 4.53551 0
33.0175 5.38984 0
71.8466 31.9963 0
74.0234 30.7734 0
24.1596 12.4224 0
26.55 11.6792 0
33.216 43.7424 0
35.5027 42.7317 0
26.0744 22.5286 0
24.0529 23.9991 0
5.63773 2.56599 0
6.55687 0.244682 0
94.381 5.89923 0
96.7895 6.57688 0
53.4111 19.0131 0
51.7045 17.1874 0
53.8049 45.5089 0
52.3227 47.5215 0
94.725 5.24244 0
93.3245 3.1738 0
30.2219 21.2141 0
27.7751 20.7086 0
57.4982 2.22123 0
58.1119 4.64451 0
94.6032 11.4944 0
92.9627 9.60947 0
43.7256 7.29128 0
46.1879 6.85903 0
49.3927 42.4466 0
47.434 43.9991 0
42.4179 27.386 0
44.8304 26.7388 0
24.2372 22.6791 0
21.7648 22.3059 0
70.0021 34.235 0
70.1711 31.7449 0
18.3795 13.5387 0
20.5979 14.6869 0
9.38794 28.7904 0
11.6738 27.7679 0
62.0391 24.5859 0
60.8072 22.4111 0
81.7457 25.2113 0
79.2453 25.1443 0
22.8184 29.3417 0
20.6984 30.6643 0
14.216 29.6861 0
14.3274 32.1723 0
12.6336 13.0356 0
13.661 15.3042 0
67.3798 22.869 0
67.8261 20.4133 0
79.3381 21.9005 0
81.7487 22.5725 0
15.2589 21.7365 0
14.1873 23.9881 0
21.2483 13.6135 0
18.899 12.7591 0
44.9054 45.0982 0
42.4088 44.9838 0
62.2406 38.1545 0
60.8232 36.0962 0
59.611 47.3552 0
61.9427 46.454 0
39.9682 37.881 0
42.4661 37.8318 0
55.732 30.3747 0
53.3915 29.5021 0
67.6283 40.8578 0
65.1414 41.1075 0
71.0772 5.73 0
73.5739 5.76301 0
80.9125 3.29771 0
80.8427 0.812865 0
59.6897 7.18487 0
57.9495 8.97826 0
32.3612 19.6172 0
31.5574 21.9827 0
43.9461 32.5689 0
44.0584 35.0652 0
97.7999 14.1488 0
97.9502 11.6573 0
74.1247 18.6333 0
72.1731 17.0688 0
77.0889 31.6369 0
76.3755 34.0263 0
55.9601 48.7527 0
56.3208 46.2792 0
40.1862 1.31809 0
37.7694 1.96466 0
72.0552 20.1411 0
74.5302 19.7904 0
41.8335 44.8051 0
44.3133 45.1156 0
87.089 2.75676 0
86.5154 5.17991 0
19.3607 22.0281 0
18.9206 19.5772 0
17.5141 36.393 0
16.2742 34.232 0
26.0639 38.1407 0
24.1832 39.7875 0
61.6709 6.42367 0
59.6975 4.88817 0
39.7221 30.2055 0
40.0387 32.6834 0
63.2614 5.643 0
60.7915 6.02659 0
60.5825 6.77668 0
61.4296 4.4253 0
79.3285 37.0397 0
76.8919 37.5957 0
46.8222 23.5198 0
47.7804 21.2111 0
81.9618 12.3892 0
79.4852 12.747 0
17.6918 13.0201 0
18.5063 15.3725 0
48.2082 40.7485 0
46.3944 42.4681 0
65.3856 19.9137 0
64.156 17.7371 0
42.9226 40.1598 0
41.7463 42.3653 0
54.5098 17.0925 0
53.4375 19.3498 0
22.8995 29.4878 0
25.2907 28.7598 0
23.2298 14.9976 0
20.7914 14.4424 0
92.323 7.81266 0
90.8052 9.79168 0
32.1289 32.1991 0
33.5941 30.1751 0
68.7368 28.6768 0
68.9712 31.1624 0
97.6699 2.41971 0
96.1797 4.41898 0
67.3721 15.1226 0
69.8343 14.7023 0
78.3682 23.4373 0
78.8254 20.9883 0
37.5626 16.154 0
35.1819 15.4005 0
68.9156 9.42799 0
69.4667 6.99232 0
32.9302 20.3628 0
34.2772 18.257 0
33.2636 31.7673 0
34.9135 29.8905 0
87.9023 26.0558 0
89.8783 27.5908 0
84.2786 23.7426 0
86.7011 24.3733 0
38.5133 11.3403 0
36.084 11.9278 0
65.691 40.502 0
63.5218 39.26 0
37.7157 1.71148 0
35.5377 2.94039 0
75.483 40.0725 0
75.9067 42.5318 0
67.338 2.31756 0
67.1257 4.80811 0
71.9982 15.2975 0
70.1529 13.6084 0
63.3799 32.0459 0
65.8735 32.2007 0
39.5904 3.32063 0
38.8513 5.70888 0
46.2221 18.8539 0
47.7915 16.9087 0
37.5098 38.8866 0
36.3025 41.0746 0
90.1687 7.33363 0
90.8944 4.94993 0
92.5909 20.0969 0
90.187 19.3983 0
55.8996 19.3753 0
56.1517 16.8885 0
22.8531 18.8913 0
21.4722 20.9716 0
32.7239 16.1671 0
34.506 17.9139 0
72.982 38.4916 0
73.3434 36.023 0
61.7481 40.8675 0
63.1779 42.9175 0
27.442 33.0015 0
29.7369 32.0108 0
27.6295 16.719 0
25.7883 15.037 0
39.5013 2.52379 0
37.4706 3.98339 0
18.5995 28.568 0
17.7733 26.2171 0
73.4825 2.74163 0
75.2081 0.947521 0
75.7747 42.1839 0
73.2775 42.3189 0
57.3558 44.0346 0
54.9345 43.4151 0
27.2425 9.12451 0
28.8708 11.0115 0
24.1988 7.87178 0
23.0343 10.0824 0
76.618 41.6693 0
74.5065 43.0042 0
30.3695 38.6746 0
32.0568 40.515 0
47.7279 27.5875 0
48.511 29.9605 0
78.4375 7.02598 0
80.9154 6.68163 0
76.0194 10.4488 0
76.287 12.9273 0
69.5439 34.1913 0
68.9327 31.77 0
77.7375 17.1577 0
79.7214 18.6808 0
84.5045 32.6233 0
85.6648 34.8307 0
64.9154 34.5397 0
64.2333 32.1364 0
32.4026 10.2658 0
29.9047 10.2071 0
29.5259 44.5371 0
31.8209 45.527 0
20.043 29.1301 0
22.5053 28.7005 0
45.1446 28.4295 0
47.3569 27.2693 0
19.2709 33.9195 0
20.5424 31.7713 0
66.1352 9.45095 0
66.1556 6.95176 0
61.6937 1.7677 0
64.0439 0.909965 0
80.9503 1.39823 0
79.813 3.60499 0
40.592 47.6012 0
38.0948 47.4781 0
58.8104 26.1479 0
59.6291 28.5091 0
14.8002 23.4668 0
16.8945 24.8273 0
4.11478 14.4543 0
6.1625 13.0182 0
84.2815 21.718 0
82.6531 19.8243 0
8.18382 0.60809 0
5.72168 0.181431 0
75.4536 20.1461 0
73.1048 20.9973 0
52.4333 9.95615 0
50.7795 8.08162 0
43.3141 5.84514 0
45.7127 5.13887 0
39.2773 2.8663 0
37.8616 4.92718 0
3.33976 8.65874 0
0.90279 8.09813 0
87.887 12.1361 0
88.2131 14.6059 0
39.6937 11.402 0
37.4286 10.3497 0
57.9438 7.39524 0
56.0192 5.79916 0
16.2423 26.887 0
13.7561 27.1699 0
52.5466 5.42169 0
55.0197 5.79071 0
89.8256 6.97932 0
92.2062 7.7498 0
93.4934 4.65186 0
91.8484 2.77075 0
95.0959 0.410189 0
96.8557 2.18656 0
16.0294 29.407 0
18.3982 28.6108 0
62.4917 9.61921 0
61.7866 12.0164 0
18.5806 7.19361 0
17.9451 4.79108 0
70.187 45.1702 0
67.8092 44.3952 0
79.687 8.38762 0
80.5731 6.06326 0
91.8899 15.6846 0
89.7327 14.4169 0
59.5402 8.809 0
59.3377 6.31706 0
21.3774 28.5608 0
23.6811 29.5258 0
24.8595 42.0787 0
26.3571 40.0786 0
22.3661 13.2954 0
24.5625 14.4811 0
9.86756 12.0994 0
11.047 9.90024 0
33.5143 45.4398 0
34.4704 43.1315 0
67.6327 35.8945 0
69.896 36.9557 0
25.3292 10.7219 0
26.8448 8.73086 0
84.0349 24.545 0
82.6929 22.4419 0
87.5714 2.04387 0
89.3504 3.79835 0
51.1096 40.9847 0
53.446 41.8709 0
82.2019 9.4401 0
80.1168 8.05526 0
65.1243 14.583 0
66.1314 16.8713 0
42.9476 6.78035 0
42.7663 4.28722 0
53.5111 5.50318 0
55.4235 3.89297 0
44.3409 38.8996 0
42.8734 40.9229 0
90.5748 10.852 0
92.5471 9.32118 0
23.2485 16.9088 0
24.78 18.8758 0
23.7622 10.0923 0
23.8052 7.6008 0
60.7226 35.7237 0
60.9599 38.2111 0
44.6527 1.20868 0
42.2978 2.05273 0
78.3114 24.2912 0
79.0428 21.9092 0
68.8746 37.9002 0
68.7726 35.4055 0
27.5488 6.47875 0
29.4618 4.86455 0
58.9361 13.2499 0
59.03 15.7478 0
57.7216 9.52568 0
59.6539 11.112 0
51.7613 19.5194 0
54.1751 20.1615 0
50.6773 38.177 0
48.1791 38.1755 0
47.4627 22.8292 0
46.4113 25.0967 0
22.6134 21.1241 0
22.8181 23.6077 0
81.024 2.11709 0
78.5688 1.62151 0
95.2612 4.8737 0
95.4066 7.36378 0
48.3782 41.1324 0
46.7825 43.0561 0
26.3569 16.6689 0
25.2163 18.8908 0
89.3235 21.5013 0
88.364 23.7986 0
43.8479 3.58484 0
46.1169 4.63523 0
53.2865 27.8438 0
55.5239 28.9548 0
78.2892 8.35337 0
79.9506 6.49745 0
13.6859 14.0237 0
16.1797 14.243 0
54.0799 47.4954 0
53.9848 44.9975 0
52.4092 5.9998 0
49.9861 5.38237 0
54.11 40.5479 0
51.812 41.5287 0
8.3267 21.9358 0
6.37025 23.4953 0
11.1104 27.6626 0
8.61913 27.4553 0
49.734 47.1792 0
47.2346 47.2073 0
43.5565 18.3621 0
45.9037 19.2151 0
28.4234 43.4508 0
27.7338 41.0523 0
87.1586 31.4811 0
86.4365 29.1015 0
85.8028 22.4599 0
86.6622 20.1233 0
85.9754 0.791488 0
88.4088 1.37015 0
83.523 35.6657 0
84.5581 33.4008 0
24.1387 32.6491 0
25.7036 30.702 0
45.5991 42.254 0
47.1167 44.2395 0
21.3883 34.9296 0
23.6657 33.898 0
6.283 12.0959 0
4.3712 10.4899 0
34.5325 14.6846 0
36.1484 12.776 0
31.2777 45.9205 0
33.0016 44.1105 0
18.2735 22.9752 0
20.6888 23.6228 0
10.2859 22.5364 0
11.9881 20.706 0
50.2246 7.59643 0
47.8899 6.70248 0
47.4958 30.7718 0
45.1626 29.8814 0
38.858 20.9783 0
41.2696 20.3251 0
43.5948 9.93665 0
41.3874 11.1096 0
77.4983 36.9209 0
79.2724 35.1669 0
39.9081 8.90494 0
39.0761 11.2627 0
74.8718 40.3552 0
73.6213 38.1927 0
60.7903 11.8221 0
58.92 13.4774 0
96.2433 12.5252 0
94.0203 11.3777 0
43.7638 25.329 0
41.2665 25.3424 0
54.2794 42.8486 0
56.7539 42.5006 0
84.584 23.5296 0
82.0859 23.6808 0
2.52247 9.60669 0
4.58647 8.19482 0
82.1212 4.94202 0
84.6084 5.21783 0
36.5548 16.4174 0
38.6757 17.7348 0
44.0106 9.37346 0
42.0217 10.8879 0
21.1899 26.4727 0
22.1916 28.7559 0
43.0535 27.1992 0
45.3691 26.2621 0
15.0476 19.6218 0
14.8714 22.1056 0
20.1552 8.58613 0
21.022 6.24694 0
12.232 24.818 0
10.9739 22.6692 0
49.8769 41.4976 0
48.6852 39.3009 0
9.59375 24.4284 0
9.39583 26.9136 0
35.0932 44.0206 0
32.8831 45.1896 0
13.407 18.3067 0
11.222 17.0958 0
12.2623 23.792 0
12.7003 21.3395 0
84.2191 17.4207 0
84.0581 14.9358 0
97.1016 15.446 0
94.8962 14.2656 0
76.1883 36.7169 0
77.5735 38.7957 0
4.72551 2.94252 0
2.27126 3.42811 0
13.8958 26.7976 0
11.4095 26.5149 0
9.91134 5.1825 0
8.64478 7.33368 0
87.006 9.97914 0
86.6974 7.5076 0
50.8096 18.9399 0
49.885 16.6176 0
22.8255 2.96662 0
23.5149 0.56263 0
24.055 40.4151 0
21.5748 40.0963 0
4.31479 10.5193 0
1.90599 11.1951 0
74.0115 28.1051 0
72.4419 30.0446 0
51.6094 16.5881 0
49.4398 17.8265 0
94.6804 5.51807 0
96.5545 7.17304 0
92.405 0.899982 0
90.005 1.59353 0
54.6842 28.0425 0
57.0117 28.9495 0
3.93337 2.1101 0
2.81477 4.34303 0
25.6162 42.0651 0
28.1 41.7718 0
24.2965 33.2082 0
25.7665 35.2236 0
64.8672 37.8658 0
63.0538 36.1459 0
45.7826 38.9955 0
46.3286 36.5565 0
59.1441 39.4326 0
58.3395 41.7983 0
42.8369 19.4554 0
41.6365 17.2646 0
48.525 16.9354 0
47.466 14.6714 0
92.8673 4.86273 0
91.3437 6.8372 0
17.6613 6.61661 0
16.0888 4.6841 0
31.5521 30.7341 0
33.0675 28.7475 0
49.558 45.1865 0
50.5154 47.4956 0
51.6939 13.8592 0
49.2478 14.3662 0
35.2082 5.5889 0
34.5525 8.00181 0
90.6859 7.7572 0
90.2536 10.2105 0
55.2548 45.8109 0
54.0053 43.6457 0
16.7205 18.22 0
18.9071 17.0029 0
14.6192 7.07178 0
14.2807 4.60566 0
24.2912 34.3954 0
21.7988 34.5886 0
62.6231 33.6467 0
60.6548 35.1836 0
11.5568 19.6964 0
13.6587 21.0442 0
76.8185 0.416334 0
74.3267 0.333668 0
59.9195 26.1123 0
57.6661 25.0329 0
70.4668 27.0963 0
67.9803 27.3404 0
46.2287 22.8757 0
46.9749 20.4899 0
76.579 3.87752 0
74.1818 4.55945 0
47.8496 15.1885 0
50.1331 16.2015 0
88.1733 13.592 0
89.9458 11.8363 0
70.9986 0.158519 0
73.3145 1.10033 0
56.278 45.7443 0
57.209 43.4249 0
68.1673 3.35149 0
65.9416 2.21109 0
22.8482 17.7114 0
24.7668 16.1066 0
81.1847 38.7603 0
83.1645 37.2396 0
49.4127 3.04651 0
51.1125 4.88009 0
66.016 3.4215 0
63.6817 2.52572 0
53.2994 12.2362 0
53.0651 9.74699 0
12.6057 15.4437 0
10.7871 17.1591 0
43.1773 4.74805 0
43.6215 7.20795 0
56.1609 20.6599 0
58.6104 21.1496 0
60.8388 22.4596 0
58.3598 22.1532 0
28.8218 27.2606 0
27.0049 25.5499 0
40.7077 7.02102 0
38.2307 7.35412 0
17.4023 2.35562 0
19.883 2.03024 0
42.841 25.9244 0
40.3651 26.2538 0
7.02593 17.7212 0
8.35191 19.8324 0
20.2989 12.0235 0
22.1421 10.3324 0
67.3942 40.117 0
65.4844 41.7268 0
45.1271 41.6019 0
45.9832 43.9499 0
70.8041 17.3112 0
73.1857 16.558 0
88.2815 4.88062 0
90.0206 6.67445 0
49.8863 20.2609 0
48.1631 22.0704 0
56.3537 37.7917 0
56.3543 40.291 0
82.365 26.0847 0
80.8452 28.0623 0
39.5795 4.5193 0
41.5665 6.03502 0
55.1632 43.6611 0
57.0056 41.9731 0
55.3769 43.5461 0
57.0586 41.6979 0
25.0532 15.4444 0
23.2353 13.7388 0
14.3608 27.8718 0
13.5242 30.2154 0
53.0005 17.1326 0
51.1966 18.8613 0
32.5335 42.9213 0
34.8855 43.7666 0
19.7125 10.8981 0
21.4679 12.6677 0
61.516 41.2263 0
63.7524 40.1127 0
32.9637 27.5415 0
31.0165 29.1083 0
31.0121 21.281 0
31.9837 23.5791 0
72.0576 27.5287 0
71.2261 29.8808 0
38.0874 13.1869 0
40.5606 13.5367 0
47.303 48.0588 0
45.4829 46.3456 0
70.6112 11.5997 0
70.4764 14.092 0
98.6562 10.2063 0
96.5943 8.79133 0
96.4646 15.9388 0
93.9642 16.0071 0
58.9473 10.3177 0
59.6841 12.7068 0
54.994 18.4748 0
56.4756 20.4879 0
53.9068 41.7424 0
56.3707 41.3272 0
5.04782 4.43623 0
7.52815 4.11228 0
84.503 18.8604 0
86.8273 19.791 0
19.2882 30.3176 0
19.5166 32.7996 0
64.4077 35.9165 0
63.1606 33.751 0
66.4777 23.5977 0
68.9749 23.5137 0
60.3849 25.5623 0
62.6802 24.5797 0
55.9148 21.2623 0
57.6068 19.425 0
21.5805 36.4547 0
19.0874 36.6518 0
55.9471 32.4297 0
58.3796 31.8639 0
67.9334 1.77935 0
70.1243 2.98633 0
16.2221 6.28322 0
17.6186 4.21698 0
91.8144 24.2754 0
91.1437 26.6747 0
89.1986 19.191 0
86.7292 18.7759 0
88.0852 12.6198 0
86.5275 14.5663 0
76.4094 18.9474 0
77.6014 16.7594 0
71.0056 21.0856 0
70.0945 23.4076 0
26.6276 25.5943 0
25.4095 27.7741 0
55.8012 26.45 0
55.5537 28.9366 0
59.164 43.1959 0
57.521 45.0787 0
66.2185 18.8627 0
68.2624 17.4304 0
81.2612 33.6722 0
79.7261 31.7027 0
50.4281 9.11891 0
49.7703 11.5309 0
26.0689 27.601 0
24.0362 29.0547 0
49.6498 27.4125 0
49.8898 24.9245 0
89.3029 25.546 0
91.8022 25.4573 0
78.9727 32.2053 0
76.6407 33.0987 0
76.1945 37.5347 0
76.6368 35.0804 0
22.685 1.49991 0
23.5138 3.84507 0
17.2407 11.9962 0
15.7638 9.99002 0
76.5304 35.884 0
78.3957 34.2268 0
25.5378 42.9081 0
23.7523 41.1631 0
24.9576 3.60663 0
23.1393 1.91309 0
86.897 24.5222 0
85.0411 22.8483 0
84.0698 33.5885 0
83.1857 31.257 0
68.0014 9.2458 0
65.8985 7.89088 0
6.42911 3.79529 0
4.66034 5.56174 0
88.4782 7.28245 0
89.3616 4.95315 0
68.0787 40.9545 0
69.9163 39.2637 0
33.5881 18.962 0
33.4883 21.4575 0
18.397 18.4292 0
19.9954 20.3427 0
51.0064 20.7728 0
51.995 18.4773 0
81.2028 27.3227 0
79.0044 26.134 0
33.653 33.7957 0
31.473 35.0184 0
42.08 36.7762 0
44.269 35.5713 0
9.49422 8.112 0
8.12127 6.03071 0
46.3955 9.16563 0
43.9192 9.50257 0
38.9222 45.9232 0
36.7384 44.7076 0
56.6706 44.9003 0
57.0842 42.4353 0
50.8193 7.90346 0
52.1417 10.0249 0
69.3074 9.67776 0
68.1971 11.9121 0
52.7869 10.7849 0
53.9934 8.59564 0
87.9559 0.591961 0
87.4346 3.02771 0
87.5799 29.7708 0
88.4999 27.4623 0
27.7773 27.9271 0
29.3323 25.9715 0
41.1464 3.31523 0
43.5686 2.69142 0
47.3837 29.3934 0
44.8876 29.3149 0
44.9011 23.2838 0
42.4264 22.9493 0
57.5524 36.3159 0
55.6903 34.6493 0
79.9243 4.8017 0
81.3142 6.87519 0
32.9989 1.59534 0
31.333 3.46044 0
37.9972 49.8389 0
37.9257 51.4071 0
37.9257 51.4071 0
37.7176 52.9632 0
37.7176 52.9632 0
37.3746 54.4952 0
37.3746 54.4952 0
36.8991 55.9916 0
36.8991 55.9916 0
36.295 57.4408 0
36.295 57.4408 0
35.5668 58.8319 0
35.5668 58.8319 0
34.7201 60.1542 0
34.7201 60.1542 0
33.7614 61.3977 0
33.7614 61.3977 0
32.6979 62.553 0
32.6979 62.553 0
31.5378 63.6113 0
31.5378 63.6113 0
30.2899 64.5645 0
30.2899 64.5645 0
28.9637 65.4054 0
28.9637 65.4054 0
27.5693 66.1276 0
27.5693 66.1276 0
26.1173 66.7256 0
26.1173 66.7256 0
24.6187 67.195 0
24.6187 67.195 0
23.0849 67.5321 0
23.0849 67.5321 0
21.5276 67.7344 0
21.5276 67.7344 0
19.9586 67.8003 0
19.9586 67.8003 0
18.3898 67.7294 0
18.3898 67.7294 0
16.8332 67.5222 0
16.8332 67.5222 0
15.3005 67.1802 0
15.3005 67.1802 0
13.8034 66.7061 0
13.8034 66.7061 0
12.3533 66.1034 0
12.3533 66.1034 0
10.9612 65.3768 0
10.9612 65.3768 0
9.63769 64.5317 0
9.63769 64.5317 0
8.39282 63.5745 0
8.39282 63.5745 0
7.23608 62.5126 0
7.23608 62.5126 0
6.17626 61.354 0
6.17626 61.354 0
5.22146 60.1074 0
5.22146 60.1074 0
4.37894 58.7824 0
4.37894 58.7824 0
3.65512 57.3891 0
3.65512 57.3891 0
3.05556 55.9379 0
3.05556 55.9379 0
2.58483 54.4401 0
2.58483 54.4401 0
2.24653 52.907 0
2.24653 52.907 0
2.04329 51.3503 0
2.04329 51.3503 0
1.97669 49.7818 0
1.97669 49.7818 0
2.04724 48.2136 0
2.04724 48.2136 0
2.25447 46.6576 0
2.25447 46.6576 0
2.59682 45.1258 0
2.59682 45.1258 0
3.07169 43.6298 0
3.07169 43.6298 0
3.67552 42.1812 0
3.67552 42.1812 0
4.4037 40.7912 0
4.4037 40.7912 0
5.2507 39.4704 0
5.2507 39.4704 0
6.21012 38.2293 0
6.21012 38.2293 0
7.27453 37.0775 0
7.27453 37.0775 0
8.43591 36.0243 0
8.43591 36.0243 0
9.68539 35.0788 0
9.68539 35.0788 0
11.0136 34.2487 0
11.0136 34.2487 0
12.4118 33.5382 0
12.4118 33.5382 0
13.8657 32.9443 0
13.8657 32.9443 0
15.3636 32.4747 0
15.3636 32.4747 0
16.896 32.1358 0
16.896 32.1358 0
18.4523 31.9308 0
18.4523 31.9308 0
20.0204 31.8617 0
20.0204 31.8617 0
21.5887 31.9291 0
21.5887 31.9291 0
23.1449 32.1326 0
23.1449 32.1326 0
24.6772 32.4707 0
24.6772 32.4707 0
26.174 32.9408 0
26.174 32.9408 0
27.6238 33.5396 0
27.6238 33.5396 0
29.0156 34.2627 0
29.0156 34.2627 0
30.3387 35.1046 0
30.3387 35.1046 0
31.5832 36.0588 0
31.5832 36.0588 0
32.7396 37.1181 0
32.7396 37.1181 0
33.799 38.2745 0
33.799 38.2745 0
34.7535 39.5192 0
34.7535 39.5192 0
35.5958 40.8425 0
35.5958 40.8425 0
36.3195 42.2346 0
36.3195 42.2346 0
36.919 43.6847 0
36.919 43.6847 0
37.3897 45.1817 0
37.3897 45.1817 0
37.728 46.7143 0
37.728 46.7143 0
37.9311 48.2707 0
37.9311 48.2707 0
37.9972 49.8389 0
98.0234 49.7816 0
97.9567 51.3501 0
97.9567 51.3501 0
97.7535 52.9068 0
97.7535 52.9068 0
97.4152 54.4399 0
97.4152 54.4399 0
96.9445 55.9378 0
96.9445 55.9378 0
96.3449 57.3889 0
96.3449 57.3889 0
95.6211 58.7822 0
95.6211 58.7822 0
94.7786 60.1072 0
94.7786 60.1072 0
93.8237 61.3537 0
93.8237 61.3537 0
92.7639 62.5124 0
92.7639 62.5124 0
91.6072 63.5743 0
91.6072 63.5743 0
90.3623 64.5314 0
90.3623 64.5314 0
89.0388 65.3765 0
89.0388 65.3765 0
87.6467 66.1032 0
87.6467 66.1032 0
86.1966 66.7058 0
86.1966 66.7058 0
84.6995 67.1799 0
84.6995 67.1799 0
83.1668 67.5219 0
83.1668 67.5219 0
81.6101 67.7291 0
81.6101 67.7291 0
80.0414 67.8 0
80.0414 67.8 0
78.4724 67.7341 0
78.4724 67.7341 0
76.9151 67.5318 0
76.9151 67.5318 0
75.3813 67.1947 0
75.3813 67.1947 0
73.8827 66.7253 0
73.8827 66.7253 0
72.4307 66.1273 0
72.4307 66.1273 0
71.0363 65.405 0
71.0363 65.405 0
69.7101 64.5641 0
69.7101 64.5641 0
68.4622 63.6109 0
68.4622 63.6109 0
67.3021 62.5527 0
67.3021 62.5527 0
66.2387 61.3974 0
66.2387 61.3974 0
65.2799 60.1538 0
65.2799 60.1538 0
64.4332 58.8315 0
64.4332 58.8315 0
63.7051 57.4404 0
63.7051 57.4404 0
63.1009 55.9912 0
63.1009 55.9912 0
62.6255 54.4949 0
62.6255 54.4949 0
62.2825 52.9628 0
62.2825 52.9628 0
62.0744 51.4067 0
62.0744 51.4067 0
62.003 49.8385 0
62.003 49.8385 0
62.069 48.2703 0
62.069 48.2703 0
62.2721 46.7139 0
62.2721 46.7139 0
62.6104 45.1814 0
62.6104 45.1814 0
63.0812 43.6843 0
63.0812 43.6843 0
63.6806 42.2342 0
63.6806 42.2342 0
64.4043 40.8422 0
64.4043 40.8422 0
65.2465 39.5188 0
65.2465 39.5188 0
66.201 38.2742 0
66.201 38.2742 0
67.2605 37.1178 0
67.2605 37.1178 0
68.4169 36.0585 0
68.4169 36.0585 0
69.6614 35.1043 0
69.6614 35.1043 0
70.9846 34.2625 0
70.9846 34.2625 0
72.3763 33.5395 0
72.3763 33.5395 0
73.8261 32.9405 0
73.8261 32.9405 0
75.3229 32.4701 0
75.3229 32.4701 0
76.8553 32.132 0
76.8553 32.132 0
78.4115 31.9286 0
78.4115 31.9286 0
79.9796 31.8613 0
79.9796 31.8613 0
81.5478 31.9304 0
81.5478 31.9304 0
83.1041 32.1355 0
83.1041 32.1355 0
84.6368 32.4744 0
84.6368 32.4744 0
86.1346 32.9441 0
86.1346 32.9441 0
87.588 33.5381 0
87.588 33.5381 0
88.9866 34.2486 0
88.9866 34.2486 0
90.315 35.079 0
90.315 35.079 0
91.5642 36.0244 0
91.5642 36.0244 0
92.7255 37.0773 0
92.7255 37.0773 0
93.79 38.2291 0
93.79 38.2291 0
94.7494 39.4702 0
94.7494 39.4702 0
95.5964 40.7911 0
95.5964 40.7911 0
96.3246 42.1811 0
96.3246 42.1811 0
96.9284 43.6296 0
96.9284 43.6296 0
97.4033 45.1256 0
97.4033 45.1256 0
97.7456 46.6575 0
97.7456 46.6575 0
97.9528 48.2134 0
97.9528 48.2134 0
98.0234 49.7816 0
      </DataArray>
    </Points>
    <Cells>
      <DataArray type="Int32" Name="connectivity" format="ascii">
247 120 114 753 754 755 
213 114 214 748 749 750 
487 220 257 647 745 730 
257 115 260 741 742 743 
246 300 116 738 739 740 
212 116 247 731 732 733 
246 257 117 724 725 726 
299 117 312 719 720 721 
303 310 118 716 717 718 
248 118 256 711 712 713 
513 495 483 150 224 119 
507 513 483 151 119 184 
248 120 302 704 705 706 
221 258 121 1196 1197 1198 
259 121 313 1191 1192 1193 
464 430 432 332 409 122 
436 464 432 326 122 408 
346 1189 123 1186 1187 1188 
298 123 351 1181 1182 1183 
71 311 124 699 700 701 
65 124 372 692 693 694 
79 369 125 687 688 689 
684 125 309 680 681 682 
211 243 126 1178 1179 1180 
244 126 297 1173 1174 1175 
462 474 436 240 281 127 
438 462 436 294 127 327 
512 515 514 131 129 134 
513 509 511 130 132 135 
514 515 510 129 139 128 
508 514 510 148 128 147 
496 500 514 146 133 149 
513 499 495 136 145 150 
507 509 513 143 130 151 
505 491 497 141 142 154 
504 515 512 137 131 155 
174 503 511 1151 156 144 
512 514 500 134 133 159 
499 513 511 136 135 162 
494 515 504 138 137 165 
171 510 515 1164 139 166 
140 167 168 678 674 675 
167 492 168 672 661 674 
491 505 506 141 153 169 
177 498 497 656 164 170 
173 490 174 1156 1149 1171 
217 489 503 1126 176 175 
495 499 498 145 163 178 
501 500 496 158 146 179 
172 486 181 1162 1145 1169 
496 514 508 149 148 183 
480 481 140 227 152 187 
479 506 505 188 153 190 
477 505 497 191 154 193 
504 512 475 155 160 194 
472 511 503 161 156 197 
501 502 471 157 199 200 
500 501 470 158 201 202 
475 512 500 160 159 203 
499 511 472 162 161 204 
498 499 469 163 205 206 
497 498 468 164 207 208 
494 504 474 165 195 210 
211 493 171 1165 1161 1166 
167 180 212 667 668 669 
168 492 213 661 662 663 
214 488 177 657 653 658 
172 171 215 1158 1159 1160 
173 185 216 1153 1154 1155 
174 490 217 1149 1127 1150 
473 503 489 196 176 218 
177 488 219 653 643 654 
220 487 180 647 648 649 
182 181 221 1142 1143 1144 
496 508 115 183 222 747 
225 484 185 886 1138 1139 
482 502 481 198 186 226 
506 480 140 189 187 677 
480 506 479 189 188 228 
479 505 478 190 192 229 
478 505 477 192 191 230 
477 497 476 193 209 231 
474 504 475 195 194 232 
472 503 473 197 196 233 
471 502 482 199 198 234 
470 501 471 201 200 235 
475 500 470 203 202 236 
469 499 472 205 204 237 
468 498 469 207 206 238 
476 497 468 209 208 239 
494 474 461 210 241 242 
215 245 249 1133 1134 1135 
216 250 251 1128 1129 1130 
217 252 253 1123 1124 1125 
307 451 473 1047 255 254 
223 219 256 640 641 642 
583 263 223 1074 637 628 
582 261 264 1120 1121 1122 
445 482 481 265 226 268 
444 481 480 267 227 270 
443 480 479 269 228 272 
442 479 478 271 229 274 
441 478 477 273 230 276 
440 477 476 275 231 278 
474 475 436 232 280 281 
472 473 435 233 283 284 
471 482 446 234 266 286 
470 471 434 235 287 288 
464 475 470 279 236 289 
469 472 463 237 285 290 
468 469 433 238 291 292 
439 476 468 277 239 293 
461 474 462 241 240 295 
296 460 243 1071 1116 1117 
245 244 298 1107 1108 1109 
258 249 304 1100 1101 1102 
250 262 305 1095 1096 1097 
252 251 306 1088 1089 1090 
253 452 307 1084 1044 1085 
437 473 451 282 255 308 
633 314 591 871 832 1082 
262 261 316 1075 1076 1077 
318 629 578 854 810 809 
446 482 445 266 265 319 
445 481 444 268 267 320 
444 480 443 270 269 321 
443 479 442 272 271 322 
442 478 441 274 273 323 
441 477 440 276 275 324 
440 476 439 278 277 325 
436 475 464 280 279 326 
435 473 437 283 282 328 
463 472 435 285 284 329 
434 471 446 287 286 330 
464 470 434 289 288 331 
433 469 463 291 290 334 
439 468 433 293 292 335 
462 438 43 294 338 339 
461 462 45 295 340 341 
296 342 343 1068 1069 1070 
297 344 345 1063 1064 1065 
299 311 347 621 622 623 
301 300 348 616 617 618 
302 301 349 609 610 611 
309 303 350 602 603 604 
304 352 353 1058 1059 1060 
305 358 359 1053 1054 1055 
306 361 362 1048 1049 1050 
307 452 364 1044 934 1045 
437 451 109 308 367 368 
599 317 597 848 850 1042 
592 315 593 841 840 1040 
313 355 375 1035 1036 1037 
585 586 587 1032 1033 1034 
356 316 378 1027 1028 1029 
578 579 580 1024 1025 1026 
3 446 445 381 319 383 
7 445 444 384 320 386 
11 444 443 387 321 389 
15 443 442 390 322 392 
19 442 441 393 323 395 
23 441 440 396 324 398 
27 440 439 399 325 401 
432 438 436 336 327 408 
435 437 431 328 337 410 
429 463 435 333 329 411 
434 446 0 330 382 413 
430 464 434 332 331 414 
433 463 429 334 333 415 
1 439 433 402 335 416 
39 438 432 404 336 417 
431 437 940 337 407 418 
43 438 41 338 405 42 
45 462 43 340 339 44 
47 49 342 48 1019 1020 
344 343 51 1009 1010 1011 
346 345 1013 1000 1001 1002 
348 347 702 569 570 571 
350 349 75 560 561 562 
352 351 55 991 992 993 
354 353 979 984 985 986 
355 354 995 975 976 977 
357 356 89 968 969 970 
358 357 956 959 960 961 
360 359 972 952 953 954 
361 360 95 943 944 945 
363 362 99 936 937 938 
364 363 103 927 928 929 
107 451 105 366 365 106 
109 451 107 367 366 108 
931 437 109 406 368 110 
370 369 548 553 554 555 
371 370 690 544 545 546 
372 374 532 537 538 539 
374 373 696 528 529 530 
376 375 61 920 921 922 
924 523 524 915 916 917 
378 380 85 908 909 910 
516 911 518 903 904 905 
0 446 3 382 381 2 
3 445 5 383 385 4 
5 445 7 385 384 6 
7 444 9 386 388 8 
9 444 11 388 387 10 
11 443 13 389 391 12 
13 443 15 391 390 14 
15 442 17 392 394 16 
17 442 19 394 393 18 
19 441 21 395 397 20 
21 441 23 397 396 22 
23 440 25 398 400 24 
25 440 27 400 399 26 
27 439 29 401 403 28 
29 439 1 403 402 30 
41 438 39 405 404 40 
940 437 931 407 406 932 
432 430 31 409 423 419 
429 435 431 411 410 412 
93 429 431 426 412 422 
430 434 0 414 413 424 
1 433 429 416 415 428 
39 432 37 417 420 38 
947 431 940 421 418 941 
37 432 31 420 419 36 
93 431 947 422 421 948 
31 430 33 423 425 32 
33 430 0 425 424 34 
112 429 93 427 426 111 
1 429 112 428 427 113 
220 115 257 746 741 745 
518 899 519 896 897 898 
521 519 380 889 890 891 
630 264 225 882 883 884 
491 177 497 659 170 142 
481 502 140 186 676 152 
744 182 635 879 874 875 
120 247 467 753 735 707 
247 114 492 755 752 736 
114 120 488 754 710 751 
114 213 492 748 662 752 
213 214 491 750 660 665 
214 114 488 749 751 657 
115 220 496 746 652 747 
257 260 466 743 632 727 
182 485 635 878 870 874 
300 246 458 738 728 619 
246 116 487 740 737 729 
116 300 467 739 620 734 
116 212 487 731 670 737 
212 247 492 733 736 671 
247 116 467 732 734 735 
257 246 487 724 729 730 
246 117 458 726 723 728 
117 257 466 725 727 722 
117 299 458 719 625 723 
299 312 449 721 595 626 
312 117 466 720 722 596 
310 303 450 716 608 600 
303 118 457 718 715 605 
118 310 465 717 601 714 
118 248 457 711 708 715 
248 256 488 713 644 709 
256 118 465 712 714 645 
120 248 488 704 709 710 
248 302 457 706 613 708 
302 120 467 705 707 614 
311 71 573 699 72 624 
71 124 63 701 698 70 
124 311 449 700 627 695 
124 65 63 692 64 698 
65 372 67 694 542 66 
372 124 449 693 695 543 
369 79 81 687 80 556 
79 125 73 689 686 78 
125 369 450 688 559 683 
125 684 73 680 685 686 
684 309 564 682 606 565 
309 125 450 681 683 607 
167 140 502 678 676 679 
501 167 502 673 679 157 
140 168 506 675 666 677 
180 167 501 667 673 651 
167 212 492 669 671 672 
212 180 487 668 648 670 
506 168 213 666 663 664 
491 506 213 169 664 665 
491 214 177 660 658 659 
498 177 219 656 654 655 
495 498 219 178 655 646 
496 220 180 652 649 650 
501 496 180 179 650 651 
219 223 495 640 639 646 
223 256 465 642 645 636 
256 219 488 641 643 644 
495 223 263 639 637 638 
483 495 263 224 638 631 
633 635 634 867 868 869 
588 634 259 860 861 862 
629 318 630 854 855 856 
311 299 449 621 626 627 
299 347 458 623 577 625 
347 311 573 622 624 572 
300 301 467 616 615 620 
301 348 69 618 575 612 
348 300 458 617 619 576 
301 302 467 609 614 615 
302 349 457 611 568 613 
349 301 69 610 612 563 
303 309 450 602 607 608 
309 350 564 604 566 606 
350 303 457 603 605 567 
597 317 584 850 807 851 
599 550 581 845 846 847 
371 310 450 598 600 551 
590 315 592 835 841 842 
312 373 449 594 536 595 
593 589 531 836 837 838 
585 590 591 827 828 829 
587 523 589 818 819 820 
586 588 527 811 812 813 
578 583 584 802 803 804 
580 521 582 793 794 795 
579 581 516 784 785 786 
347 348 458 569 576 577 
348 702 69 571 703 575 
702 347 573 570 572 574 
349 350 457 560 567 568 
350 75 564 562 76 566 
75 349 69 561 563 74 
369 370 450 553 552 559 
370 548 557 555 549 547 
548 369 81 554 556 82 
370 371 450 544 551 552 
778 77 550 783 779 780 
690 370 557 545 547 558 
374 372 449 537 543 535 
372 532 67 539 68 542 
532 374 540 538 534 533 
373 374 449 528 535 536 
374 696 540 530 541 534 
531 59 773 772 777 774 
524 527 526 765 766 767 
762 526 376 756 757 758 
744 635 633 875 867 873 
260 744 633 877 873 872 
211 171 515 1166 166 1167 
494 211 515 1168 1167 138 
509 174 511 1152 144 132 
174 217 503 1150 175 1151 
629 583 578 1073 802 810 
465 583 223 805 628 636 
489 307 473 1086 254 218 
258 221 486 1196 1146 1105 
221 121 485 1198 1195 1147 
121 258 455 1197 1104 1194 
121 259 485 1191 864 1195 
259 313 448 1193 1038 865 
313 121 455 1192 1194 1039 
1189 346 1018 1186 1006 1023 
346 123 459 1188 1185 1007 
123 1189 35 1187 1190 1184 
123 298 459 1181 1111 1185 
298 351 456 1183 999 1112 
351 123 35 1182 1184 994 
243 211 494 1178 1168 1119 
211 126 493 1180 1177 1165 
126 243 460 1179 1116 1176 
126 244 493 1173 1115 1177 
244 297 459 1175 1066 1110 
297 126 460 1174 1176 1067 
173 174 509 1171 1152 1172 
507 173 509 1157 1172 143 
510 172 181 1163 1169 1170 
508 510 181 147 1170 1148 
171 172 510 1158 1163 1164 
172 215 486 1160 1136 1162 
215 171 493 1159 1161 1137 
185 173 507 1153 1157 1141 
173 216 490 1155 1131 1156 
216 185 484 1154 1138 1132 
181 182 508 1142 881 1148 
182 221 485 1144 1147 878 
221 181 486 1143 1145 1146 
225 185 507 1139 1141 1140 
483 225 507 887 1140 184 
245 215 493 1133 1137 1114 
215 249 486 1135 1106 1136 
249 245 456 1134 1113 1103 
250 216 484 1128 1132 1099 
216 251 490 1130 1094 1131 
251 250 453 1129 1098 1091 
252 217 490 1123 1127 1093 
217 253 489 1125 1087 1126 
253 252 452 1124 1092 1084 
261 582 447 1120 797 1078 
582 264 318 1122 888 798 
264 261 484 1121 1081 885 
461 296 243 1072 1117 1118 
494 461 243 242 1118 1119 
244 245 493 1107 1114 1115 
245 298 456 1109 1112 1113 
298 244 459 1108 1110 1111 
249 258 486 1100 1105 1106 
258 304 455 1102 1061 1104 
304 249 456 1101 1103 1062 
262 250 484 1095 1099 1080 
250 305 453 1097 1056 1098 
305 262 454 1096 1079 1057 
251 252 490 1088 1093 1094 
252 306 452 1090 1051 1092 
306 251 453 1089 1091 1052 
489 253 307 1087 1085 1086 
260 633 591 872 1082 1083 
466 260 591 632 1083 831 
261 262 484 1075 1080 1081 
262 316 454 1077 1031 1079 
316 261 447 1076 1078 1030 
583 629 263 1073 859 1074 
342 296 461 1068 1072 1022 
296 343 460 1070 1017 1071 
343 342 49 1069 1019 1012 
344 297 460 1063 1067 1016 
297 345 459 1065 1008 1066 
345 344 1004 1064 1015 1003 
352 304 456 1058 1062 998 
304 353 455 1060 990 1061 
353 352 57 1059 997 987 
358 305 454 1053 1057 966 
305 359 453 1055 958 1056 
359 358 963 1054 965 955 
361 306 453 1048 1052 950 
306 362 452 1050 942 1051 
362 361 97 1049 949 939 
451 307 364 1047 1045 1046 
105 451 364 365 1046 933 
371 599 597 849 1042 1043 
310 371 597 598 1043 852 
592 593 373 1040 839 1041 
312 592 373 844 1041 594 
355 313 455 1035 1039 982 
313 375 448 1037 926 1038 
375 355 53 1036 981 923 
586 585 314 1032 833 816 
585 587 315 1034 824 834 
587 586 377 1033 815 825 
316 356 454 1027 974 1031 
356 378 83 1029 913 971 
378 316 447 1028 1030 914 
579 578 317 1024 808 791 
578 580 318 1026 799 809 
580 579 379 1025 790 800 
45 47 342 46 1020 1021 
461 45 342 341 1021 1022 
343 344 460 1009 1016 1017 
344 51 1004 1011 52 1015 
51 343 49 1010 1012 50 
345 346 459 1000 1007 1008 
346 1013 1018 1002 1014 1006 
1013 345 1004 1001 1003 1005 
351 352 456 991 998 999 
352 55 57 993 56 997 
55 351 35 992 994 54 
353 354 455 984 983 990 
354 979 988 986 980 978 
979 353 57 985 987 58 
354 355 455 975 982 983 
355 995 53 977 996 981 
995 354 988 976 978 989 
356 357 454 968 967 974 
357 89 91 970 90 962 
89 356 83 969 971 88 
357 358 454 959 966 967 
358 956 963 961 957 965 
956 357 91 960 962 92 
359 360 453 952 951 958 
360 972 87 954 973 946 
972 359 963 953 955 964 
360 361 453 943 950 951 
361 95 97 945 96 949 
95 360 87 944 946 94 
362 363 452 936 935 942 
363 99 101 938 100 930 
99 362 97 937 939 98 
363 364 452 927 934 935 
364 103 105 929 104 933 
103 363 101 928 930 102 
375 376 448 920 760 926 
376 61 522 922 62 761 
61 375 53 921 923 60 
523 924 59 915 925 821 
924 524 918 917 769 919 
524 523 377 916 826 770 
380 378 447 908 914 894 
378 85 83 910 84 913 
85 380 517 909 893 86 
911 516 77 903 788 912 
516 518 379 905 900 789 
518 911 906 904 907 901 
899 518 906 896 901 902 
518 519 379 898 895 900 
519 899 517 897 520 892 
519 521 379 889 801 895 
521 380 447 891 894 796 
380 519 517 890 892 893 
264 630 318 882 855 888 
630 225 483 884 887 858 
225 264 484 883 885 886 
508 182 744 881 879 880 
115 508 744 222 880 876 
115 744 260 876 877 742 
633 634 314 869 866 871 
634 635 485 868 870 863 
634 588 314 860 817 866 
588 259 448 862 865 814 
259 634 485 861 863 864 
263 629 630 859 856 857 
483 263 630 631 857 858 
597 584 465 851 806 853 
310 597 465 852 853 601 
550 599 371 845 849 782 
599 581 317 847 792 848 
581 550 77 846 779 787 
466 590 592 830 842 843 
312 466 592 596 843 844 
589 593 315 836 840 823 
593 531 373 838 775 839 
531 589 59 837 822 772 
590 585 315 827 834 835 
585 591 314 829 832 833 
591 590 466 828 830 831 
523 587 377 818 825 826 
587 589 315 820 823 824 
589 523 59 819 821 822 
588 586 314 811 816 817 
586 527 377 813 771 815 
527 588 448 812 814 768 
578 584 317 804 807 808 
584 583 465 803 805 806 
521 580 379 793 800 801 
580 582 318 795 798 799 
582 521 447 794 796 797 
581 579 317 784 791 792 
579 516 379 786 789 790 
516 581 77 785 787 788 
690 778 550 691 780 781 
371 690 550 546 781 782 
531 773 696 774 697 776 
373 531 696 775 776 529 
527 524 377 765 770 771 
524 526 918 767 764 769 
526 527 448 766 768 759 
526 762 918 756 763 764 
762 376 522 758 761 525 
376 526 448 757 759 760 
1199 1200
1201 1202
1203 1204
1205 1206
1207 1208
1209 1210
1211 1212
1213 1214
1215 1216
1217 1218
1219 1220
1221 1222
1223 1224
1225 1226
1227 1228
1229 1230
1231 1232
1233 1234
1235 1236
1237 1238
1239 1240
1241 1242
1243 1244
1245 1246
1247 1248
1249 1250
1251 1252
1253 1254
1255 1256
1257 1258
1259 1260
1261 1262
1263 1264
1265 1266
1267 1268
1269 1270
1271 1272
1273 1274
1275 1276
1277 1278
1279 1280
1281 1282
1283 1284
1285 1286
1287 1288
1289 1290
1291 1292
1293 1294
1295 1296
1297 1298
1299 1300
1301 1302
1303 1304
1305 1306
1307 1308
1309 1310
1311 1312
1313 1314
1315 1316
1317 1318
1319 1320
1321 1322
1323 1324
1325 1326
1327 1328
1329 1330
1331 1332
1333 1334
1335 1336
1337 1338
1339 1340
1341 1342
1343 1344
1345 1346
1347 1348
1349 1350
1351 1352
1353 1354
1355 1356
1357 1358
1359 1360
1361 1362
1363 1364
1365 1366
1367 1368
1369 1370
1371 1372
1373 1374
1375 1376
1377 1378
1379 1380
1381 1382
1383 1384
1385 1386
1387 1388
1389 1390
1391 1392
1393 1394
1395 1396
1397 1398
1399 1400
1401 1402
1403 1404
1405 1406
1407 1408
1409 1410
1411 1412
1413 1414
1415 1416
1417 1418
1419 1420
1421 1422
1423 1424
1425 1426
1427 1428
1429 1430
1431 1432
1433 1434
1435 1436
1437 1438
1439 1440
1441 1442
1443 1444
1445 1446
1447 1448
1449 1450
1451 1452
1453 1454
1455 1456
1457 1458
1459 1460
1461 1462
1463 1464
1465 1466
1467 1468
1469 1470
1471 1472
1473 1474
1475 1476
1477 1478
1479 1480
1481 1482
1483 1484
1485 1486
1487 1488
1489 1490
1491 1492
1493 1494
1495 1496
1497 1498
1499 1500
1501 1502
1503 1504
1505 1506
1507 1508
1509 1510
1511 1512
1513 1514
1515 1516
1517 1518
1519 1520
1521 1522
1523 1524
1525 1526
1527 1528
1529 1530
1531 1532
1533 1534
1535 1536
1537 1538
1539 1540
1541 1542
1543 1544
1545 1546
1547 1548
1549 1550
1551 1552
1553 1554
1555 1556
1557 1558
1559 1560
1561 1562
1563 1564
1565 1566
1567 1568
1569 1570
1571 1572
1573 1574
1575 1576
1577 1578
1579 1580
1581 1582
1583 1584
1585 1586
1587 1588
1589 1590
1591 1592
1593 1594
1595 1596
1597 1598
1599 1600
1601 1602
1603 1604
1605 1606
1607 1608
1609 1610
1611 1612
1613 1614
1615 1616
1617 1618
1619 1620
1621 1622
1623 1624
1625 1626
1627 1628
1629 1630
1631 1632
1633 1634
1635 1636
1637 1638
1639 1640
1641 1642
1643 1644
1645 1646
1647 1648
1649 1650
1651 1652
1653 1654
1655 1656
1657 1658
1659 1660
1661 1662
1663 1664
1665 1666
1667 1668
1669 1670
1671 1672
1673 1674
1675 1676
1677 1678
1679 1680
1681 1682
1683 1684
1685 1686
1687 1688
1689 1690
1691 1692
1693 1694
1695 1696
1697 1698
1699 1700
1701 1702
1703 1704
1705 1706
1707 1708
1709 1710
1711 1712
1713 1714
1715 1716
1717 1718
1719 1720
1721 1722
1723 1724
1725 1726
1727 1728
1729 1730
1731 1732
1733 1734
1735 1736
1737 1738
1739 1740
1741 1742
1743 1744
1745 1746
1747 1748
1749 1750
1751 1752
1753 1754
1755 1756
1757 1758
1759 1760
1761 1762
1763 1764
1765 1766
1767 1768
1769 1770
1771 1772
1773 1774
1775 1776
1777 1778
1779 1780
1781 1782
1783 1784
1785 1786
1787 1788
1789 1790
1791 1792
1793 1794
1795 1796
1797 1798
1799 1800
1801 1802
1803 1804
1805 1806
1807 1808
1809 1810
1811 1812
1813 1814
1815 1816
1817 1818
1819 1820
1821 1822
1823 1824
1825 1826
1827 1828
1829 1830
1831 1832
1833 1834
1835 1836
1837 1838
1839 1840
1841 1842
1843 1844
1845 1846
1847 1848
1849 1850
1851 1852
1853 1854
1855 1856
1857 1858
1859 1860
1861 1862
1863 1864
1865 1866
1867 1868
1869 1870
1871 1872
1873 1874
1875 1876
1877 1878
1879 1880
1881 1882
1883 1884
1885 1886
1887 1888
1889 1890
1891 1892
1893 1894
1895 1896
1897 1898
1899 1900
1901 1902
1903 1904
1905 1906
1907 1908
1909 1910
1911 1912
1913 1914
1915 1916
1917 1918
1919 1920
1921 1922
1923 1924
1925 1926
1927 1928
1929 1930
1931 1932
1933 1934
1935 1936
1937 1938
1939 1940
1941 1942
1943 1944
1945 1946
1947 1948
1949 1950
1951 1952
1953 1954
1955 1956
1957 1958
1959 1960
1961 1962
1963 1964
1965 1966
1967 1968
1969 1970
1971 1972
1973 1974
1975 1976
1977 1978
1979 1980
1981 1982
1983 1984
1985 1986
1987 1988
1989 1990
1991 1992
1993 1994
1995 1996
1997 1998
1999 2000
2001 2002
2003 2004
2005 2006
2007 2008
2009 2010
2011 2012
2013 2014
2015 2016
2017 2018
2019 2020
2021 2022
2023 2024
2025 2026
2027 2028
2029 2030
2031 2032
2033 2034
2035 2036
2037 2038
2039 2040
2041 2042
2043 2044
2045 2046
2047 2048
2049 2050
2051 2052
2053 2054
2055 2056
2057 2058
2059 2060
2061 2062
2063 2064
2065 2066
2067 2068
2069 2070
2071 2072
2073 2074
2075 2076
2077 2078
2079 2080
2081 2082
2083 2084
2085 2086
2087 2088
2089 2090
2091 2092
2093 2094
2095 2096
2097 2098
2099 2100
2101 2102
2103 2104
2105 2106
2107 2108
2109 2110
2111 2112
2113 2114
2115 2116
2117 2118
2119 2120
2121 2122
2123 2124
2125 2126
2127 2128
2129 2130
2131 2132
2133 2134
2135 2136
2137 2138
2139 2140
2141 2142
2143 2144
2145 2146
2147 2148
2149 2150
2151 2152
2153 2154
2155 2156
2157 2158
2159 2160
2161 2162
2163 2164
2165 2166
2167 2168
2169 2170
2171 2172
2173 2174
2175 2176
2177 2178
2179 2180
2181 2182
2183 2184
2185 2186
2187 2188
2189 2190
2191 2192
2193 2194
2195 2196
2197 2198
2199 2200
2201 2202
2203 2204
2205 2206
2207 2208
2209 2210
2211 2212
2213 2214
2215 2216
2217 2218
2219 2220
2221 2222
2223 2224
2225 2226
2227 2228
2229 2230
2231 2232
2233 2234
2235 2236
2237 2238
2239 2240
2241 2242
2243 2244
2245 2246
2247 2248
2249 2250
2251 2252
2253 2254
2255 2256
2257 2258
2259 2260
2261 2262
2263 2264
2265 2266
2267 2268
2269 2270
2271 2272
2273 2274
2275 2276
2277 2278
2279 2280
2281 2282
2283 2284
2285 2286
2287 2288
2289 2290
2291 2292
2293 2294
2295 2296
2297 2298
2299 2300
2301 2302
2303 2304
2305 2306
2307 2308
2309 2310
2311 2312
2313 2314
2315 2316
2317 2318
2319 2320
2321 2322
2323 2324
2325 2326
2327 2328
2329 2330
2331 2332
2333 2334
2335 2336
2337 2338
2339 2340
2341 2342
2343 2344
2345 2346
2347 2348
2349 2350
2351 2352
2353 2354
2355 2356
2357 2358
2359 2360
2361 2362
2363 2364
2365 2366
2367 2368
2369 2370
2371 2372
2373 2374
2375 2376
2377 2378
2379 2380
2381 2382
2383 2384
2385 2386
2387 2388
2389 2390
2391 2392
2393 2394
2395 2396
2397 2398
2399 2400
2401 2402
2403 2404
2405 2406
2407 2408
2409 2410
2411 2412
2413 2414
2415 2416
2417 2418
2419 2420
2421 2422
2423 2424
2425 2426
2427 2428
2429 2430
2431 2432
2433 2434
2435 2436
2437 2438
2439 2440
2441 2442
2443 2444
2445 2446
2447 2448
2449 2450
2451 2452
2453 2454
2455 2456
2457 2458
2459 2460
2461 2462
2463 2464
2465 2466
2467 2468
2469 2470
2471 2472
2473 2474
2475 2476
2477 2478
2479 2480
2481 2482
2483 2484
2485 2486
2487 2488
2489 2490
2491 2492
2493 2494
2495 2496
2497 2498
2499 2500
2501 2502
2503 2504
2505 2506
2507 2508
2509 2510
2511 2512
2513 2514
2515 2516
2517 2518
2519 2520
2521 2522
2523 2524
2525 2526
2527 2528
2529 2530
2531 2532
2533 2534
2535 2536
2537 2538
2539 2540
2541 2542
2543 2544
2545 2546
2547 2548
2549 2550
2551 2552
2553 2554
2555 2556
2557 2558
2559 2560
2561 2562
2563 2564
2565 2566
2567 2568
2569 2570
2571 2572
2573 2574
2575 2576
2577 2578
2579 2580
2581 2582
2583 2584
2585 2586
2587 2588
2589 2590
2591 2592
2593 2594
2595 2596
2597 2598
2599 2600
2601 2602
2603 2604
2605 2606
2607 2608
2609 2610
2611 2612
2613 2614
2615 2616
2617 2618
2619 2620
2621 2622
2623 2624
2625 2626
2627 2628
2629 2630
2631 2632
2633 2634
2635 2636
2637 2638
2639 2640
2641 2642
2643 2644
2645 2646
2647 2648
2649 2650
2651 2652
2653 2654
2655 2656
2657 2658
2659 2660
2661 2662
2663 2664
2665 2666
2667 2668
2669 2670
2671 2672
2673 2674
2675 2676
2677 2678
2679 2680
2681 2682
2683 2684
2685 2686
2687 2688
2689 2690
2691 2692
2693 2694
2695 2696
2697 2698
2699 2700
2701 2702
2703 2704
2705 2706
2707 2708
2709 2710
2711 2712
2713 2714
2715 2716
2717 2718
2719 2720
2721 2722
2723 2724
2725 2726
2727 2728
2729 2730
2731 2732
2733 2734
2735 2736
2737 2738
2739 2740
2741 2742
2743 2744
2745 2746
2747 2748
2749 2750
2751 2752
2753 2754
2755 2756
2757 2758
2759 2760
2761 2762
2763 2764
2765 2766
2767 2768
2769 2770
2771 2772
2773 2774
2775 2776
2777 2778
2779 2780
2781 2782
2783 2784
2785 2786
2787 2788
2789 2790
2791 2792
2793 2794
2795 2796
2797 2798
2799 2800
2801 2802
2803 2804
2805 2806
2807 2808
2809 2810
2811 2812
2813 2814
2815 2816
2817 2818
2819 2820
2821 2822
2823 2824
2825 2826
2827 2828
2829 2830
2831 2832
2833 2834
2835 2836
2837 2838
2839 2840
2841 2842
2843 2844
2845 2846
2847 2848
2849 2850
2851 2852
2853 2854
2855 2856
2857 2858
2859 2860
2861 2862
2863 2864
2865 2866
2867 2868
2869 2870
2871 2872
2873 2874
2875 2876
2877 2878
2879 2880
2881 2882
2883 2884
2885 2886
2887 2888
2889 2890
2891 2892
2893 2894
2895 2896
2897 2898
2899 2900
2901 2902
2903 2904
2905 2906
2907 2908
2909 2910
2911 2912
2913 2914
2915 2916
2917 2918
2919 2920
2921 2922
2923 2924
2925 2926
2927 2928
2929 2930
2931 2932
2933 2934
2935 2936
2937 2938
2939 2940
2941 2942
2943 2944
2945 2946
2947 2948
2949 2950
2951 2952
2953 2954
2955 2956
2957 2958
2959 2960
2961 2962
2963 2964
2965 2966
2967 2968
2969 2970
2971 2972
2973 2974
2975 2976
2977 2978
2979 2980
2981 2982
2983 2984
2985 2986
2987 2988
2989 2990
2991 2992
2993 2994
2995 2996
2997 2998
2999 3000
3001 3002
3003 3004
3005 3006
3007 3008
3009 3010
3011 3012
3013 3014
3015 3016
3017 3018
3019 3020
3021 3022
3023 3024
3025 3026
3027 3028
3029 3030
3031 3032
3033 3034
3035 3036
3037 3038
3039 3040
3041 3042
3043 3044
3045 3046
3047 3048
3049 3050
3051 3052
3053 3054
3055 3056
3057 3058
3059 3060
3061 3062
3063 3064
3065 3066
3067 3068
3069 3070
3071 3072
3073 3074
3075 3076
3077 3078
3079 3080
3081 3082
3083 3084
3085 3086
3087 3088
3089 3090
3091 3092
3093 3094
3095 3096
3097 3098
3099 3100
3101 3102
3103 3104
3105 3106
3107 3108
3109 3110
3111 3112
3113 3114
3115 3116
3117 3118
3119 3120
3121 3122
3123 3124
3125 3126
3127 3128
3129 3130
3131 3132
3133 3134
3135 3136
3137 3138
3139 3140
3141 3142
3143 3144
3145 3146
3147 3148
3149 3150
3151 3152
3153 3154
3155 3156
3157 3158
3159 3160
3161 3162
3163 3164
3165 3166
3167 3168
3169 3170
3171 3172
3173 3174
3175 3176
3177 3178
3179 3180
3181 3182
3183 3184
3185 3186
3187 3188
3189 3190
3191 3192
3193 3194
3195 3196
3197 3198
3199 3200
3201 3202
3203 3204
3205 3206
3207 3208
3209 3210
3211 3212
3213 3214
3215 3216
3217 3218
3219 3220
3221 3222
3223 3224
3225 3226
3227 3228
3229 3230
3231 3232
3233 3234
3235 3236
3237 3238
3239 3240
3241 3242
3243 3244
3245 3246
3247 3248
3249 3250
3251 3252
3253 3254
3255 3256
3257 3258
3259 3260
3261 3262
3263 3264
3265 3266
3267 3268
3269 3270
3271 3272
3273 3274
3275 3276
3277 3278
3279 3280
3281 3282
3283 3284
3285 3286
3287 3288
3289 3290
3291 3292
3293 3294
3295 3296
3297 3298
3299 3300
3301 3302
3303 3304
3305 3306
3307 3308
3309 3310
3311 3312
3313 3314
3315 3316
3317 3318
3319 3320
3321 3322
3323 3324
3325 3326
3327 3328
3329 3330
3331 3332
3333 3334
3335 3336
3337 3338
3339 3340
3341 3342
3343 3344
3345 3346
3347 3348
3349 3350
3351 3352
3353 3354
3355 3356
3357 3358
3359 3360
3361 3362
3363 3364
3365 3366
3367 3368
3369 3370
3371 3372
3373 3374
3375 3376
3377 3378
3379 3380
3381 3382
3383 3384
3385 3386
3387 3388
3389 3390
3391 3392
3393 3394
3395 3396
3397 3398
3399 3400
3401 3402
3403 3404
3405 3406
3407 3408
3409 3410
3411 3412
3413 3414
3415 3416
3417 3418
3419 3420
3421 3422
3423 3424
3425 3426
3427 3428
3429 3430
3431 3432
3433 3434
3435 3436
3437 3438
3439 3440
3441 3442
3443 3444
3445 3446
3447 3448
3449 3450
3451 3452
3453 3454
3455 3456
3457 3458
3459 3460
3461 3462
3463 3464
3465 3466
3467 3468
3469 3470
3471 3472
3473 3474
3475 3476
3477 3478
3479 3480
3481 3482
3483 3484
3485 3486
      </DataArray>
      <DataArray type="Int32" Name="offsets" format="ascii">
6
12
18
24
30
36
42
48
54
60
66
72
78
84
90
96
102
108
114
120
126
132
138
144
150
156
162
168
174
180
186
192
198
204
210
216
222
228
234
240
246
252
258
264
270
276
282
288
294
300
306
312
318
324
330
336
342
348
354
360
366
372
378
384
390
396
402
408
414
420
426
432
438
444
450
456
462
468
474
480
486
492
498
504
510
516
522
528
534
540
546
552
558
564
570
576
582
588
594
600
606
612
618
624
630
636
642
648
654
660
666
672
678
684
690
696
702
708
714
720
726
732
738
744
750
756
762
768
774
780
786
792
798
804
810
816
822
828
834
840
846
852
858
864
870
876
882
888
894
900
906
912
918
924
930
936
942
948
954
960
966
972
978
984
990
996
1002
1008
1014
1020
1026
1032
1038
1044
1050
1056
1062
1068
1074
1080
1086
1092
1098
1104
1110
1116
1122
1128
1134
1140
1146
1152
1158
1164
1170
1176
1182
1188
1194
1200
1206
1212
1218
1224
1230
1236
1242
1248
1254
1260
1266
1272
1278
1284
1290
1296
1302
1308
1314
1320
1326
1332
1338
1344
1350
1356
1362
1368
1374
1380
1386
1392
1398
1404
1410
1416
1422
1428
1434
1440
1446
1452
1458
1464
1470
1476
1482
1488
1494
1500
1506
1512
1518
1524
1530
1536
1542
1548
1554
1560
1566
1572
1578
1584
1590
1596
1602
1608
1614
1620
1626
1632
1638
1644
1650
1656
1662
1668
1674
1680
1686
1692
1698
1704
1710
1716
1722
1728
1734
1740
1746
1752
1758
1764
1770
1776
1782
1788
1794
1800
1806
1812
1818
1824
1830
1836
1842
1848
1854
1860
1866
1872
1878
1884
1890
1896
1902
1908
1914
1920
1926
1932
1938
1944
1950
1956
1962
1968
1974
1980
1986
1992
1998
2004
2010
2016
2022
2028
2034
2040
2046
2052
2058
2064
2070
2076
2082
2088
2094
2100
2106
2112
2118
2124
2130
2136
2142
2148
2154
2160
2166
2172
2178
2184
2190
2196
2202
2208
2214
2220
2226
2232
2238
2244
2250
2256
2262
2268
2274
2280
2286
2292
2298
2304
2310
2316
2322
2328
2334
2340
2346
2352
2358
2364
2370
2376
2382
2388
2394
2400
2406
2412
2418
2424
2430
2436
2442
2448
2454
2460
2466
2472
2478
2484
2490
2496
2502
2508
2514
2520
2526
2532
2538
2544
2550
2556
2562
2568
2574
2580
2586
2592
2598
2604
2610
2616
2622
2628
2634
2640
2646
2652
2658
2664
2670
2676
2682
2688
2694
2700
2706
2712
2718
2724
2730
2736
2742
2748
2754
2760
2766
2772
2778
2784
2790
2796
2802
2808
2814
2820
2826
2832
2838
2844
2850
2856
2862
2868
2874
2880
2886
2892
2898
2904
2910
2916
2922
2928
2934
2940
2946
2952
2958
2964
2970
2976
2982
2988
2994
3000
3006
3012
3018
3024
3030
3036
3042
3048
3054
3060
3066
3072
3078
3084
3090
3096
3102
3108
3114
3120
3126
3132
3138
3144
3150
3156
3162
3168
3174
3180
3186
3192
3198
3204
3210
3216
3222
3228
3234
3240
3246
3252
3258
3264
3270
3276
3282
3288
3294
3300
3306
3312
3318
3324
3326
3328
3330
3332
3334
3336
3338
3340
3342
3344
3346
3348
3350
3352
3354
3356
3358
3360
3362
3364
3366
3368
3370
3372
3374
3376
3378
3380
3382
3384
3386
3388
3390
3392
3394
3396
3398
3400
3402
3404
3406
3408
3410
3412
3414
3416
3418
3420
3422
3424
3426
3428
3430
3432
3434
3436
3438
3440
3442
3444
3446
3448
3450
3452
3454
3456
3458
3460
3462
3464
3466
3468
3470
3472
3474
3476
3478
3480
3482
3484
3486
3488
3490
3492
3494
3496
3498
3500
3502
3504
3506
3508
3510
3512
3514
3516
3518
3520
3522
3524
3526
3528
3530
3532
3534
3536
3538
3540
3542
3544
3546
3548
3550
3552
3554
3556
3558
3560
3562
3564
3566
3568
3570
3572
3574
3576
3578
3580
3582
3584
3586
3588
3590
3592
3594
3596
3598
3600
3602
3604
3606
3608
3610
3612
3614
3616
3618
3620
3622
3624
3626
3628
3630
3632
3634
3636
3638
3640
3642
3644
3646
3648
3650
3652
3654
3656
3658
3660
3662
3664
3666
3668
3670
3672
3674
3676
3678
3680
3682
3684
3686
3688
3690
3692
3694
3696
3698
3700
3702
3704
3706
3708
3710
3712
3714
3716
3718
3720
3722
3724
3726
3728
3730
3732
3734
3736
3738
3740
3742
3744
3746
3748
3750
3752
3754
3756
3758
3760
3762
3764
3766
3768
3770
3772
3774
3776
3778
3780
3782
3784
3786
3788
3790
3792
3794
3796
3798
3800
3802
3804
3806
3808
3810
3812
3814
3816
3818
3820
3822
3824
3826
3828
3830
3832
3834
3836
3838
3840
3842
3844
3846
3848
3850
3852
3854
3856
3858
3860
3862
3864
3866
3868
3870
3872
3874
3876
3878
3880
3882
3884
3886
3888
3890
3892
3894
3896
3898
3900
3902
3904
3906
3908
3910
3912
3914
3916
3918
3920
3922
3924
3926
3928
3930
3932
3934
3936
3938
3940
3942
3944
3946
3948
3950
3952
3954
3956
3958
3960
3962
3964
3966
3968
3970
3972
3974
3976
3978
3980
3982
3984
3986
3988
3990
3992
3994
3996
3998
4000
4002
4004
4006
4008
4010
4012
4014
4016
4018
4020
4022
4024
4026
4028
4030
4032
4034
4036
4038
4040
4042
4044
4046
4048
4050
4052
4054
4056
4058
4060
4062
4064
4066
4068
4070
4072
4074
4076
4078
4080
4082
4084
4086
4088
4090
4092
4094
4096
4098
4100
4102
4104
4106
4108
4110
4112
4114
4116
4118
4120
4122
4124
4126
4128
4130
4132
4134
4136
4138
4140
4142
4144
4146
4148
4150
4152
4154
4156
4158
4160
4162
4164
4166
4168
4170
4172
4174
4176
4178
4180
4182
4184
4186
4188
4190
4192
4194
4196
4198
4200
4202
4204
4206
4208
4210
4212
4214
4216
4218
4220
4222
4224
4226
4228
4230
4232
4234
4236
4238
4240
4242
4244
4246
4248
4250
4252
4254
4256
4258
4260
4262
4264
4266
4268
4270
4272
4274
4276
4278
4280
4282
4284
4286
4288
4290
4292
4294
4296
4298
4300
4302
4304
4306
4308
4310
4312
4314
4316
4318
4320
4322
4324
4326
4328
4330
4332
4334
4336
4338
4340
4342
4344
4346
4348
4350
4352
4354
4356
4358
4360
4362
4364
4366
4368
4370
4372
4374
4376
4378
4380
4382
4384
4386
4388
4390
4392
4394
4396
4398
4400
4402
4404
4406
4408
4410
4412
4414
4416
4418
4420
4422
4424
4426
4428
4430
4432
4434
4436
4438
4440
4442
4444
4446
4448
4450
4452
4454
4456
4458
4460
4462
4464
4466
4468
4470
4472
4474
4476
4478
4480
4482
4484
4486
4488
4490
4492
4494
4496
4498
4500
4502
4504
4506
4508
4510
4512
4514
4516
4518
4520
4522
4524
4526
4528
4530
4532
4534
4536
4538
4540
4542
4544
4546
4548
4550
4552
4554
4556
4558
4560
4562
4564
4566
4568
4570
4572
4574
4576
4578
4580
4582
4584
4586
4588
4590
4592
4594
4596
4598
4600
4602
4604
4606
4608
4610
4612
4614
4616
4618
4620
4622
4624
4626
4628
4630
4632
4634
4636
4638
4640
4642
4644
4646
4648
4650
4652
4654
4656
4658
4660
4662
4664
4666
4668
4670
4672
4674
4676
4678
4680
4682
4684
4686
4688
4690
4692
4694
4696
4698
4700
4702
4704
4706
4708
4710
4712
4714
4716
4718
4720
4722
4724
4726
4728
4730
4732
4734
4736
4738
4740
4742
4744
4746
4748
4750
4752
4754
4756
4758
4760
4762
4764
4766
4768
4770
4772
4774
4776
4778
4780
4782
4784
4786
4788
4790
4792
4794
4796
4798
4800
4802
4804
4806
4808
4810
4812
4814
4816
4818
4820
4822
4824
4826
4828
4830
4832
4834
4836
4838
4840
4842
4844
4846
4848
4850
4852
4854
4856
4858
4860
4862
4864
4866
4868
4870
4872
4874
4876
4878
4880
4882
4884
4886
4888
4890
4892
4894
4896
4898
4900
4902
4904
4906
4908
4910
4912
4914
4916
4918
4920
4922
4924
4926
4928
4930
4932
4934
4936
4938
4940
4942
4944
4946
4948
4950
4952
4954
4956
4958
4960
4962
4964
4966
4968
4970
4972
4974
4976
4978
4980
4982
4984
4986
4988
4990
4992
4994
4996
4998
5000
5002
5004
5006
5008
5010
5012
5014
5016
5018
5020
5022
5024
5026
5028
5030
5032
5034
5036
5038
5040
5042
5044
5046
5048
5050
5052
5054
5056
5058
5060
5062
5064
5066
5068
5070
5072
5074
5076
5078
5080
5082
5084
5086
5088
5090
5092
5094
5096
5098
5100
5102
5104
5106
5108
5110
5112
5114
5116
5118
5120
5122
5124
5126
5128
5130
5132
5134
5136
5138
5140
5142
5144
5146
5148
5150
5152
5154
5156
5158
5160
5162
5164
5166
5168
5170
5172
5174
5176
5178
5180
5182
5184
5186
5188
5190
5192
5194
5196
5198
5200
5202
5204
5206
5208
5210
5212
5214
5216
5218
5220
5222
5224
5226
5228
5230
5232
5234
5236
5238
5240
5242
5244
5246
5248
5250
5252
5254
5256
5258
5260
5262
5264
5266
5268
5270
5272
5274
5276
5278
5280
5282
5284
5286
5288
5290
5292
5294
5296
5298
5300
5302
5304
5306
5308
5310
5312
5314
5316
5318
5320
5322
5324
5326
5328
5330
5332
5334
5336
5338
5340
5342
5344
5346
5348
5350
5352
5354
5356
5358
5360
5362
5364
5366
5368
5370
5372
5374
5376
5378
5380
5382
5384
5386
5388
5390
5392
5394
5396
5398
5400
5402
5404
5406
5408
5410
5412
5414
5416
5418
5420
5422
5424
5426
5428
5430
5432
5434
5436
5438
5440
5442
5444
5446
5448
5450
5452
5454
5456
5458
5460
5462
5464
5466
5468
5470
5472
5474
5476
5478
5480
5482
5484
5486
5488
5490
5492
5494
5496
5498
5500
5502
5504
5506
5508
5510
5512
5514
5516
5518
5520
5522
5524
5526
5528
5530
5532
5534
5536
5538
5540
5542
5544
5546
5548
5550
5552
5554
5556
5558
5560
5562
5564
5566
5568
5570
5572
5574
5576
5578
5580
5582
5584
5586
5588
5590
5592
5594
5596
5598
5600
5602
5604
5606
5608
5610
5612
      </DataArray>
      <DataArray type="UInt8" Name="types" format="ascii">
69
69
69
69
69
69
69
69
69
69
69
69
69
69
69
69
69
69
69
69
69
69
69
69
69
69
69
69
69
69
69
69
69
69
69
69
69
69
69
69
69
69
69
69
69
69
69
69
69
69
69
69
69
69
69
69
69
69
69
69
69
69
69
69
69
69
69
69
69
69
69
69
69
69
69
69
69
69
69
69
69
69
69
69
69
69
69
69
69
69
69
69
69
69
69
69
69
69
69
69
69
69
69
69
69
69
69
69
69
69
69
69
69
69
69
69
69
69
69
69
69
69
69
69
69
69
69
69
69
69
69
69
69
69
69
69
69
69
69
69
69
69
69
69
69
69
69
69
69
69
69
69
69
69
69
69
69
69
69
69
69
69
69
69
69
69
69
69
69
69
69
69
69
69
69
69
69
69
69
69
69
69
69
69
69
69
69
69
69
69
69
69
69
69
69
69
69
69
69
69
69
69
69
69
69
69
69
69
69
69
69
69
69
69
69
69
69
69
69
69
69
69
69
69
69
69
69
69
69
69
69
69
69
69
69
69
69
69
69
69
69
69
69
69
69
69
69
69
69
69
69
69
69
69
69
69
69
69
69
69
69
69
69
69
69
69
69
69
69
69
69
69
69
69
69
69
69
69
69
69
69
69
69
69
69
69
69
69
69
69
69
69
69
69
69
69
69
69
69
69
69
69
69
69
69
69
69
69
69
69
69
69
69
69
69
69
69
69
69
69
69
69
69
69
69
69
69
69
69
69
69
69
69
69
69
69
69
69
69
69
69
69
69
69
69
69
69
69
69
69
69
69
69
69
69
69
69
69
69
69
69
69
69
69
69
69
69
69
69
69
69
69
69
69
69
69
69
69
69
69
69
69
69
69
69
69
69
69
69
69
69
69
69
69
69
69
69
69
69
69
69
69
69
69
69
69
69
69
69
69
69
69
69
69
69
69
69
69
69
69
69
69
69
69
69
69
69
69
69
69
69
69
69
69
69
69
69
69
69
69
69
69
69
69
69
69
69
69
69
69
69
69
69
69
69
69
69
69
69
69
69
69
69
69
69
69
69
69
69
69
69
69
69
69
69
69
69
69
69
69
69
69
69
69
69
69
69
69
69
69
69
69
69
69
69
69
69
69
69
69
69
69
69
69
69
69
69
69
69
69
69
69
69
69
69
69
69
69
69
69
69
69
69
69
69
69
69
69
69
69
69
69
69
69
69
69
69
69
69
69
69
69
69
69
69
69
69
69
69
69
69
69
69
69
3
3
3
3
3
3
3
3
3
3
3
3
3
3
3
3
3
3
3
3
3
3
3
3
3
3
3
3
3
3
3
3
3
3
3
3
3
3
3
3
3
3
3
3
3
3
3
3
3
3
3
3
3
3
3
3
3
3
3
3
3
3
3
3
3
3
3
3
3
3
3
3
3
3
3
3
3
3
3
3
3
3
3
3
3
3
3
3
3
3
3
3
3
3
3
3
3
3
3
3
3
3
3
3
3
3
3
3
3
3
3
3
3
3
3
3
3
3
3
3
3
3
3
3
3
3
3
3
3
3
3
3
3
3
3
3
3
3
3
3
3
3
3
3
3
3
3
3
3
3
3
3
3
3
3
3
3
3
3
3
3
3
3
3
3
3
3
3
3
3
3
3
3
3
3
3
3
3
3
3
3
3
3
3
3
3
3
3
3
3
3
3
3
3
3
3
3
3
3
3
3
3
3
3
3
3
3
3
3
3
3
3
3
3
3
3
3
3
3
3
3
3
3
3
3
3
3
3
3
3
3
3
3
3
3
3
3
3
3
3
3
3
3
3
3
3
3
3
3
3
3
3
3
3
3
3
3
3
3
3
3
3
3
3
3
3
3
3
3
3
3
3
3
3
3
3
3
3
3
3
3
3
3
3
3
3
3
3
3
3
3
3
3
3
3
3
3
3
3
3
3
3
3
3
3
3
3
3
3
3
3
3
3
3
3
3
3
3
3
3
3
3
3
3
3
3
3
3
3
3
3
3
3
3
3
3
3
3
3
3
3
3
3
3
3
3
3
3
3
3
3
3
3
3
3
3
3
3
3
3
3
3
3
3
3
3
3
3
3
3
3
3
3
3
3
3
3
3
3
3
3
3
3
3
3
3
3
3
3
3
3
3
3
3
3
3
3
3
3
3
3
3
3
3
3
3
3
3
3
3
3
3
3
3
3
3
3
3
3
3
3
3
3
3
3
3
3
3
3
3
3
3
3
3
3
3
3
3
3
3
3
3
3
3
3
3
3
3
3
3
3
3
3
3
3
3
3
3
3
3
3
3
3
3
3
3
3
3
3
3
3
3
3
3
3
3
3
3
3
3
3
3
3
3
3
3
3
3
3
3
3
3
3
3
3
3
3
3
3
3
3
3
3
3
3
3
3
3
3
3
3
3
3
3
3
3
3
3
3
3
3
3
3
3
3
3
3
3
3
3
3
3
3
3
3
3
3
3
3
3
3
3
3
3
3
3
3
3
3
3
3
3
3
3
3
3
3
3
3
3
3
3
3
3
3
3
3
3
3
3
3
3
3
3
3
3
3
3
3
3
3
3
3
3
3
3
3
3
3
3
3
3
3
3
3
3
3
3
3
3
3
3
3
3
3
3
3
3
3
3
3
3
3
3
3
3
3
3
3
3
3
3
3
3
3
3
3
3
3
3
3
3
3
3
3
3
3
3
3
3
3
3
3
3
3
3
3
3
3
3
3
3
3
3
3
3
3
3
3
3
3
3
3
3
3
3
3
3
3
3
3
3
3
3
3
3
3
3
3
3
3
3
3
3
3
3
3
3
3
3
3
3
3
3
3
3
3
3
3
3
3
3
3
3
3
3
3
3
3
3
3
3
3
3
3
3
3
3
3
3
3
3
3
3
3
3
3
3
3
3
3
3
3
3
3
3
3
3
3
3
3
3
3
3
3
3
3
3
3
3
3
3
3
3
3
3
3
3
3
3
3
3
3
3
3
3
3
3
3
3
3
3
3
3
3
3
3
3
3
3
3
3
3
3
3
3
3
3
3
3
3
3
3
3
3
3
3
3
3
3
3
3
3
3
3
3
3
3
3
3
3
3
3
3
3
3
3
3
3
3
3
3
3
3
3
3
3
3
3
3
3
3
3
3
3
3
3
3
3
3
3
3
3
3
3
3
3
3
3
3
3
3
3
3
3
3
3
3
3
3
3
3
3
3
3
3
3
3
3
3
3
3
3
3
3
3
3
3
3
3
3
3
3
3
3
3
3
3
3
3
3
3
3
3
3
3
3
3
3
3
3
3
3
3
3
3
3
3
3
3
3
3
3
3
3
3
3
3
3
3
3
3
3
3
3
3
3
3
3
3
3
3
3
3
3
3
3
3
3
3
3
3
3
3
3
3
3
3
3
3
3
3
3
3
3
3
3
3
3
3
3
3
3
3
3
3
3
3
3
3
3
3
3
3
3
3
3
3
3
3
3
3
3
3
3
3
3
3
3
3
3
3
3
3
3
3
3
3
3
3
3
3
3
3
3
3
3
3
3
3
3
3
3
3
3
3
3
3
3
3
3
3
3
3
3
3
3
3
3
3
3
3
3
3
3
3
3
3
3
3
3
3
3
3
3
3
3
3
3
3
3
3
3
3
3
3
3
3
3
3
3
3
3
3
3
3
3
3
3
3
3
3
3
3
3
3
3
3
3
3
3
3
3
3
3
3
3
3
3
3
3
3
3
3
3
3
3
3
3
3
3
3
3
3
3
3
3
3
3
3
3
3
3
3
3
3
3
3
3
3
3
3
3
3
3
3
3
3
3
3
3
3
3
3
3
3
3
3
3
3
3
3
3
3
      </DataArray>
    </Cells>
    <PointData>
      <DataArray type="Float64" NumberOfComponents="2" Name="Displacement" format="ascii">
-0.000438121 -0.158256
0.000674649 -0.158648
-8.46686e-05 -0.15804
0.00016496 -0.157822
0.000297867 -0.157672
0.000390147 -0.157547
0.000445773 -0.157454
0.000480629 -0.157389
0.000492805 -0.157335
0.000490929 -0.157296
0.000475019 -0.157272
0.000449198 -0.15726
0.000413198 -0.15725
0.000370465 -0.157249
0.000321589 -0.157254
0.00026918 -0.157266
0.000213619 -0.157277
0.000157388 -0.157293
0.000101778 -0.157314
4.85541e-05 -0.157341
-3.37181e-07 -0.157369
-4.38502e-05 -0.157404
-7.98255e-05 -0.157448
-0.000106795 -0.157502
-0.0001205 -0.157561
-0.000121505 -0.157637
-0.000105013 -0.157733
-6.9497e-05 -0.157852
8.32418e-06 -0.157983
0.000120226 -0.158158
0.000331122 -0.158401
-0.00263611 -0.157986
-0.00212493 -0.158001
-0.00161713 -0.158034
-0.00109125 -0.158113
-0.0445567 -0.199825
-0.00313341 -0.157992
-0.00363255 -0.158008
-0.00436135 -0.158046
-0.00509791 -0.158101
-0.00616863 -0.15821
-0.00725442 -0.158352
-0.00884985 -0.15862
-0.010468 -0.158959
-0.0128364 -0.159579
-0.0152235 -0.16035
-0.0169466 -0.160998
-0.0186626 -0.161725
-0.0203621 -0.162534
-0.022038 -0.163417
-0.024405 -0.164822
-0.0266944 -0.166368
-0.0288823 -0.168048
-0.0234352 -0.220996
-0.0441733 -0.203773
-0.0433447 -0.207288
-0.0421817 -0.210332
-0.0407542 -0.212914
-0.0391622 -0.21507
0.0290477 -0.138253
-0.0195874 -0.220447
-0.0150099 -0.219016
-0.00965173 -0.216556
0 0
-0.0110638 -0.010041
-0.0156479 -0.016678
-0.016298 -0.0220432
-0.013607 -0.0285884
-0.00989594 -0.0349266
-0.000135452 -0.150328
0 0
0 0
0 0
0 0
0.00871151 -0.145625
0.0175285 -0.128458
0.0229047 -0.0925551
-0.0287572 -0.138589
0.0111065 -0.0100254
0.0157149 -0.0167356
0.0163758 -0.0221333
0.013693 -0.028707
0.00998174 -0.035049
0.0234982 -0.22117
0.0196494 -0.220618
0.0150991 -0.219181
0.00972432 -0.216753
0.0445275 -0.200101
0.0265485 -0.221261
0.0291797 -0.220938
0.0315231 -0.220378
0.0336229 -0.219519
0.0355873 -0.218443
0.0027953 -0.158389
0.0443908 -0.195947
0.0436673 -0.191516
0.0422899 -0.186904
0.0402326 -0.182238
0.038395 -0.179055
0.0362332 -0.175955
0.0337497 -0.172993
0.03098 -0.170207
0.0289056 -0.168413
0.0267242 -0.166739
0.0244416 -0.165198
0.0220815 -0.163797
0.0187208 -0.162118
0.0152942 -0.160734
0.0129164 -0.159973
0.0105634 -0.15936
0.00895239 -0.159022
0.0022993 -0.15841
0.0018058 -0.158447
0.00128451 -0.158526
-0.00303755 -0.153251
0.0133293 -0.152571
0.0105082 -0.147066
0.0176998 -0.119123
-0.0178937 -0.126208
-0.00278441 -0.165279
-0.00544199 -0.150826
-0.0126504 -0.186884
-0.00209237 -0.160498
-0.0367159 -0.193053
-0.0117376 -0.0213676
0.011533 -0.0217727
-0.0192825 -0.178885
-0.00692653 -0.163083
-0.00209263 -0.169366
-0.00291643 -0.169097
0.00115069 -0.168603
-0.00386734 -0.168868
0.00314433 -0.169686
0.00175012 -0.164312
-0.000704752 -0.166681
0.000510192 -0.167331
-0.00239971 -0.16434
-0.005624 -0.169712
-0.00798905 -0.171442
-0.00539395 -0.17201
0.00267615 -0.156255
-0.00210378 -0.15642
-0.00353304 -0.156394
0.00325444 -0.171222
0.00506581 -0.170808
-0.00599463 -0.160797
0.00572869 -0.160539
-0.000551376 -0.1687
0.00186493 -0.165871
0.00476164 -0.162233
-0.00548391 -0.161971
0.000488329 -0.168486
0.00230142 -0.15661
-0.000600188 -0.156551
-0.00238726 -0.156804
-0.0033349 -0.167313
0.00477652 -0.169341
0.00509248 -0.157112
0.00496313 -0.159561
0.000792777 -0.164275
-0.00163412 -0.165332
0.00190358 -0.166344
-0.00051303 -0.165315
-0.00522652 -0.159934
-0.00515503 -0.157332
-0.00743504 -0.1696
-0.00867783 -0.174379
0.00638918 -0.154928
0.00254022 -0.155442
-0.00120628 -0.156174
-0.00570071 -0.156139
-0.0112297 -0.17755
-0.00993389 -0.178312
0.00832782 -0.176222
0.00779342 -0.173524
0.00968719 -0.172688
0.00942378 -0.171158
-0.00782369 -0.154801
-0.0079057 -0.158217
0.00751311 -0.158061
0.0110021 -0.153247
-0.00512317 -0.174289
0.000876956 -0.167827
0.00656652 -0.16088
-0.000768303 -0.167712
0.0075325 -0.176883
0.0027522 -0.156831
0.00174168 -0.156582
0.000140367 -0.156673
0.000825729 -0.156595
-0.000505072 -0.15688
-0.00130933 -0.15698
-0.000832303 -0.156974
-0.00227581 -0.157075
-0.00330418 -0.165973
-0.00597178 -0.16734
0.00769254 -0.16875
0.0041689 -0.167175
0.00305217 -0.157056
0.00359672 -0.157278
0.00456802 -0.157957
0.00432102 -0.158929
0.00256132 -0.161332
0.000736814 -0.163277
-0.000894423 -0.163711
-0.00270248 -0.161773
-0.00451619 -0.159311
-0.00458898 -0.158344
-0.0033608 -0.157498
-0.0026823 -0.157267
-0.00837289 -0.168804
-0.0132058 -0.176139
0.0092904 -0.151291
-0.000658442 -0.155234
-0.00516701 -0.154495
-0.0159477 -0.18375
0.0136607 -0.182622
0.01226 -0.175252
0.0100033 -0.169471
-0.0122229 -0.152656
0.0144842 -0.150237
-0.00847927 -0.179387
0.00879176 -0.158476
-0.015894 -0.148225
-0.0069741 -0.160702
0.00233485 -0.171706
0.00200096 -0.15705
0.00141801 -0.156861
0.000516138 -0.156909
-0.000238237 -0.157057
-0.000814549 -0.157154
-0.00147502 -0.157315
-0.00417061 -0.165301
0.00468056 -0.165809
0.00259434 -0.157562
0.00274662 -0.158949
0.000476237 -0.16202
-0.000618141 -0.162378
-0.00265578 -0.159313
-0.00222238 -0.157822
-0.00807056 -0.16504
-0.00985747 -0.167223
-0.0112835 -0.16972
-0.0153867 -0.173432
-0.0244245 -0.185442
-0.0230309 -0.189014
0.0166414 -0.134818
0.00330167 -0.151803
-0.0135835 -0.14276
-0.021009 -0.191159
0.0199797 -0.190794
0.0197379 -0.1859
0.0183875 -0.180359
0.0158745 -0.175371
0.0117925 -0.169136
0.0110746 -0.166314
-0.0166919 -0.143211
0.0188947 -0.139568
-0.0178536 -0.19105
-0.00446589 -0.176746
0.0174555 -0.145182
0.0120008 -0.186452
0.0198627 -0.195186
-0.0117214 -0.154849
0.00296269 -0.173127
0.00144481 -0.157315
0.00169189 -0.157529
0.00115269 -0.157077
0.00138934 -0.157138
0.000638715 -0.157058
0.000924182 -0.15704
3.10837e-05 -0.157152
0.000305167 -0.157109
-0.000372984 -0.157267
-0.000152505 -0.157222
-0.000865193 -0.157377
-0.000632553 -0.157297
-0.00123285 -0.157758
-0.000992254 -0.157533
-0.00131405 -0.162537
-0.00303071 -0.163589
-0.00575088 -0.164618
0.00748775 -0.164421
0.00566681 -0.164598
0.00223811 -0.163496
0.00084659 -0.162843
0.00204543 -0.15793
0.0020126 -0.158493
0.00144712 -0.15975
0.000688159 -0.160674
-0.00102089 -0.161028
-0.00145939 -0.160111
-0.00183435 -0.158806
-0.00163555 -0.158184
-0.00813482 -0.161804
-0.0111027 -0.16552
-0.0174844 -0.170437
-0.0249765 -0.180028
-0.0301342 -0.192491
0.0104256 -0.0873536
0.00891471 -0.143496
0.000579219 -0.151749
-0.00655973 -0.147963
-0.012258 -0.0942721
-0.0268114 -0.20047
0.0275456 -0.201404
0.0253626 -0.185357
0.0153529 -0.171289
0.0103413 -0.163361
0.00139697 -0.0385019
-0.0155046 -0.109597
-0.00231937 -0.036843
0.0133783 -0.103647
-0.0157493 -0.196301
0.0133802 -0.151404
0.0231116 -0.130972
0.0199849 -0.201087
-0.0223685 -0.135036
-0.00648658 -0.160852
0.000983734 -0.157507
0.000824563 -0.157252
0.000576866 -0.157192
0.000231405 -0.157234
-0.000106241 -0.157315
-0.000383668 -0.157444
-0.000570758 -0.157723
-0.00273439 -0.161874
-0.00572111 -0.161725
0.00489716 -0.162109
0.00165449 -0.161844
0.000985989 -0.158274
-2.95405e-05 -0.159945
-0.00108506 -0.160104
0.000898779 -0.1607
-0.000248197 -0.160288
-0.00068651 -0.158497
-0.00514862 -0.160065
0.00517418 -0.160839
-0.00868157 -0.159718
-0.00987427 -0.161226
-0.0122115 -0.161985
-0.0139364 -0.164409
-0.0178034 -0.165826
-0.0213046 -0.169546
-0.0255248 -0.1731
-0.0303668 -0.17894
-0.0351077 -0.184899
0.00790978 -0.0925176
0.00302565 -0.139331
-0.00284351 -0.142693
-0.0075694 -0.0996388
-0.0366374 -0.200059
-0.0351642 -0.205739
-0.0328564 -0.210248
-0.0306883 -0.214804
-0.0241785 -0.211882
0.0255997 -0.213242
0.0308539 -0.214587
0.0334929 -0.210831
0.0353794 -0.205416
0.036656 -0.198361
0.0339532 -0.189704
0.0306369 -0.181275
0.0270951 -0.174023
0.0211232 -0.170054
0.0179835 -0.164623
0.0146301 -0.163046
0.012253 -0.162277
0.00863045 -0.160625
0.0110803 -0.0387241
-0.000215505 -0.070055
-0.0122312 -0.102843
-0.0112328 -0.0379424
0.0100726 -0.0967443
-0.000212283 -0.0680489
-0.0167124 -0.20805
-0.00753528 -0.204489
0.0131621 -0.1561
0.0190946 -0.209518
-0.00468023 -0.168866
0.0110648 -0.202675
0.000484616 -0.157786
0.000446339 -0.158004
0.000555499 -0.157564
0.000601261 -0.157391
0.000586471 -0.157467
0.000600423 -0.157297
0.000535937 -0.157253
0.000572927 -0.157271
0.000438413 -0.157244
0.000315081 -0.157256
0.00037896 -0.157249
0.000181556 -0.157284
4.64117e-05 -0.157322
0.000113764 -0.157303
-7.11943e-05 -0.157372
-0.00017717 -0.157444
-0.000127093 -0.157406
-0.000241853 -0.157543
-0.00026998 -0.157698
-0.000262153 -0.157615
-0.000222897 -0.15792
-0.000120556 -0.158275
-0.000180659 -0.158078
-0.00600911 -0.159242
-0.00709403 -0.159391
0.00705771 -0.160283
0.00598164 -0.16012
-0.003972 -0.161306
-0.00227323 -0.159464
0.00334064 -0.161272
0.0023388 -0.161118
0.00254318 -0.160011
0.000157568 -0.158711
-7.25607e-05 -0.159126
0.000253644 -0.159633
-2.50012e-05 -0.159059
-0.00422837 -0.158991
0.00440539 -0.159329
-0.00299789 -0.158917
-0.00350251 -0.158936
0.00368723 -0.159274
0.00318924 -0.159254
-0.00185956 -0.158658
-0.000823744 -0.158698
-0.00136066 -0.158671
0.00210231 -0.159278
0.00161593 -0.159272
0.00112247 -0.159273
0.00152988 -0.159931
-0.00117325 -0.159161
0.00360341 -0.160062
-0.00338698 -0.159772
-0.000703286 -0.159371
0.000766567 -0.159062
0.00315549 -0.162344
-0.00460742 -0.162805
0.00678356 -0.161676
-0.00694712 -0.16037
-0.000642345 -0.158006
-0.000483507 -0.157556
-0.000253476 -0.15737
5.75625e-05 -0.157273
0.00041102 -0.157206
0.000720428 -0.157204
0.000889459 -0.15736
0.00111634 -0.15779
0.0126146 -0.192742
-0.00546382 -0.184078
-0.00104101 -0.0636377
-0.000458391 -0.067291
0.0140378 -0.16515
0.0218738 -0.177001
0.0283669 -0.194659
0.0266842 -0.206803
-0.0234666 -0.202546
-0.0288874 -0.197131
-0.013568 -0.12907
0.0144328 -0.120677
-0.0304307 -0.186988
-0.0205326 -0.174479
-0.0129071 -0.167819
-0.00935675 -0.16325
0.00032665 -0.161323
-0.00101283 -0.160969
-0.0200192 -0.134014
0.0207351 -0.129413
0.00213467 -0.151127
-0.00278367 -0.158307
-0.00225858 -0.160647
0.00216431 -0.160259
0.00304893 -0.157977
0.00142698 -0.164371
0.00832768 -0.16702
-0.00694784 -0.166468
-0.00164225 -0.164046
-0.00171421 -0.157522
-0.00120073 -0.157183
-0.000467432 -0.157139
5.3205e-05 -0.156974
0.00101606 -0.156849
0.00177977 -0.156916
0.00216589 -0.157283
-0.00415739 -0.164068
0.0110769 -0.182386
-0.0025174 -0.172499
-0.0129932 -0.1831
0.0149311 -0.146275
-0.010167 -0.150998
0.0117429 -0.171977
0.0133739 -0.179284
-0.00305542 -0.155961
0.00348442 -0.153745
-0.017861 -0.182117
-0.00987445 -0.171181
-0.00896124 -0.158101
0.00858059 -0.158129
-0.00362369 -0.156917
-0.00652851 -0.157872
-0.00309308 -0.162676
0.00292645 -0.162214
0.0061834 -0.157566
0.00392507 -0.15674
0.00718691 -0.170218
-0.00508667 -0.168012
-0.00127139 -0.156777
0.000326578 -0.15631
0.0026621 -0.171154
0.00352705 -0.164524
0.00388279 -0.171152
-0.00464798 -0.172378
0.00249653 -0.168229
-0.00166533 -0.166503
-0.0014366 -0.166083
0.000224327 -0.166612
-0.00623627 -0.171378
-0.013628 -0.157376
0.00352169 -0.212583
-0.00668478 -0.184857
0.00235184 -0.193821
8.3221e-05 -0.209793
0.00473472 -0.181892
-0.0034508 -0.212428
0.019782 -0.148944
0.00968733 -0.173879
2.77434e-05 -0.209606
0.000823936 -0.189466
0.00456266 -0.169561
0.0046912 -0.0818607
0.0114038 -0.0951928
0.00614599 -0.0786525
0.0185863 -0.113193
-0.00529507 -0.0427126
0.0001539 -0.0522106
0.00189706 -0.0673532
-0.00107563 -0.0666207
0.00365917 -0.079757
-0.00631936 -0.0516563
-0.00331559 -0.0550052
-0.0090698 -0.0413375
0.00611854 -0.0637703
0.0107105 -0.074374
-0.0126993 -0.0331436
-0.00681841 -0.0499046
-0.00597375 -0.0860368
-0.00628605 -0.0800769
-0.0124263 -0.0993077
-0.00200973 -0.0686215
0.00536287 -0.0428396
-0.000122761 -0.0523769
-0.0200887 -0.118085
-0.00541362 -0.084595
9.32724e-05 -0.0694432
0.006049 -0.0529952
0.0090737 -0.0418881
0.00322738 -0.0560726
0.0127001 -0.0335729
-0.00610102 -0.0639891
-0.0106712 -0.0746559
0.00609927 -0.0520074
-0.00471603 -0.127305
0.00372056 -0.136889
0.00421809 -0.116776
0.00184293 -0.149549
0 0
0 0
-0.0039596 -0.0597999
-0.0113605 -0.116162
-0.0084447 -0.136099
0.00510333 -0.122258
-0.00407741 -0.113863
-0.0041417 -0.134612
0.00420894 -0.0543319
0 0
-0.0226148 -0.0922196
-0.00232991 -0.148687
0.00938465 -0.130196
0.0117106 -0.107821
-0.0160587 -0.147848
-0.016345 -0.148456
-0.00572061 -0.16256
-0.0249401 -0.135623
0.00373164 -0.175637
-0.0173816 -0.145813
-0.0207485 -0.13699
0.0210011 -0.140371
0.0134271 -0.152465
0.0222158 -0.140962
0.00379535 -0.165647
0.025263 -0.132604
0.0219627 -0.131296
0.0197908 -0.141113
0.0191138 -0.11998
0.0194757 -0.119281
0.0117228 -0.10102
0.00610563 -0.0839838
0.0180195 -0.117676
-0.0195832 -0.122954
-0.01395 -0.106823
-0.0208491 -0.123641
-0.00834654 -0.0894358
-0.0190287 -0.123241
-0.00603167 -0.0679289
-0.0117965 -0.0931838
-0.00659012 -0.063215
-0.0148012 -0.112755
0.00217805 -0.0214738
0.000981778 -0.0535844
-0.00707089 -0.0801597
-0.00238741 -0.150971
-0.00194091 -0.150209
-0.00581562 -0.145664
-0.000164758 -0.15169
-0.0104602 -0.14089
-0.0024886 -0.151099
0.00135114 -0.151311
0.0042699 -0.148969
0.00694254 -0.141417
0.00260316 -0.148277
0.0121825 -0.134316
0.00591766 -0.148705
0.00417951 -0.0627843
0.00548646 -0.0578423
0.0108752 -0.0859437
-0.00258398 -0.0208241
0.014176 -0.104325
0.00503989 -0.0750086
-0.00221928 -0.0509653
-0.0166954 -0.147004
-0.0118357 -0.154164
-0.0051824 -0.162831
-0.00799075 -0.159639
0.0202652 -0.137792
0.0128239 -0.15221
0.00465904 -0.16309
0.00522309 -0.162341
-0.0185853 -0.141836
-0.0142773 -0.151215
-0.0103606 -0.156749
-0.0126259 -0.153643
-0.0142465 -0.150716
-0.0147832 -0.148535
-0.0168499 -0.145183
-0.0116772 -0.151506
-0.0137839 -0.147778
-0.0187317 -0.138541
-0.0112362 -0.154868
0.0151117 -0.147951
0.013186 -0.150117
0.0128246 -0.15196
0.0104741 -0.155152
0.00868975 -0.155661
0.0118268 -0.154251
-0.00916267 -0.153048
-0.0101098 -0.153947
-0.00944222 -0.155692
-0.00759392 -0.156064
-0.00766713 -0.153126
-0.00664752 -0.154603
-0.00536429 -0.155551
-0.00410031 -0.155326
0.00303891 -0.154682
0.00130588 -0.154646
0.00104302 -0.155357
-7.73505e-05 -0.155826
-0.00199988 -0.155624
0.00130834 -0.155924
0.00874111 -0.15427
0.010549 -0.152034
0.00792761 -0.153323
0.0122711 -0.149205
0.00638041 -0.152759
0.00523724 -0.15429
0.00673771 -0.155926
0.00446836 -0.155194
0.00271174 -0.155865
0.00338743 -0.156422
0.00153276 -0.15627
0.0044112 -0.155731
0.00526337 -0.155937
0.00730794 -0.0110856
0.00718594 -0.028407
0.0055878 -0.0147841
0.00761131 -0.0417488
0 0
0 0
0.0089618 -0.00896424
0.0152355 -0.0246918
0.0122364 -0.0308399
0.0137813 -0.0179577
-0.0153197 -0.0875083
-0.0185408 -0.0951177
-0.0138426 -0.0177944
-0.0124486 -0.0302293
-0.0152376 -0.0244188
-0.00835503 -0.0399444
0.0153833 -0.0871301
0.0185493 -0.094614
-0.00901884 -0.00892468
-0.00579892 -0.0145311
-0.00770559 -0.0276178
-0.00736308 -0.0109766
-0.0177092 -0.128261
-0.00894464 -0.145478
-0.0097725 -0.147845
-0.00630123 -0.149457
-0.0102735 -0.14518
-0.00155991 -0.151508
-0.0140745 -0.136671
-0.0122113 -0.147275
-0.00811239 -0.1506
-0.0165233 -0.135301
-0.0180286 -0.135656
-0.0155561 -0.142226
-0.0191373 -0.129287
-0.0162322 -0.126102
-0.0134224 -0.101336
-0.0175673 -0.118023
-0.0160278 -0.112323
0.0146502 -0.104785
0.016231 -0.111666
0.0113784 -0.0950004
0.0191102 -0.123418
0.0164737 -0.117862
0.0182627 -0.135935
0.0193058 -0.130198
0.0178774 -0.127282
0.0201368 -0.134607
0.0158461 -0.128083
0.016235 -0.140913
0.0172483 -0.143026
0.0101476 -0.149077
0.00704619 -0.150095
0.00659375 -0.151425
0.00640317 -0.149434
0.00279795 -0.151256
0.00347805 -0.152612
0.0131546 -0.146112
0.0132591 -0.138617
0.0101375 -0.145119
0.014008 -0.142051
0.01699 -0.146173
0.0153897 -0.149194
0.0187486 -0.141784
0.00946524 -0.157246
0.0169662 -0.145588
0.0142361 -0.151136
0.0108923 -0.155809
-0.00174565 -0.154359
-0.00423067 -0.153894
-0.00284936 -0.154992
-0.00671924 -0.152505
0.000380603 -0.15371
-0.00110006 -0.15204
-0.00430201 -0.152002
3.14325e-05 -0.152724
0.00208763 -0.198261
-0.00359812 -0.197768
-0.00260586 -0.204921
-0.00290628 -0.185832
-0.0070687 -0.194291
-0.00565882 -0.2085
0.00366324 -0.206094
0.00764663 -0.20171
0.00551367 -0.19235
0.00666642 -0.170873
0.0022585 -0.179501
0.00491377 -0.182494
-0.000870724 -0.177497
0.010489 -0.186031
0.0109991 -0.164531
0.00855635 -0.16335
0.0232886 -0.122727
0.0218138 -0.103638
0.0193829 -0.110107
0.013669 -0.104747
0.0164462 -0.100507
0.0245878 -0.116209
-0.0217813 -0.104212
-0.0243032 -0.126063
-0.0199911 -0.113218
-0.0170395 -0.103427
-0.0154482 -0.110229
-0.024205 -0.116756
-0.0210295 -0.142283
-0.0213242 -0.144151
-0.0153071 -0.151233
-0.0269336 -0.136106
-0.0203216 -0.149083
-0.00886904 -0.163558
-0.0105214 -0.157755
-0.0209933 -0.140767
-0.0235112 -0.135091
-0.000194194 -0.172001
0.00428991 -0.178133
-0.00066504 -0.169542
0.008893 -0.187711
0.00847354 -0.184195
-0.0014155 -0.167769
-0.00620845 -0.161286
-0.00519683 -0.164715
0.000365466 -0.175899
-0.0169859 -0.146463
-0.0192666 -0.141673
-0.0193707 -0.14214
-0.0194813 -0.139881
-0.0204614 -0.135181
-0.0214806 -0.135925
-0.0198681 -0.141731
-0.0112868 -0.154474
-0.0138202 -0.151192
0.00823798 -0.159474
0.0040998 -0.166937
0.00886467 -0.160489
-0.00117962 -0.174872
0.0133619 -0.153721
0.0134791 -0.151608
0.00873286 -0.157971
0.0215257 -0.143538
0.0253365 -0.138453
0.0245481 -0.136884
0.0243052 -0.143878
0.0274049 -0.134164
0.0241016 -0.131617
0.0238577 -0.135459
0.0183037 -0.147393
0.0163253 -0.152788
0.0222783 -0.135584
0.0214682 -0.136402
0.0203545 -0.140655
0.0212929 -0.130157
0.0211369 -0.13512
0.0173363 -0.145695
0.0173801 -0.145947
0.0228997 -0.135813
0.0224874 -0.131052
0.0226012 -0.125756
0.0230793 -0.124872
0.0191221 -0.117396
0.0145337 -0.107926
0.0220093 -0.125787
0.0213209 -0.125382
0.0210932 -0.125965
0.0203977 -0.125123
0.0159175 -0.111535
-0.020701 -0.122095
-0.0244679 -0.128771
-0.0233945 -0.129307
-0.0225076 -0.129912
-0.0165796 -0.113608
-0.021511 -0.128867
-0.0211344 -0.130429
-0.0173605 -0.116105
-0.0203338 -0.128884
-0.00943915 -0.157133
-0.00585238 -0.161834
-0.00850006 -0.158625
-0.00879243 -0.158487
-0.00470062 -0.163515
-0.0118452 -0.154453
0.00428911 -0.163951
-7.29166e-06 -0.169789
-0.000628114 -0.171589
0.00087775 -0.168084
-0.00344007 -0.174272
-0.00507263 -0.179729
0.00880185 -0.157502
0.00896826 -0.15742
0.00499348 -0.162567
0.00898966 -0.157244
0.00134196 -0.167341
0.013127 -0.151702
0.0156529 -0.148277
0.0110638 -0.154889
0.00297685 -0.165254
0.00752496 -0.159531
0.0117671 -0.154533
0.0138471 -0.151284
-0.000704296 -0.169888
0.00525824 -0.162513
0.00639968 -0.161278
0.00235843 -0.166001
-0.00124674 -0.167657
0.00257383 -0.172307
-0.00134722 -0.167482
0.00715272 -0.17813
0.00672517 -0.176968
-0.00107894 -0.167645
-0.00153253 -0.16734
0.00407331 -0.186906
0.00701355 -0.198539
0.00836181 -0.192755
0.00306116 -0.204293
0.00782865 -0.207397
0.0121894 -0.197142
-0.000602006 -0.18189
-0.00511685 -0.197054
-0.0002676 -0.200073
-0.00181066 -0.189597
-0.00362293 -0.206216
-0.00498488 -0.175686
-0.00900396 -0.190784
-0.00750861 -0.20194
-0.0155145 -0.166515
-0.0126041 -0.182269
-0.00954245 -0.17201
-0.011704 -0.196397
-0.0163892 -0.18952
0.0153451 -0.206326
0.0133035 -0.212231
0.0174309 -0.214401
-0.0215782 -0.180306
-0.025128 -0.165582
0.0215665 -0.216409
0.016224 -0.201743
0.0190627 -0.164636
0.0139252 -0.163145
0.0141769 -0.176148
0.0117252 -0.19624
0.0163906 -0.189391
-0.0125938 -0.206188
-0.0160967 -0.213875
-0.0115345 -0.213021
-0.0204453 -0.21592
0.0211839 -0.180313
0.0256828 -0.165789
-0.0117593 -0.197761
0.0241141 -0.172041
0.0268597 -0.170489
0.02386 -0.168546
0.0289871 -0.172223
0.00736693 -0.158754
0.00628933 -0.158614
0.0215462 -0.167054
0.0214315 -0.17363
0.0244029 -0.175687
0.0288638 -0.177692
0.0333228 -0.178829
0.0316658 -0.175094
0.0354268 -0.181944
0.00523026 -0.158508
0.00450256 -0.158452
0.0262774 -0.179225
0.0353375 -0.194144
0.0399072 -0.195286
0.0388343 -0.190863
0.0406324 -0.199478
0.00378233 -0.158413
0.0032882 -0.158396
0.0368809 -0.186307
0.0309256 -0.192493
0.0325519 -0.196772
0.0359319 -0.20201
0.039403 -0.206836
0.0403244 -0.203375
0.0383865 -0.209778
0.0374195 -0.21703
0.0391548 -0.21529
0.0321278 -0.200284
0.0321384 -0.212711
0.0342459 -0.21622
0.0357121 -0.214411
0.0324038 -0.217465
0.0407426 -0.213148
0.0421651 -0.210572
0.0371879 -0.212401
0.0301336 -0.209136
0.0289493 -0.211023
0.0282778 -0.213988
0.0276269 -0.217797
0.0301607 -0.217975
0.0247777 -0.217397
0.0433235 -0.207543
0.044147 -0.204032
0.0262294 -0.209905
-0.0275447 -0.213531
-0.0300455 -0.217976
-0.0269768 -0.21726
-0.0322981 -0.217447
-0.0374203 -0.216817
-0.0355805 -0.21824
-0.0240568 -0.216814
-0.0240098 -0.207115
-0.0274793 -0.209443
-0.0317577 -0.21252
-0.0354272 -0.214082
-0.0341462 -0.216195
-0.0368906 -0.212064
-0.0336053 -0.219326
-0.0314973 -0.220186
-0.0283257 -0.207045
-0.0358296 -0.202987
-0.0402603 -0.20404
-0.0392743 -0.206882
-0.0405522 -0.2002
-0.0291402 -0.22075
-0.0265077 -0.221079
-0.0382692 -0.209813
-0.0322261 -0.201656
-0.0327709 -0.198859
-0.0327726 -0.181951
-0.0332308 -0.177423
-0.0355701 -0.180449
-0.0305737 -0.174578
-0.0309618 -0.169849
-0.0337388 -0.172637
-0.0376171 -0.183524
-0.0327111 -0.186057
-0.0303177 -0.183095
-0.0234181 -0.171321
-0.0239428 -0.168092
-0.0260482 -0.169867
-0.0216215 -0.166598
-0.0362319 -0.175608
-0.0384 -0.178713
-0.0281859 -0.171606
-0.0229857 -0.173894
-0.0208694 -0.172103
-0.0402469 -0.181908
-0.0198868 -0.164704
-0.0182086 -0.163841
-0.0164874 -0.163116
-0.0152949 -0.166961
-0.0423063 -0.186587
-0.0163312 -0.147682
-0.0106193 -0.1559
-0.0115609 -0.154061
0.0230749 -0.207679
0.0197534 -0.204999
0.0225065 -0.211499
0.0164589 -0.197235
0.0234147 -0.204218
0.0180772 -0.145526
0.0177774 -0.146806
0.0216036 -0.140497
-0.0203762 -0.205016
-0.0206947 -0.210045
-0.0165214 -0.202011
-0.0109646 -0.190735
-0.0197237 -0.199677
0.0193253 -0.119737
0.0150788 -0.109476
-0.0201456 -0.123216
-0.0168444 -0.114336
0.0186118 -0.174126
0.0181755 -0.170815
0.0175577 -0.167573
0.0146365 -0.168303
0.029702 -0.187689
0.0323038 -0.185567
0.0278568 -0.183563
0.0235828 -0.181217
0.026825 -0.19006
0.0307738 -0.206455
0.0343649 -0.208189
0.0314837 -0.203757
0.027825 -0.198081
0.0270776 -0.204033
-0.0310664 -0.203506
-0.0339341 -0.208041
-0.0300949 -0.205686
-0.025055 -0.201483
-0.0277597 -0.198845
-0.025169 -0.176699
-0.0279625 -0.176033
-0.0276279 -0.179597
-0.0277441 -0.18353
-0.0227616 -0.177252
-0.0176051 -0.168209
-0.0195483 -0.167681
-0.0193703 -0.170048
-0.0190034 -0.172454
-0.0151846 -0.169124
-0.0150008 -0.149766
-0.0146061 -0.150585
0.0160478 -0.191195
0.0162738 -0.193951
0.0199451 -0.197865
0.0123759 -0.189101
0.02352 -0.201252
0.015631 -0.188768
0.0114628 -0.184149
0.0166042 -0.146747
0.0185696 -0.143235
0.0188447 -0.176271
0.0155783 -0.173375
0.0135051 -0.171725
0.0137994 -0.173663
0.0190007 -0.183151
0.0224405 -0.185856
0.0218968 -0.182913
0.0241751 -0.190398
0.0200229 -0.178865
0.0158254 -0.179976
0.0165759 -0.182587
0.0198406 -0.192897
0.0237495 -0.198648
0.0239511 -0.196238
0.0241223 -0.193094
0.0156058 -0.186965
-0.0193558 -0.191193
-0.0240335 -0.195864
-0.02249 -0.196166
-0.0250062 -0.194402
-0.0208181 -0.196745
-0.0154273 -0.186948
-0.0170687 -0.187314
-0.0236531 -0.187305
-0.0273445 -0.189003
-0.0265897 -0.190929
-0.0274129 -0.186327
-0.0302281 -0.189806
-0.029432 -0.194877
-0.0260528 -0.193123
-0.0204707 -0.185549
-0.0211356 -0.183898
-0.0179354 -0.17402
-0.016386 -0.172035
-0.0141073 -0.170643
-0.0125928 -0.172364
0.00807717 -0.181445
0.00758568 -0.179642
0.00328212 -0.174035
0.0153183 -0.177805
0.0171065 -0.177862
0.0140311 -0.175396
0.0119698 -0.173644
0.0127696 -0.177286
0.0168699 -0.186685
0.0197651 -0.188359
0.0166665 -0.18446
0.0134497 -0.18098
0.0122937 -0.182613
-0.0195079 -0.18653
-0.0219386 -0.19016
-0.0185018 -0.187411
-0.0144189 -0.183531
-0.0168388 -0.18302
0.00924185 -0.179491
0.00496432 -0.174441
0.00245911 -0.171458
0.00505083 -0.17393
-0.00217461 -0.171301
-0.0067181 -0.176661
-0.00381968 -0.173577
-0.00907532 -0.178722
-0.0107244 -0.181415
-0.00558037 -0.176188
-0.000654145 -0.169231
0.0105573 -0.176361
0.00998734 -0.174491
0.00744486 -0.171911
0.00581333 -0.172419
0.00789947 -0.176592
0.0106059 -0.179859
0.0109771 -0.179361
0.010826 -0.177878
0.00548314 -0.173778
-0.0105465 -0.177988
-0.0135745 -0.180592
-0.012948 -0.181102
-0.0145323 -0.179935
-0.0114292 -0.180632
-0.00725676 -0.175278
-0.00791137 -0.175083
-0.0155231 -0.179091
-0.0121608 -0.176949
-0.009664 -0.173821
-0.0115094 -0.173631
-0.0075274 -0.176444
-0.00482911 -0.173333
0.00801418 -0.174897
0.00605935 -0.173624
-0.0218716 -0.182156
-0.022104 -0.179553
-0.0246266 -0.182827
-0.0198384 -0.176789
-0.018501 -0.180595
-0.0142228 -0.174917
-0.0173233 -0.176142
-0.0162173 -0.177602
-0.0333902 -0.192938
-0.036636 -0.196658
-0.0335312 -0.196422
-0.0408371 -0.196689
-0.0336586 -0.190101
-0.0395337 -0.188215
-0.0401338 -0.192315
-0.0358999 -0.189079
-0.0436887 -0.191214
-0.0444112 -0.195654
-0.00874796 -0.182214
-0.0142933 -0.191228
-0.0105585 -0.187063
-0.0184328 -0.195357
-0.00777846 -0.179825
-0.0133074 -0.185431
-0.0152449 -0.189135
-0.0105347 -0.182851
-0.00194375 -0.145341
-0.00465814 -0.142636
-0.0131441 -0.101614
-0.0154334 -0.109004
-0.0134154 -0.118489
-0.0141182 -0.126447
0.00930877 -0.137288
0.00993329 -0.130917
-0.00195748 -0.165982
-0.00511943 -0.162335
0.0135404 -0.141468
0.0133255 -0.144135
0.000617187 -0.150567
0.00236681 -0.14973
-0.016111 -0.0217098
-0.0145748 -0.0214337
-0.00400106 -0.0182654
-0.00357769 -0.009013
0.00895356 -0.138677
0.00667475 -0.13778
0.0156226 -0.0920229
0.0149552 -0.109816
-0.0154149 -0.141574
-0.015533 -0.138134
-0.000247972 -0.000787357
-0.00153615 -0.00889903
-0.020731 -0.113071
-0.0114293 -0.101909
0.0209666 -0.130253
0.020008 -0.123455
-0.00698369 -0.0890862
-0.00442686 -0.0797474
-0.00518884 -0.0662597
-0.00620504 -0.0627248
-0.00287983 -0.150684
-0.00281448 -0.150876
-0.0132106 -0.102192
-0.0153484 -0.108672
0.00605546 -0.00582282
0.010888 -0.0108445
0.00677433 -0.155396
0.00729289 -0.15616
0.0155091 -0.143203
0.014549 -0.146552
-0.0236282 -0.122746
-0.0166414 -0.110798
0.00753438 -0.152441
0.0059885 -0.152187
0.0125459 -0.0969059
0.0107879 -0.0957162
0.00713295 -0.154973
0.00594987 -0.154672
-0.00964406 -0.156158
-0.00800814 -0.158476
0.0136854 -0.15139
0.0135608 -0.151999
-4.9522e-05 -0.0692613
0.00442031 -0.0566565
0.00856379 -0.11681
0.0105353 -0.105902
-0.00274426 -0.142005
-0.00580543 -0.139484
-0.004841 -0.137639
-0.00184747 -0.140595
0.000746506 -0.0406898
0.00171105 -0.0497124
-0.00416058 -0.159446
-0.00174426 -0.160269
-0.0159417 -0.111947
-0.0204459 -0.123681
0.00102789 -0.156811
0.000482277 -0.156598
-0.00109566 -0.111929
0.000167117 -0.12261
-0.00833457 -0.134925
-0.0156235 -0.133321
-0.0107484 -0.140081
-0.00766106 -0.136678
-0.01338 -0.151481
-0.0113996 -0.153377
0.0172234 -0.116895
0.0179224 -0.118852
-0.0217428 -0.110825
-0.0206338 -0.12078
-0.0102381 -0.0879304
-0.008327 -0.0721043
-0.00593507 -0.0705084
-0.00546874 -0.0741625
-0.00810297 -0.0844041
-0.011402 -0.0960332
-0.00755815 -0.0691525
-0.00678988 -0.0727863
-0.0167258 -0.141667
-0.015055 -0.14432
-0.0130556 -0.145086
-0.010814 -0.147307
-0.0124214 -0.145774
-0.0129763 -0.146761
-0.0157847 -0.14778
-0.0146228 -0.149108
-0.00238084 -0.0615496
0.00120581 -0.0559663
-0.00152535 -0.151364
-0.00378529 -0.150746
-0.0138642 -0.128511
-0.0114691 -0.132403
0.0151002 -0.108093
0.0129752 -0.100442
-0.00348827 -0.15147
-0.00331633 -0.151179
-0.0106176 -0.152782
-0.0111326 -0.153435
-0.0167449 -0.142421
-0.0179751 -0.137544
0.0166658 -0.117446
0.0152608 -0.107877
-0.00261551 -0.147576
-0.0049525 -0.147755
0.00978899 -0.0328476
0.00814361 -0.0296679
-0.0120616 -0.153892
-0.0143432 -0.150503
-0.0101995 -0.0251361
-0.00774635 -0.0271831
-3.45132e-05 -0.151874
-0.000125611 -0.15154
-0.0211864 -0.130035
-0.0196529 -0.122084
0.00721923 -0.148333
0.0048323 -0.150137
-0.01894 -0.130704
-0.0188309 -0.124358
-0.00924699 -0.145615
-0.00737516 -0.148301
0.0118436 -0.0362578
0.0102605 -0.0407391
-0.00310515 -0.0599331
-0.000774414 -0.0675985
0.0129664 -0.103359
0.00820912 -0.0908505
0.0121473 -0.153021
0.0176645 -0.145113
-0.00466042 -0.157322
-0.00301439 -0.157164
-0.00703315 -0.0878883
-0.0104936 -0.0980972
-0.000942549 -0.0664755
-0.000796926 -0.061656
0.0222943 -0.13078
0.023085 -0.136885
-0.00177433 -0.150527
-0.000499027 -0.151468
-0.00456603 -0.156512
-0.00280604 -0.156696
-0.0116365 -0.154325
-0.0107544 -0.155976
-0.00491086 -0.116951
-0.00211979 -0.10769
0.0082562 -0.0780621
0.00942229 -0.0949609
0.0027846 -0.0696941
0.00369311 -0.0765162
0.0111968 -0.0111571
0.0103244 -0.0126014
0.016965 -0.146222
0.0185478 -0.141878
0.00398695 -0.0726343
0.00768177 -0.0850366
0.00190661 -0.0613175
0.00604913 -0.0493747
0.0137596 -0.151962
0.0109214 -0.155809
0.00398389 -0.155149
0.00534752 -0.155327
0.0169164 -0.146339
0.0164047 -0.14722
-0.0150344 -0.11722
-0.0157538 -0.114046
0.000199796 -0.157231
-0.000106052 -0.157057
-0.00724886 -0.085127
-0.00775893 -0.0828401
-0.00721247 -0.0197772
-0.00833202 -0.0150824
-0.00237372 -0.0139581
3.81139e-05 -0.0145402
0.0116657 -0.0107541
0.0141218 -0.0151678
-0.0112153 -0.154741
-0.0161028 -0.147798
-0.000797621 -0.151293
-0.00143644 -0.150704
-0.000994402 -0.150426
-0.000271248 -0.148485
-0.00777928 -0.155675
-0.00575821 -0.15626
-0.00356902 -0.0603154
-0.00123154 -0.0470026
-0.0207635 -0.135621
-0.0195484 -0.139781
-0.00040429 -0.151537
0.000102072 -0.151814
0.019273 -0.138587
0.0200473 -0.133316
0.00866829 -0.0428005
0.0111694 -0.0338507
0.0167304 -0.145887
0.0150036 -0.148773
0.00290183 -0.126677
-0.00261062 -0.127219
0.00226257 -0.150366
0.000649287 -0.151369
-0.00422467 -0.0378552
-0.00468992 -0.0284398
-0.0053707 -0.0523155
-0.00853451 -0.0417289
-0.00636247 -0.156905
-0.00435703 -0.157537
-0.00730393 -0.0814505
-0.00275546 -0.0803711
0.0200271 -0.137067
0.0198929 -0.13122
-0.00397822 -0.0522561
-0.0045934 -0.0601798
-0.00700852 -0.0689444
-0.00466998 -0.067106
-0.00553847 -0.00680325
-0.0062141 -0.00631809
-0.0126995 -0.096237
-0.0133799 -0.0991082
0.000602279 -0.151591
0.000114854 -0.151904
0.000904056 -0.01458
0.00185408 -0.00806254
0.0179258 -0.141857
0.0190542 -0.136786
-0.0152732 -0.116587
-0.0138223 -0.109683
-0.0133829 -0.0317224
-0.0125702 -0.0317752
-0.010336 -0.142131
-0.00641049 -0.140643
-0.0069469 -0.142296
-0.00818456 -0.143864
-0.00375125 -0.144187
-0.00186335 -0.140326
0.0155289 -0.145347
0.0136517 -0.147603
0.0157231 -0.134365
0.0149089 -0.130991
-0.00888723 -0.0840437
-0.0102375 -0.0914031
-0.0154281 -0.149222
-0.0158323 -0.148049
-0.00151982 -0.147793
-0.000469633 -0.150341
0.0015177 -0.149191
0.00373711 -0.147555
-0.00573906 -0.0782105
-0.00210292 -0.0656752
-0.000738836 -0.00097314
-0.00520724 -0.0079825
-0.0111708 -0.0914686
-0.010017 -0.0902776
0.00480702 -0.143145
0.00153325 -0.140791
0.0149464 -0.0919487
0.00375102 -0.0935816
0.00776573 -0.122558
0.0191992 -0.118967
-0.00560197 -0.0139155
-0.00308075 -0.00874105
-0.018762 -0.134343
-0.0195023 -0.131965
0.00571184 -0.0799772
0.00598154 -0.0842446
-0.0111473 -0.155747
-0.0141353 -0.151417
0.00699525 -0.148782
0.0094254 -0.147003
-0.00748987 -0.14803
-0.00817359 -0.148452
-0.0144304 -0.146413
-0.0161915 -0.143673
0.0188087 -0.141595
0.0182917 -0.142223
-0.000158386 -0.152876
0.000960935 -0.15352
-0.00742335 -0.155251
-0.00740797 -0.154374
0.020455 -0.132859
0.0197351 -0.133945
0.00845477 -0.154048
0.00983865 -0.154006
-0.0133967 -0.0256018
-0.0148179 -0.0262058
-0.005241 -0.150237
-0.00752508 -0.149161
-0.0161495 -0.12889
-0.0152791 -0.124586
0.00362237 -0.156773
0.00207477 -0.157109
0.0169156 -0.114005
0.0170523 -0.114692
0.00351199 -0.112458
0.00593969 -0.122317
0.00452816 -0.0669471
0.00427398 -0.058749
0.00159043 -0.00113329
0.00736689 -0.0063982
-0.00082744 -0.0148626
0.00196983 -0.0345404
-0.00645036 -0.0226981
-0.00454513 -0.0341162
0.011636 -0.0144934
0.00786805 -0.00804152
-0.00519272 -0.145135
-0.00741661 -0.144251
0.00890524 -0.158345
0.00526193 -0.162627
-0.0119419 -0.141071
-0.0129999 -0.135971
-0.0101829 -0.0235933
-0.00786412 -0.0246956
0.00569217 -0.149042
0.00816858 -0.1468
0.00824224 -0.0370048
0.011172 -0.0308724
-0.00669086 -0.158918
-0.0066415 -0.157692
-0.0010887 -0.15481
-0.00341645 -0.154533
-0.00671332 -0.0319306
-0.00352251 -0.0425101
-0.0153036 -0.108429
-0.0161277 -0.115538
-0.0176559 -0.138162
-0.0175557 -0.141417
0.00518412 -0.0652704
0.00911582 -0.0779291
0.00754557 -0.156625
0.00894648 -0.156453
0.0182118 -0.138966
0.0169635 -0.143853
0.00156856 -0.0740309
0.000718401 -0.069545
0.00336752 -0.156874
0.00371442 -0.157746
-0.00109109 -0.126699
0.00401014 -0.125368
0.00944553 -0.0406514
0.0111672 -0.0385099
-0.00428874 -0.151797
-0.0047849 -0.152454
-0.0126196 -0.153199
-0.0101034 -0.156213
-0.0126837 -0.153594
-0.0105783 -0.156131
0.0145736 -0.119796
0.0142947 -0.128103
-0.00326956 -0.13674
-0.00465824 -0.129396
-0.00234715 -0.1511
-0.00127504 -0.151436
0.00535938 -0.114435
-0.00211698 -0.114305
0.00705648 -0.0704381
0.00934082 -0.0882114
0.0133759 -0.123257
0.0136575 -0.130108
-0.00405582 -0.0930304
-0.00495835 -0.0716894
0.00235983 -0.150895
0.00411737 -0.150054
0.0061633 -0.157915
0.00652643 -0.15653
0.0085261 -0.0731727
0.00807904 -0.0758392
0.0118104 -0.154272
0.0132007 -0.152661
-0.0133743 -0.102446
-0.0120999 -0.10066
-0.0082441 -0.0832975
-0.0102468 -0.0870033
-0.0142617 -0.150475
-0.012312 -0.153675
0.0165635 -0.141104
0.014897 -0.144992
-0.000524534 -0.151358
-0.000638232 -0.151233
0.00785773 -0.157695
0.00571428 -0.160327
0.00157489 -0.151221
0.00149774 -0.151269
-0.000341722 -0.151498
-0.00155054 -0.151319
0.0150507 -0.14692
0.0152319 -0.144667
-0.0143902 -0.0277469
-0.0127502 -0.0335363
0.00595261 -0.15624
0.00416694 -0.156989
-0.005551 -0.0537361
-0.00348607 -0.0598369
0.0137655 -0.128175
0.015407 -0.127994
-0.00631421 -0.146771
-0.00470705 -0.149156
0.00965776 -0.154308
0.00878238 -0.153876
-0.00283725 -0.0554749
-0.000644307 -0.0419694
-0.00510298 -0.11044
-0.000205013 -0.0978817
-0.000593615 -0.15085
-0.00143639 -0.150922
-0.0106045 -0.151316
-0.0113948 -0.151863
0.0127979 -0.15329
0.0154154 -0.149151
-0.00621962 -0.125137
-0.00569998 -0.133088
0.00341604 -0.152412
0.00431496 -0.153
0.0139919 -0.150637
0.0108889 -0.15516
-0.00667633 -0.151694
-0.0092052 -0.150558
0.0124805 -0.0258582
0.0142921 -0.0242876
0.020534 -0.132304
0.0198486 -0.135782
0.00165639 -0.15122
-0.00078989 -0.151468
0.0175549 -0.125802
0.0166976 -0.118585
0.00189023 -0.0645816
0.00376736 -0.0591703
-0.00054133 -0.0655029
-0.00458779 -0.0738554
-0.00234361 -0.158103
-0.000671168 -0.159312
0.00505793 -0.00754241
0.00822107 -0.0153413
0.0144135 -0.0232952
0.0126868 -0.0221948
-0.00666796 -0.158415
-0.00450089 -0.15918
-0.0067457 -0.150852
-0.00919053 -0.149136
0.0130237 -0.101908
0.00250708 -0.102376
-0.000980869 -0.151668
-0.000198774 -0.151993
-0.00898859 -0.150462
-0.00849492 -0.14973
-0.0103712 -0.0236829
-0.0102885 -0.0162055
-0.00135441 -0.151441
0.000517652 -0.151617
0.00028788 -0.151865
-0.000234065 -0.152364
-0.0189908 -0.137092
-0.0180347 -0.138773
-0.0132825 -0.151779
-0.0120705 -0.153804
-0.0097518 -0.0905999
-0.0114551 -0.09805
-0.000703028 -0.135678
0.00131959 -0.140784
0.000145855 -0.151799
0.00171813 -0.151061
0.00605906 -0.151498
0.00854443 -0.150682
0.00846972 -0.0265389
0.00731999 -0.036687
-0.00483394 -0.0944237
-0.00806319 -0.104354
0.004757 -0.0518824
0.00391851 -0.0579251
0.00700808 -0.157278
0.00501267 -0.157792
0.0050629 -0.1362
0.0115033 -0.132329
0.00843116 -0.143199
0.00672783 -0.142939
0.00108133 -0.0407732
0.00271965 -0.0455421
0.00225694 -0.160758
0.00152497 -0.159147
0.0142496 -0.148256
0.015137 -0.148169
-0.0091387 -0.14636
-0.0111502 -0.144943
-0.0109302 -0.0907842
-0.0129165 -0.0972396
0.0214408 -0.125507
0.0186839 -0.119147
0.00136933 -0.00954747
-0.0015335 -0.0308236
0.00600069 -0.157471
0.00636473 -0.158585
-0.00905992 -0.0935399
-0.0120789 -0.102318
0.00634147 -0.0282155
0.00597764 -0.0187173
-0.000715056 -0.149358
0.000282832 -0.150915
-0.00681851 -0.0865232
-0.0102849 -0.0971218
-0.0158459 -0.115819
-0.0149298 -0.107121
-0.0188481 -0.122625
-0.0173805 -0.116748
0.0127459 -0.031171
0.0117935 -0.0364892
0.0123641 -0.144706
0.0102602 -0.146287
-0.00699965 -0.143253
-0.00352271 -0.141646
-0.0108406 -0.146155
-0.00846844 -0.148122
-0.00615202 -0.0414572
-0.00153365 -0.0621575
-0.0173033 -0.14499
-0.0159224 -0.147408
0.00431255 -0.155438
0.00498874 -0.155901
-0.00304912 -0.126225
0.00116802 -0.131486
0.00825119 -0.0821116
0.0119303 -0.0945227
-0.0157791 -0.0182226
-0.0153498 -0.0226232
-0.0128106 -0.104236
-0.00756323 -0.0904526
-0.00410532 -0.0711227
-0.00707263 -0.0767134
0.00509179 -0.140436
0.000738575 -0.142082
0.0149824 -0.109052
0.0101634 -0.09664
-0.00114931 -0.15597
-0.00037954 -0.155419
-0.00111685 -0.158419
-0.00211137 -0.159846
-0.00951238 -0.0914863
-0.0119949 -0.100512
-0.00847985 -0.143575
-0.0062656 -0.146888
0.018128 -0.118408
0.0198482 -0.125822
-0.000351646 -0.155409
-0.00130887 -0.15479
-0.0173906 -0.135062
-0.0161163 -0.136628
-0.0231666 -0.137526
-0.0205199 -0.140735
-0.00854219 -0.041609
-0.00992089 -0.041169
0.00626124 -0.00919116
0.0038454 -0.00563002
0.00471689 -0.0350116
0.00758253 -0.0257205
0.00827003 -0.157794
0.00546508 -0.160406
-0.00125196 -0.00394973
-0.00160063 -0.00899147
-0.0200107 -0.125476
-0.0176553 -0.116871
0.00741539 -0.0689794
0.00403753 -0.0543856
0.00840976 -0.0453484
0.0072722 -0.0496293
0.0150258 -0.149162
0.0193542 -0.141891
0.0155759 -0.148328
0.0175979 -0.145075
-0.0103821 -0.0819953
-0.0128638 -0.0953375
0.0017009 -0.039584
-0.00232062 -0.0212178
0.0167663 -0.146675
0.0184793 -0.142647
-0.00017631 -0.14942
0.000828803 -0.146766
0.004826 -0.112068
-0.00259532 -0.106753
0.0124786 -0.0957139
0.0100004 -0.0844614
0.00888857 -0.0194237
0.00688737 -0.0226697
0.00305778 -0.141922
0.00275139 -0.146304
0.00492386 -0.0442605
0.00179331 -0.0476216
-0.0142956 -0.10674
-0.0102565 -0.0949381
-0.016163 -0.146957
-0.0168801 -0.144004
0.000417118 -0.157563
0.000943755 -0.157953
0.0173476 -0.142286
0.0159636 -0.146631
0.0113452 -0.154318
0.0162413 -0.14734
0.000417365 -0.132231
-0.00231766 -0.137304
0.00430943 -0.0054922
0.00810457 -0.0126998
0.00426968 -0.0415378
0.00526295 -0.0460662
-0.0018897 -0.0057906
-0.00421997 -0.0106378
-0.0132798 -0.152754
-0.014334 -0.151109
0.00159742 -0.0688995
0.00576259 -0.078817
-0.0242263 -0.132337
-0.0223894 -0.143464
0.000466437 -0.0647621
0.00261874 -0.0759666
0.000169857 -0.155093
-0.00205573 -0.155101
-0.00114437 -0.0646792
-0.00163654 -0.0651875
-0.0118399 -0.150976
-0.00959527 -0.152725
0.00130522 -0.136733
-0.00233448 -0.13997
-0.00991887 -0.0289196
-0.00774879 -0.0280899
-0.0109344 -0.148128
-0.00846217 -0.149994
0.0143517 -0.129124
0.0148278 -0.133949
0.0120298 -0.0320753
0.0110285 -0.0384642
-2.87563e-05 -0.151572
0.000363375 -0.151498
0.00836466 -0.073565
0.0113701 -0.0874207
-0.00389772 -0.0229681
-0.00191395 -0.0228902
0.00997591 -0.152474
0.0086449 -0.152315
-0.0123135 -0.012052
-0.00681821 -0.00585555
0.00613653 -0.0800967
0.00710691 -0.0862743
-0.0104846 -0.155575
-0.0153849 -0.148763
-0.0126712 -0.100931
-0.0107837 -0.0875489
-0.00703837 -0.158979
-0.00590762 -0.158746
-0.0140773 -0.144869
-0.0156738 -0.140897
-5.69499e-05 -0.151804
0.000144371 -0.151716
-0.00568307 -0.156868
-0.00576283 -0.157975
0.0093916 -0.0776704
0.011911 -0.0904688
-0.0100085 -0.151615
-0.0100138 -0.152811
-0.00920991 -0.0947621
-0.0056411 -0.0854846
-0.0162977 -0.113552
-0.0166313 -0.118753
-0.00406361 -0.148639
-0.00597408 -0.145559
0.00349866 -0.13851
0.00771681 -0.140384
-0.000582079 -0.159228
-0.000580435 -0.157907
-0.000632799 -0.15147
-0.001093 -0.151451
0.0173642 -0.145296
0.0184285 -0.141571
0.00691326 -0.149329
0.00889048 -0.147189
-0.0162428 -0.122699
-0.0164185 -0.11652
0.0134873 -0.0897493
0.00221525 -0.089372
0.0139669 -0.130479
0.0138227 -0.136067
0.00241138 -0.149186
0.00273584 -0.14628
-0.0131987 -0.146375
-0.010951 -0.14867
-0.00805966 -0.154381
-0.00913384 -0.152909
0.00835743 -0.151822
0.0102953 -0.151423
-0.013199 -0.151188
-0.0125631 -0.150737
0.00721584 -0.154359
0.00714269 -0.155312
-0.0190012 -0.139067
-0.0177023 -0.144273
-0.000363505 -0.1562
-0.000759086 -0.156635
-0.00438981 -0.142969
-0.00162949 -0.145487
-0.00922356 -0.0920904
-0.00489738 -0.0812344
0.0160613 -0.125004
0.0204688 -0.116005
-0.0173937 -0.145135
-0.0190178 -0.140467
-0.0138663 -0.15042
-0.0117519 -0.153225
-0.000906103 -0.164906
-0.00409772 -0.162637
-0.0140676 -0.141844
-0.0144203 -0.13802
-0.00481982 -0.0636377
-0.00372252 -0.0662367
0.0165574 -0.128567
0.0158738 -0.122449
0.0168592 -0.115182
0.0180118 -0.123636
-0.00439809 -0.152512
-0.00702314 -0.151606
-0.0194197 -0.120005
-0.0149467 -0.109497
-0.00925568 -0.136632
-0.00674125 -0.142318
0.00837507 -0.150995
0.00764495 -0.150405
0.0157282 -0.148132
0.0152966 -0.149001
0.00150363 -0.0508736
0.00527005 -0.0440142
-0.0162386 -0.111357
-0.0162951 -0.122313
-0.00517817 -0.158145
-0.00522382 -0.157003
0.00734424 -0.142971
0.00981299 -0.139714
-0.0186237 -0.139246
-0.017998 -0.138482
-0.0105187 -0.150793
-0.0102391 -0.149695
-0.0128338 -0.0282644
-0.0127742 -0.0328168
0.00256108 -0.124833
-0.00123121 -0.117831
-0.00812261 -0.149671
-0.0105424 -0.14747
-0.0122159 -0.148141
-0.00985588 -0.150142
-0.00374799 -0.0072527
-0.00421953 -0.0139838
-0.000691145 -0.0925271
0.00182255 -0.109096
0.00253388 -0.111112
0.00537257 -0.0981833
0.00151166 -0.0228766
-0.00189525 -0.0397527
-0.00366747 -0.155191
-0.00175582 -0.155633
0.0135156 -0.118463
0.0129115 -0.127269
-0.00356042 -0.0536485
0.00105431 -0.0405064
0.028297 -0.135903
0.0211656 -0.121414
-0.000944808 -0.150626
-0.000277719 -0.151662
-0.0124138 -0.0127256
-0.0106664 -0.0129051
-0.00939565 -0.0308865
-0.00747032 -0.0411049
-0.00861296 -0.0398101
-0.0086526 -0.0446641
0.00751811 -0.106057
0.00861213 -0.0917856
-0.0045945 -0.147589
-0.00237411 -0.150007
-0.00240222 -0.0401796
-0.00433627 -0.0632066
-0.00584097 -0.151429
-0.00810575 -0.150893
0.0158606 -0.110193
0.0159512 -0.113441
0.0256119 -0.130445
0.020478 -0.121242
0.00146906 -0.0718611
0.00615337 -0.0845065
0.0130078 -0.152437
0.0110352 -0.15441
-0.00445282 -0.0801901
-0.00128144 -0.0690525
-0.00224316 -0.156741
-0.00370693 -0.156339
-0.00281908 -0.157021
-0.00183243 -0.156786
-0.00762378 -0.159474
-0.0046749 -0.162075
0.00188551 -0.0286535
-0.0016074 -0.0441846
-0.016243 -0.143739
-0.0176921 -0.139283
0.0200529 -0.131588
0.0205956 -0.129286
-0.0181762 -0.143964
-0.0187925 -0.141491
-0.00730711 -0.142272
-0.00965541 -0.144473
0.00176811 -0.0354936
-0.00178249 -0.0131375
0.0164579 -0.142406
0.014866 -0.146372
-0.00686509 -0.141076
-0.00406066 -0.137325
-0.00217982 -0.115824
-0.00413098 -0.124637
-0.00480016 -0.0055453
-0.000341896 -0.000393681
-0.00845109 -0.153364
-0.0070964 -0.153149
0.0156007 -0.14854
0.0126723 -0.153268
-0.0188812 -0.123063
-0.0174275 -0.117201
-0.00644235 -0.0516646
-0.002611 -0.062206
0.0151666 -0.110103
0.0141858 -0.11064
0.0120327 -0.153714
0.0135783 -0.151055
0.0163349 -0.147237
0.0183098 -0.143804
-0.0129143 -0.153312
-0.015069 -0.149797
-0.00314979 -0.00877619
-0.000760526 -0.00247179
-0.00154816 -0.15139
-0.000787448 -0.151637
0.0056514 -0.12604
0.00234005 -0.121082
0.00553888 -0.162312
0.00746186 -0.160014
-0.00512991 -0.146813
-0.0056608 -0.143208
-0.0151653 -0.149418
-0.0194476 -0.142566
0.00112409 -0.158004
0.00291241 -0.158521
0.00308112 -0.0618552
0.00711436 -0.0719659
0.0121723 -0.0222328
0.0119936 -0.0160425
-0.0197361 -0.141484
-0.0212046 -0.134752
0.00916131 -0.141194
0.0104987 -0.141748
0.0117021 -0.105853
0.0132282 -0.115096
-0.00115359 -0.156104
-0.00274941 -0.156184
-0.0181054 -0.116352
-0.0137109 -0.106563
0.00225166 -0.0323253
0.00421611 -0.0550504
-0.000438873 -0.15128
-0.00215836 -0.150487
0.0107707 -0.0946725
0.013831 -0.102894
-0.0157375 -0.019605
-0.0138664 -0.0184163
0.000211408 -0.0286031
-0.000478993 -0.0341727
-0.00362061 -0.159709
-0.00232851 -0.162129
0.0149709 -0.137056
0.0130818 -0.139565
0.00265175 -0.00250526
0.00758929 -0.00871662
0.000244495 -0.156573
0.00052451 -0.15611
-0.00450409 -0.145038
-0.0027616 -0.148249
0.0070926 -0.134833
0.00933227 -0.129012
-0.00239333 -0.157172
-0.00111904 -0.157499
-0.0152148 -0.0260202
-0.0161395 -0.0213116
0.00286757 -0.0252892
0.0029763 -0.0126936
0.000771166 -0.160372
0.00173116 -0.161812
-0.0089051 -0.156982
-0.0083814 -0.158368
0.016949 -0.146247
0.0160293 -0.148199
-0.00953314 -0.157144
-0.0106405 -0.156303
0.0243595 -0.130509
0.018373 -0.113894
-0.0027331 -0.157695
-0.00289441 -0.158963
0.00542701 -0.0660797
0.00750411 -0.0726995
-0.0120291 -0.0996063
-0.0153005 -0.108656
0.00946147 -0.157385
0.00616697 -0.161064
0.0136469 -0.0999778
0.0104961 -0.0885043
-0.0149889 -0.0184461
-0.0130348 -0.0173161
0.0020977 -0.153251
4.23132e-06 -0.152998
-0.00759429 -0.0907286
-0.0120173 -0.102183
0.0082139 -0.129645
0.0102836 -0.122474
0.00271726 -0.151812
0.0043613 -0.150938
-0.0167108 -0.137579
-0.0153021 -0.138943
-0.00850271 -0.151803
-0.00676861 -0.153415
0.0136038 -0.151229
0.0117304 -0.153035
-0.0060264 -0.155075
-0.00552128 -0.154436
-0.00417946 -0.0838345
-0.012188 -0.100282
0.0119307 -0.0970133
0.00986125 -0.0962574
-0.0120839 -0.151504
-0.0100072 -0.153588
0.0115606 -0.105148
0.0118023 -0.0943865
0.00139349 -0.157039
0.00182438 -0.157337
0.0135798 -0.11968
0.0145451 -0.126068
-0.00336749 -0.0066343
-0.000888433 -0.0021916
-0.0125269 -0.0940208
-0.0144099 -0.105875
-0.00716593 -0.023679
-0.00591425 -0.0344512
-0.00191189 -0.130815
0.00243072 -0.133825
-0.00396442 -0.150362
-0.0015993 -0.151346
0.00652886 -0.115623
0.00620225 -0.103381
0.00615044 -0.0692792
0.00443553 -0.0547066
-0.000769478 -0.151299
0.000392649 -0.151522
0.0124068 -0.123674
0.00978815 -0.121162
-0.00958613 -0.00850181
-0.00878731 -0.00880642
-0.0037141 -0.159564
-0.00398865 -0.158012
0.00813554 -0.149107
0.0107012 -0.146949
0.00176564 -0.153283
-0.00048343 -0.153973
-0.00758133 -0.154432
-0.00546284 -0.154874
0.000155323 -0.157145
-0.000440484 -0.157046
0.00333501 -0.0883075
0.00821683 -0.0870212
0.00548286 -0.154612
0.00729529 -0.153448
-0.00323934 -0.152506
-0.00107166 -0.153148
-0.00653026 -0.156641
-0.00537791 -0.158067
0.00342345 -0.151187
0.00473616 -0.150314
-0.00160538 -0.0180233
-0.000703073 -0.0030567
0.00101353 -0.156449
0.000645155 -0.15604
0.00155509 -0.155955
0.00328192 -0.155733
-0.0118019 -0.0974044
-0.00931108 -0.095655
-0.00254728 -0.15106
-0.000727485 -0.15147
0.00546759 -0.162394
0.00673873 -0.160817
-0.00225522 -0.151712
-0.0007003 -0.152225
0.0192109 -0.139149
0.0179445 -0.142661
-0.0133145 -0.0197079
-0.0146069 -0.0174733
0.0158789 -0.147926
0.0129257 -0.152011
0.0157413 -0.129059
0.0148677 -0.135488
0.0163681 -0.124516
0.0162136 -0.116447
-0.0114455 -0.0939759
-0.0128392 -0.10044
0.00797711 -0.15239
0.0079729 -0.151268
0.00355808 -0.149301
0.00202104 -0.149851
0.00615723 -0.14921
0.00398786 -0.150329
-0.008557 -0.131984
-0.00196852 -0.131709
0.0100597 -0.0121645
0.013336 -0.0175211
0.00871227 -0.14767
0.0104636 -0.146902
-0.00858465 -0.149974
-0.00648119 -0.150565
-0.0131642 -0.146438
-0.014965 -0.144662
-0.00792985 -0.0473529
-0.00520925 -0.0547693
-0.0175163 -0.143608
-0.0164108 -0.145046
0.0036358 -0.154735
0.00381307 -0.15381
0.00479102 -0.00969814
0.00735767 -0.0147616
0.0103927 -0.156066
0.00597063 -0.161704
-0.00510031 -0.160672
-0.00638573 -0.158518
-0.00954876 -0.078351
-0.0101404 -0.0854324
1.51853e-05 -0.157204
0.000277214 -0.157264
-0.000968178 -0.0571029
-0.00198811 -0.0480667
-0.0152645 -0.108273
-0.016966 -0.115974
-0.00196356 -0.157971
-0.000988989 -0.15948
0.0017231 -0.0437316
0.00536579 -0.0355528
-0.00420305 -0.00468652
-0.00479384 -0.00443965
-0.0104501 -0.0932951
-0.00642571 -0.0811259
-0.000411213 -0.0007451
-0.000260862 -0.000311977
0.0230498 -0.137643
0.0220544 -0.135537
-0.00253658 -0.0527222
0.00140814 -0.0655378
0.0154968 -0.123583
0.0118874 -0.130807
-0.0185375 -0.129632
-0.0185304 -0.135599
-0.00204909 -0.153803
-6.39229e-05 -0.153187
0.0180551 -0.140498
0.0188699 -0.135002
-0.0191888 -0.125372
-0.0176737 -0.11803
0.0020493 -0.0634679
0.00367287 -0.0598092
-0.00214172 -0.147938
-0.00191956 -0.15028
0.00612893 -0.160797
0.00364635 -0.162493
0.00043447 -0.155754
-2.17462e-05 -0.155168
0.0152249 -0.146694
0.0132085 -0.149452
-0.00147899 -0.151435
-0.000217916 -0.15162
0.00209201 -0.151172
0.00319995 -0.150687
-0.005032 -0.155315
-0.00304367 -0.155805
0.0188426 -0.136732
0.0180601 -0.141979
0.0137677 -0.150819
0.0116221 -0.153827
0.00920146 -0.0438249
0.00928567 -0.0434136
-0.0111031 -0.0162495
-0.0128846 -0.0223774
0.013564 -0.151841
0.0151686 -0.148773
-0.0122136 -0.152513
-0.0101273 -0.154861
0.011627 -0.102853
0.0201259 -0.0900457
-0.0186462 -0.130932
-0.0180229 -0.124935
-0.00306072 -0.0563928
0.00155 -0.0684496
-0.000939445 -0.151214
0.000303034 -0.151515
-0.00282032 -0.0291322
0.000163984 -0.0426045
-0.00634274 -0.0488689
-0.00805241 -0.0394772
0.0145278 -0.149763
0.0125114 -0.153019
-0.00883578 -0.152979
-0.00768762 -0.15442
-0.016875 -0.114523
-0.0193087 -0.122528
0.00802433 -0.0396234
0.0116628 -0.034073
-0.0043057 -0.0674938
-5.61944e-05 -0.0574187
0.014367 -0.150267
0.0163695 -0.146424
0.0138674 -0.0209918
0.0134527 -0.0279209
0.00670032 -0.0502648
0.00981906 -0.0401736
0.0118838 -0.154463
0.0153345 -0.149329
0.0131495 -0.0989623
0.0199131 -0.118778
0.0146995 -0.105163
0.0131744 -0.0984757
0.0161571 -0.135534
0.0144978 -0.139975
-0.0181043 -0.121018
-0.0182089 -0.12618
-0.00013465 -0.152537
0.000354538 -0.153212
0.0122774 -0.0971453
0.014109 -0.104535
0.0119613 -0.0193037
0.0120274 -0.0270673
0.000288277 -0.157238
0.000664182 -0.157045
-0.0067493 -0.156128
-0.00884137 -0.15521
-0.0117965 -0.11996
-0.0089709 -0.126567
-0.0113096 -0.0893273
-0.0128398 -0.102717
-0.00466129 -0.157242
-0.00387435 -0.158468
-0.00131025 -0.0579517
0.00155151 -0.044699
-0.00690772 -0.0356282
-0.00854454 -0.0252262
0.00172423 -0.156603
0.00314484 -0.156325
-0.00229581 -0.0432376
-0.00436039 -0.0631156
-0.0168576 -0.14668
-0.0200208 -0.139901
-0.000431782 -0.152253
0.00237856 -0.151865
0.00191282 -0.0665692
0.00525622 -0.0728016
-0.00656505 -0.0615074
-0.0105812 -0.0870159
0.00358992 -0.0508524
0.00434622 -0.0562732
0.0122429 -0.146903
0.0142635 -0.145123
0.00753306 -0.155158
0.00905949 -0.15501
0.0163626 -0.112007
0.0127812 -0.101145
-0.0015414 -0.14888
-0.00138575 -0.150871
0.0105238 -0.155948
0.0104223 -0.155315
-0.00336596 -0.156763
-0.00480293 -0.156995
-0.00601526 -0.144625
-0.00717634 -0.140018
0.00290784 -0.00837436
0.00263853 -0.0141096
-0.00397054 -0.155104
-0.00217401 -0.155655
0.00992075 -0.157072
0.0100418 -0.156607
-0.00672832 -0.153569
-0.00694663 -0.152414
-0.0157233 -0.110111
-0.0178634 -0.119284
0.0101068 -0.15402
0.00874402 -0.155913
-0.0166248 -0.14614
-0.0152046 -0.148487
0.00110897 -0.153989
-0.000285353 -0.153347
-0.0136683 -0.137793
-0.0150439 -0.137848
0.0127871 -0.148973
0.0106751 -0.150407
0.00113665 -0.15107
0.0014729 -0.150182
0.0181228 -0.117385
0.0137136 -0.105983
0.0120452 -0.154296
0.011682 -0.154808
-0.0129103 -0.152004
-0.0130441 -0.150732
0.00356894 -0.0535979
-0.00028844 -0.0661449
-0.0114509 -0.154484
-0.0103551 -0.156337
-0.0163804 -0.0199161
-0.0155025 -0.0245878
0.00508987 -0.0582234
0.00203394 -0.0443059
0.0185354 -0.129287
0.0185408 -0.123857
-0.000348841 -0.151614
-0.00126808 -0.150567
0.00279156 -0.141004
0.00234276 -0.135854
-0.00115957 -0.0634301
-0.00528621 -0.0511594
0.00996352 -0.155
0.00907683 -0.156779
-0.00752282 -0.0705734
-0.00425598 -0.0543232
0.00394352 -0.158047
0.0059952 -0.157242
0.00125348 -0.150658
0.000167034 -0.151692
0.0101475 -0.150898
0.0120057 -0.150214
0.0128133 -0.147999
0.0126286 -0.149814
0.0137263 -0.145506
0.0155801 -0.143261
-0.00196615 -0.11154
-0.000387597 -0.122197
-0.0174494 -0.144533
-0.0189102 -0.140444
0.0112395 -0.0868067
0.0117149 -0.0962275
0.00459176 -0.161115
0.00563621 -0.158997
0.0179068 -0.121693
0.0183999 -0.121404
-0.00601669 -0.00634178
-0.000627074 -0.000619914
0.0114656 -0.0149301
0.0137074 -0.0155365
-0.00358109 -0.150753
-0.00165799 -0.1513
-0.000846406 -0.157146
-0.000177003 -0.157285
0.0107407 -0.0130256
0.00693762 -0.00823446
0.0170619 -0.128005
0.0172368 -0.121295
0.00507711 -0.146197
0.00213217 -0.1457
0.0137041 -0.0285022
0.0125915 -0.0260237
0.000297787 -0.148265
-0.000180687 -0.150623
0.000410599 -0.156564
0.00106153 -0.156762
0.00832694 -0.150101
0.00579216 -0.151055
0.0176417 -0.118166
0.0162086 -0.11159
-0.015096 -0.149479
-0.016804 -0.14538
0.00448754 -0.068585
0.00841512 -0.0805719
0.0165538 -0.0917009
0.0150654 -0.105242
-0.0126984 -0.145271
-0.011404 -0.14536
-0.0169768 -0.114971
-0.0181829 -0.119204
0.0203688 -0.133692
0.0207867 -0.135376
0.0225219 -0.126186
0.0235469 -0.137584
-0.00482124 -0.0490767
-0.00129821 -0.0611915
-0.0164592 -0.135686
-0.0160683 -0.131411
-0.0150548 -0.107954
-0.0133889 -0.104592
0.00857861 -0.092479
0.0106718 -0.0985099
0.00871077 -0.0784498
0.0046983 -0.067008
0.00156041 -0.156927
0.00227118 -0.157141
-0.00844119 -0.155662
-0.00871978 -0.154501
-0.000760432 -0.158397
-0.00160281 -0.15999
0.00736688 -0.155099
0.00568613 -0.155181
-0.00601722 -0.152801
-0.0036979 -0.15294
-0.00788375 -0.158667
-0.00721892 -0.158266
-0.0017233 -0.102619
-0.0050208 -0.0833036
0.00191897 -0.0187714
0.000824488 -0.00456379
-0.00112947 -0.143096
-0.00255341 -0.146023
0.0156513 -0.130741
0.0168377 -0.132112
0.0060056 -0.153115
0.00532717 -0.154252
0.0142459 -0.0279877
0.0158952 -0.0239883
-0.0158456 -0.111622
-0.0155182 -0.113986
-0.0194764 -0.140115
-0.0172189 -0.146097
-0.000240721 -0.157608
-0.00110273 -0.157429
-0.0085582 -0.14169
-0.00898822 -0.136321
-0.0170382 -0.12097
-0.0162934 -0.113563
0.00252717 -0.15722
0.00170825 -0.156952
0.00480749 -0.00970949
0.00629701 -0.0195247
0.0140166 -0.104929
0.0106929 -0.0942979
0.0129401 -0.151947
0.0180214 -0.145009
0.0116467 -0.154839
0.00874186 -0.158413
-0.000547197 -0.138963
0.00202055 -0.142926
0.0105105 -0.150226
0.00950756 -0.152062
0.000641302 -0.134951
0.000225512 -0.140783
-0.000882588 -0.141278
0.00311734 -0.139135
-0.012604 -0.153016
-0.0121106 -0.154109
0.00354329 -0.151116
0.00239308 -0.151165
-0.00324227 -0.0630316
-0.00706956 -0.0731557
0.00308957 -0.0641932
0.00608341 -0.0764448
0.00116795 -0.156219
0.00180836 -0.156497
-0.0145431 -0.136107
-0.0128251 -0.137001
0.00445444 -0.155989
0.00397514 -0.156706
-0.00430471 -0.150033
-0.00364889 -0.150768
0.0203511 -0.134146
0.0196184 -0.135013
0.0118773 -0.0913978
0.00849844 -0.0802372
0.01181 -0.0215911
0.0105222 -0.0300798
0.01543 -0.147609
0.0153836 -0.146072
-0.017124 -0.142034
-0.0164729 -0.145499
0.00648785 -0.00526344
0.0102449 -0.010514
-0.01344 -0.126378
-0.014102 -0.117318
-0.0171921 -0.115295
-0.0145606 -0.106024
0.0107982 -0.139305
0.0120103 -0.133569
-0.00803677 -0.115461
-0.00417476 -0.111747
0.0156218 -0.132981
0.0140073 -0.133771
0.0149631 -0.14781
0.014541 -0.146818
-0.0115968 -0.100002
-0.0134577 -0.0938743
-0.0122038 -0.102563
-0.0101405 -0.0972906
0.00657484 -0.139559
0.00863394 -0.133961
-0.00793322 -0.157845
-0.00829106 -0.156476
-0.00967541 -0.13611
-0.00727884 -0.1304
-0.00824933 -0.159282
-0.0037664 -0.164597
0.0098663 -0.120743
0.00189636 -0.121833
-0.014542 -0.110626
-0.0133398 -0.114436
-0.0124758 -0.150586
-0.0141543 -0.149279
-0.00494763 -0.140945
-0.000859725 -0.139671
0.00387116 -0.150435
0.00205251 -0.151087
0.00816394 -0.15572
0.00698047 -0.157441
0.00989649 -0.0225801
0.00869906 -0.014305
0.00344632 -0.0564125
0.00215702 -0.063853
-0.00613408 -0.149248
-0.00578829 -0.148734
0.0142154 -0.103197
0.0147891 -0.106457
0.0138688 -0.127609
0.013716 -0.133976
-0.0110825 -0.155841
-0.0142701 -0.151232
-0.00631193 -0.15722
-0.00510601 -0.158899
0.0171309 -0.145714
0.0167731 -0.14565
0.0153014 -0.112206
0.0137339 -0.101385
-0.00656023 -0.140574
-0.0043262 -0.136024
0.0209104 -0.127129
0.0180103 -0.117429
0.0063568 -0.0817024
0.0112601 -0.0621795
-0.00445881 -0.163795
-0.00525467 -0.162757
-0.00250798 -0.157273
-0.00187571 -0.156916
0.00933893 -0.0949523
0.0110108 -0.106458
0.00724716 -0.0718358
0.00841355 -0.0728627
-0.0049607 -0.1632
-0.00363257 -0.164662
0.0107164 -0.155795
0.00840423 -0.157983
0.00249958 -0.152175
0.0016094 -0.153012
-0.00446591 -0.054516
-0.000768203 -0.0405204
-0.00968073 -0.0792514
-0.0112156 -0.0862611
-0.0149419 -0.149648
-0.0161629 -0.146434
-0.0121981 -0.095746
-0.0113343 -0.0950674
-0.0216457 -0.13953
-0.0154174 -0.149824
-0.0122826 -0.152225
-0.0130672 -0.150204
0.00833516 -0.121535
0.00950116 -0.110593
0.00282268 -0.164341
0.00200269 -0.164005
0.021019 -0.13042
0.020338 -0.131692
0.00534491 -0.151682
0.0029254 -0.152012
0.0183232 -0.143835
0.0203194 -0.13834
-0.0065403 -0.126695
-0.00264239 -0.125946
0.00903803 -0.137861
0.0134272 -0.131193
0.00130474 -0.00779957
0.000100119 -0.0279643
0.000789168 -0.157925
0.000679878 -0.160007
-0.00962493 -0.149257
-0.0101768 -0.150045
0.0106164 -0.0983261
0.015338 -0.110161
-0.0129258 -0.0325699
-0.0123906 -0.033722
-0.0091712 -0.0940635
-0.00889993 -0.0911112
-0.00144785 -0.00164664
-0.000479065 -0.000443754
-0.0160835 -0.112095
-0.017285 -0.120264
-0.00100625 -0.151485
-0.000120418 -0.15196
-0.00100766 -0.147674
-0.00121829 -0.150117
-0.00598757 -0.140163
-0.00226049 -0.137189
-0.0148322 -0.0196219
-0.0159194 -0.017648
0.00619435 -0.0443649
0.00495042 -0.0530152
0.00590923 -0.141982
0.00617264 -0.136776
-0.000777913 -0.146101
0.000869979 -0.14862
0.0180652 -0.117269
0.016333 -0.112169
0.000573304 -0.15129
0.0007781 -0.149648
0.00949558 -0.021809
0.0117128 -0.0215401
0.00936194 -0.0121006
0.00585648 -0.00761055
0.00110114 -0.000966803
0.00569834 -0.00480514
0.0219143 -0.127346
0.0209534 -0.127044
-0.00509792 -0.137486
-0.00739396 -0.13945
0.000690111 -0.0408503
-0.00276049 -0.0245861
-0.00182287 -0.165386
-0.0035145 -0.162812
-0.00443228 -0.0536766
-0.000627686 -0.0388903
0.00845823 -0.046276
0.00713257 -0.0481711
-0.00295288 -0.143339
4.2872e-05 -0.143735
0.0205401 -0.130111
0.0201248 -0.135027
0.00504682 -0.162877
0.00879992 -0.158471
0.0100428 -0.0815823
0.0127193 -0.0949137
-0.00905895 -0.0390405
-0.00839662 -0.0335714
0.00248125 -0.162633
0.00531306 -0.159839
-0.0127818 -0.152751
-0.0125628 -0.153623
0.0105529 -0.0879129
0.00891755 -0.0920351
-0.0138325 -0.106717
-0.0121466 -0.10158
0.00397779 -0.00686922
0.00679026 -0.0116655
-0.000521387 -0.156365
-0.00165338 -0.156589
-0.000867805 -0.0488937
-0.00362526 -0.0503345
-0.0116229 -0.132645
-0.0137875 -0.131619
-9.86245e-05 -0.147234
-0.00253677 -0.146773
0.000729349 -0.150792
0.00220752 -0.149062
0.00402239 -0.15564
0.00414874 -0.156212
0.0100824 -0.0340334
0.0122698 -0.0258037
0.0131466 -0.0979153
0.0155551 -0.108765
0.00901599 -0.0768419
0.00675162 -0.0687578
-0.00882921 -0.154291
-0.00767147 -0.155687
-0.00480806 -0.148459
-0.00557139 -0.145656
-0.0179261 -0.118149
-0.0152905 -0.108685
-0.0113302 -0.155095
-0.0136521 -0.151736
0.00465401 -0.093758
-0.000982384 -0.105267
-0.0064995 -0.144941
-0.00794619 -0.145288
-0.00297841 -0.14638
-0.00529324 -0.143421
-0.00193683 -0.15133
-0.00450111 -0.150491
-0.000391867 -0.155767
0.0014596 -0.155651
0.00280731 -0.151228
0.00402704 -0.151268
0.015743 -0.109816
0.0178476 -0.11793
0.00174358 -0.0117566
-0.00100245 -0.0220876
0.0104792 -0.011858
0.0134958 -0.0177243
0.00102759 -0.156298
0.00150168 -0.156605
0.0149443 -0.107798
0.0157844 -0.110078
-0.00194729 -0.0748676
-0.00685082 -0.0881671
-0.00289791 -0.148075
-0.00140609 -0.150356
-0.00369458 -0.152373
-0.00598846 -0.152182
-0.00609059 -0.060083
-0.00200527 -0.0442831
-0.00243015 -0.0560012
0.00173573 -0.0645117
-0.000411515 -0.157363
-0.00103611 -0.157089
0.000351743 -0.151409
-4.15194e-05 -0.151721
-0.00235696 -0.156347
-0.000855936 -0.156484
0.000335173 -0.0653302
0.00265146 -0.059293
0.0142188 -0.100927
0.012689 -0.0819538
0.000211421 -0.157183
0.000608845 -0.157145
0.00643712 -0.148417
0.00425784 -0.150258
0.00414618 -0.163405
0.00758306 -0.15984
-0.0262174 -0.134285
-0.0208274 -0.122091
-0.00821364 -0.0924548
-0.00358554 -0.0796892
0.00149451 -0.00308239
0.00301685 -0.00422159
-0.0141352 -0.150592
-0.0200797 -0.142559
0.0184633 -0.142693
0.0191483 -0.13969
0.00223963 -0.156448
0.0011291 -0.156793
0.0164648 -0.146992
0.0173985 -0.145284
-0.0127206 -0.0315313
-0.0145278 -0.0245427
0.011911 -0.131413
0.00940725 -0.134523
0.0012819 -0.16489
0.00411486 -0.161629
0.014131 -0.10594
0.0168598 -0.113656
0.00313175 -0.0766667
0.00250876 -0.0767516
-3.90258e-05 -0.15196
-0.000203687 -0.151509
0.00265828 -0.153103
0.00518155 -0.152224
0.0114899 -0.143759
0.00909489 -0.146506
0.00267672 -0.148049
0.0047206 -0.144929
-0.0131782 -0.152541
-0.0160352 -0.147997
0.00323176 -0.142038
0.00612629 -0.140736
-0.00795557 -0.159677
-0.011484 -0.155297
-0.00661858 -0.141432
-0.0066374 -0.145002
0.0146281 -0.0281459
0.0132527 -0.029178
0.00695657 -0.1501
0.00958535 -0.148395
-0.00178562 -0.156784
-0.0030418 -0.156902
-0.0114911 -0.100764
-0.0145899 -0.10826
-0.0156727 -0.0209005
-0.0138723 -0.0194998
0.00262309 -0.0256186
0.00473085 -0.0227016
0.0116597 -0.137379
0.0106569 -0.141885
0.00200448 -0.148588
0.00420113 -0.1459
0.0194614 -0.123758
0.0204251 -0.131506
0.00768006 -0.150368
0.00520028 -0.151157
0.00544655 -0.0830833
0.00859497 -0.0927968
0.00420665 -0.05323
0.0030134 -0.0479197
0.0094038 -0.0947764
0.00417183 -0.0802376
0.000185365 -0.156416
0.00100382 -0.15594
0.00596959 -0.0794907
0.0114494 -0.0860134
0.00431834 -0.16026
0.00269945 -0.162845
0.00142189 -0.0723598
-0.00313016 -0.0604558
0.00772004 -0.0902869
0.00440571 -0.0820168
-0.00412808 -0.0766825
-0.00201551 -0.0668692
0.0125543 -0.0315125
0.0125118 -0.0345928
-0.0135883 -0.15213
-0.0098052 -0.157062
-0.00698286 -0.00700946
-0.00906072 -0.00808691
0.0156838 -0.11073
0.0118175 -0.0978013
-0.00852956 -0.0155712
-0.0107984 -0.0211407
0.006033 -0.0379241
0.00643743 -0.0286489
-0.000915385 -0.151465
8.06574e-05 -0.151489
0.00307333 -0.0414136
-0.0095231 -0.0459973
0.00761551 -0.159798
0.0070488 -0.160197
-0.0145692 -0.0245386
-0.0160011 -0.0229799
-0.0194671 -0.134727
-0.0186102 -0.140391
-0.00151133 -0.151326
0.000510374 -0.151448
0.0111336 -0.0137834
0.0140412 -0.0167798
0.00215781 -0.00238957
0.00340832 -0.00463018
-0.00519093 -0.152071
-0.00751038 -0.151629
-0.00536974 -0.00482767
-0.0106733 -0.0103322
0.00540275 -0.162457
0.00658749 -0.160899
0.017922 -0.144058
0.0155197 -0.149069
-0.0099676 -0.155335
-0.0101731 -0.154137
0.00302318 -0.155727
0.00312467 -0.155054
-0.00589376 -0.156216
-0.0041712 -0.156949
0.00739113 -0.147919
0.00788586 -0.146107
0.0013617 -0.151293
0.00205533 -0.151022
0.0094017 -0.0129943
0.0105922 -0.0196865
-0.00150526 -0.0344644
-0.0041673 -0.0213136
0.0164363 -0.145112
0.0161029 -0.143721
0.000265946 -0.156971
9.05694e-05 -0.157227
-0.00137818 -0.151414
0.000567657 -0.151532
-0.000495485 -0.130105
0.00416415 -0.128398
0.0104634 -0.0233384
0.00984522 -0.0324549
-0.00108663 -0.157269
-0.00143303 -0.1569
0.00622923 -0.0823128
0.00804376 -0.0841343
-0.00506179 -0.0292718
-0.00547957 -0.0183584
0.0167247 -0.1467
0.0169202 -0.14621
-0.0111915 -0.152291
-0.00903118 -0.153972
0.000536525 -0.0712765
0.00535238 -0.0843214
0.00917221 -0.041459
0.0168345 -0.0717409
-0.0107087 -0.148379
-0.00850479 -0.149533
-0.0181948 -0.13729
-0.0169423 -0.140993
0.00418415 -0.150783
0.00324438 -0.150812
-0.00339537 -0.0523074
-0.00236048 -0.0763515
0.00180508 -0.151152
-0.000144219 -0.151502
0.00570427 -0.0492586
0.00901107 -0.0386718
0.0224433 -0.102127
0.0146491 -0.0824761
-0.00133498 -0.157363
-0.00277676 -0.157139
0.00628509 -0.117357
0.00954851 -0.12559
0.0133625 -0.0992265
0.0137685 -0.100728
-0.00808241 -0.158801
-0.0102859 -0.155784
-0.000422909 -0.151243
0.000326313 -0.151619
0.00584084 -0.125711
0.00832737 -0.132854
-0.00224112 -0.150884
-0.00118536 -0.151171
-0.00289742 -0.058511
-0.00364356 -0.0592451
-0.00204282 -0.147393
0.000236961 -0.148134
-0.0066205 -0.149265
-0.00914014 -0.147211
-0.0114398 -0.145349
-0.00903596 -0.147821
0.0185489 -0.136378
0.0190168 -0.130349
0.000457834 -0.143613
0.00188427 -0.13832
-0.00255723 -0.011633
-0.000877834 -0.0143742
0.0079497 -0.149744
0.0104668 -0.148149
-0.00713235 -0.0485235
-0.00301183 -0.0593077
0.00642425 -0.0684884
0.00773915 -0.0693216
-0.00866761 -0.157767
-0.00667146 -0.158928
0.00267749 -0.156317
0.00159422 -0.156742
-0.0157149 -0.118787
-0.0149704 -0.109438
0.00732297 -0.016247
0.00953053 -0.0205495
3.47153e-05 -0.151474
0.00200205 -0.15133
-0.00473663 -0.155655
-0.00380364 -0.156374
-0.017729 -0.117083
-0.020405 -0.126451
-0.00281216 -0.141135
-0.000815215 -0.145091
-0.00187618 -0.156972
-0.00341436 -0.156815
-0.00200287 -0.156969
-0.00357288 -0.156758
0.0135149 -0.0998373
0.011303 -0.0869455
0.0185505 -0.117443
0.0236355 -0.127947
-0.00288328 -0.150863
-0.00130962 -0.151417
0.00556168 -0.160594
0.00460197 -0.16017
0.00492789 -0.0615588
0.00847787 -0.0755019
-0.00595395 -0.157355
-0.00770925 -0.157134
0.016382 -0.142014
0.0172259 -0.142113
0.0168324 -0.129881
0.0169805 -0.135255
-0.018809 -0.135945
-0.0181359 -0.141274
0.00852441 -0.13918
0.00700671 -0.143906
0.000502475 -0.157211
0.00104964 -0.157069
-0.0116137 -0.109715
-0.0137801 -0.113929
0.0164048 -0.0209895
0.014905 -0.0200313
0.0116878 -0.0339989
0.0100772 -0.0411883
-0.00418 -0.144543
-0.00663107 -0.143638
-0.00507061 -0.149798
-0.00691511 -0.148979
-0.00192382 -0.156576
-0.0033765 -0.156614
-0.00956743 -0.0108112
-0.00818658 -0.0110624
-0.0052398 -0.0817112
-0.0029036 -0.0777677
0.0213718 -0.133313
0.0197912 -0.140696
-0.0111249 -0.153651
-0.0115295 -0.152174
-0.0160751 -0.138158
-0.0173326 -0.133778
-0.0111729 -0.147639
-0.0132638 -0.144498
-0.00644976 -0.14957
-0.00784019 -0.147709
0.0139716 -0.150955
0.0130241 -0.151914
-0.00585563 -0.153703
-0.00828742 -0.152696
0.013112 -0.118928
0.00856999 -0.107795
-0.00371488 -0.0289422
-0.00307042 -0.0211825
-0.0048967 -0.0710961
-0.0106979 -0.0817616
0.00117934 -0.0668007
-0.00175981 -0.0740504
0.00619903 -0.0457528
0.00243407 -0.0576509
-0.0147051 -0.105835
-0.012035 -0.0947967
-0.0173388 -0.12538
-0.0177197 -0.131542
0.0190813 -0.129831
0.0195554 -0.132925
-0.00649048 -0.151066
-0.00602137 -0.152164
-0.00367523 -0.157508
-0.00198041 -0.157467
-0.014693 -0.133246
-0.0151216 -0.126462
-0.0187893 -0.143439
-0.0203751 -0.138466
-0.000144859 -0.152001
5.83113e-05 -0.151865
0.0194124 -0.133444
0.0199928 -0.134258
0.000323402 -0.15245
8.11169e-05 -0.151962
-0.0091762 -0.0902642
-0.00760467 -0.0742133
-0.0197367 -0.140303
-0.0182207 -0.143861
-0.0123075 -0.153938
-0.0159432 -0.148378
-0.00201633 -0.0362011
0.00395191 -0.0517612
0.00167432 -0.058365
-0.00204802 -0.0447399
-0.0148227 -0.150219
-0.0174186 -0.145757
0.00392738 -0.164104
0.00615926 -0.161542
1.6054e-05 -0.0669363
-0.00171745 -0.0429026
-0.0100885 -0.0973191
-0.00984017 -0.0964959
-0.0196128 -0.143077
-0.0222968 -0.135034
-0.00725597 -0.119312
-0.00417869 -0.126996
-0.00805639 -0.009759
-0.0115493 -0.0135714
0.00833782 -0.0247478
0.00797712 -0.0154636
-0.0078115 -0.158896
-0.00998297 -0.156971
0.0147131 -0.132898
0.0156639 -0.135425
0.0087606 -0.0881854
0.012815 -0.100338
-0.0011767 -0.151485
-0.00209052 -0.151241
-0.0196468 -0.123496
-0.0190418 -0.12279
0.0136378 -0.150433
0.0139251 -0.151014
0.00637184 -0.154733
0.0050185 -0.154481
-0.0102327 -0.0247317
-0.0102385 -0.0167603
0.000979512 -0.150811
0.00215191 -0.148473
0.00227125 -0.158742
0.00354564 -0.159696
-0.00184432 -0.157308
-0.00322639 -0.156923
-0.000104503 -0.151949
-0.000905306 -0.151604
-0.00861794 -0.113883
-0.010772 -0.120542
-0.00147803 -0.151254
-0.000917548 -0.150596
0.00133606 -0.00191339
0.00526898 -0.0103742
-0.022073 -0.121994
-0.0140912 -0.102808
0.0189119 -0.136311
0.0183832 -0.13479
-0.00429529 -0.14401
-0.0039277 -0.147574
0.00284113 -0.152613
0.00553251 -0.151923
0.00565387 -0.150218
0.00826607 -0.14848
-0.00616436 -0.155029
-0.0051049 -0.154618
-0.00046991 -0.0351163
-0.00034116 -0.0397242
-0.0123784 -0.121625
-0.00557718 -0.11457
-0.00284018 -0.161126
-0.00579738 -0.161725
-0.00579738 -0.161725
-0.00891269 -0.1625
-0.00891269 -0.1625
-0.0121144 -0.163513
-0.0121144 -0.163513
-0.0153387 -0.164799
-0.0153387 -0.164799
-0.0185369 -0.166344
-0.0185369 -0.166344
-0.0216506 -0.168148
-0.0216506 -0.168148
-0.0246328 -0.170194
-0.0246328 -0.170194
-0.0274414 -0.17246
-0.0274414 -0.17246
-0.0300379 -0.174919
-0.0300379 -0.174919
-0.032396 -0.177535
-0.032396 -0.177535
-0.0344915 -0.180274
-0.0344915 -0.180274
-0.0363104 -0.183097
-0.0363104 -0.183097
-0.0378466 -0.185964
-0.0378466 -0.185964
-0.039091 -0.188832
-0.039091 -0.188832
-0.0400557 -0.191677
-0.0400557 -0.191677
-0.0407491 -0.194454
-0.0407491 -0.194454
-0.0411834 -0.197135
-0.0411834 -0.197135
-0.0413803 -0.199702
-0.0413803 -0.199702
-0.0413579 -0.20212
-0.0413579 -0.20212
-0.0411439 -0.20438
-0.0411439 -0.20438
-0.0407564 -0.206475
-0.0407564 -0.206475
-0.0402195 -0.208389
-0.0402195 -0.208389
-0.0395609 -0.21012
-0.0395609 -0.21012
-0.0387947 -0.211674
-0.0387947 -0.211674
-0.0379346 -0.213061
-0.0379346 -0.213061
-0.036999 -0.21427
-0.036999 -0.21427
-0.0360024 -0.215317
-0.0360024 -0.215317
-0.0349364 -0.216225
-0.0349364 -0.216225
-0.0337991 -0.216986
-0.0337991 -0.216986
-0.0326073 -0.217605
-0.0326073 -0.217605
-0.0313404 -0.21807
-0.0313404 -0.21807
-0.0299731 -0.218416
-0.0299731 -0.218416
-0.028507 -0.218629
-0.028507 -0.218629
-0.0269346 -0.218652
-0.0269346 -0.218652
-0.0252027 -0.218498
-0.0252027 -0.218498
-0.023312 -0.218179
-0.023312 -0.218179
-0.0212512 -0.217614
-0.0212512 -0.217614
-0.018992 -0.216698
-0.018992 -0.216698
-0.0165191 -0.215459
-0.0165191 -0.215459
-0.0138406 -0.213832
-0.0138406 -0.213832
-0.0109385 -0.211631
-0.0109385 -0.211631
-0.0078406 -0.208787
-0.0078406 -0.208787
-0.00456568 -0.205175
-0.00456568 -0.205175
-0.00107847 -0.200531
-0.00107847 -0.200531
0.00245253 -0.194541
0.00245253 -0.194541
0.00608332 -0.186883
0.00608332 -0.186883
0.00976549 -0.176445
0.00976549 -0.176445
0.013626 -0.16287
0.013626 -0.16287
0.0189491 -0.148271
0.0189491 -0.148271
0.0220817 -0.141189
0.0220817 -0.141189
0.0223037 -0.13865
0.0223037 -0.13865
0.0217118 -0.137691
0.0217118 -0.137691
0.0210895 -0.137661
0.0210895 -0.137661
0.0204361 -0.138294
0.0204361 -0.138294
0.019891 -0.139375
0.019891 -0.139375
0.0192605 -0.140862
0.0192605 -0.140862
0.0184387 -0.142662
0.0184387 -0.142662
0.0175935 -0.144713
0.0175935 -0.144713
0.0166618 -0.146816
0.0166618 -0.146816
0.015573 -0.148827
0.015573 -0.148827
0.0143241 -0.150692
0.0143241 -0.150692
0.0130082 -0.152423
0.0130082 -0.152423
0.0116473 -0.153967
0.0116473 -0.153967
0.0102358 -0.155312
0.0102358 -0.155312
0.0088105 -0.156472
0.0088105 -0.156472
0.00738512 -0.157455
0.00738512 -0.157455
0.00596304 -0.158268
0.00596304 -0.158268
0.00452333 -0.158945
0.00452333 -0.158945
0.00304924 -0.159508
0.00304924 -0.159508
0.00149686 -0.160014
0.00149686 -0.160014
-0.00035957 -0.160538
-0.00035957 -0.160538
-0.00284018 -0.161126
0.0233575 -0.218371
0.0252426 -0.218688
0.0252426 -0.218688
0.0269726 -0.218834
0.0269726 -0.218834
0.0285434 -0.218814
0.0285434 -0.218814
0.0300033 -0.218611
0.0300033 -0.218611
0.0313652 -0.218268
0.0313652 -0.218268
0.0326294 -0.217808
0.0326294 -0.217808
0.0338134 -0.217194
0.0338134 -0.217194
0.0349455 -0.216442
0.0349455 -0.216442
0.0360081 -0.215537
0.0360081 -0.215537
0.0370011 -0.214493
0.0370011 -0.214493
0.0379323 -0.213289
0.0379323 -0.213289
0.0387881 -0.211908
0.0387881 -0.211908
0.0395524 -0.210358
0.0395524 -0.210358
0.0402082 -0.208634
0.0402082 -0.208634
0.0407425 -0.206732
0.0407425 -0.206732
0.0411284 -0.204636
0.0411284 -0.204636
0.0413438 -0.202385
0.0413438 -0.202385
0.0413657 -0.199986
0.0413657 -0.199986
0.0411735 -0.197427
0.0411735 -0.197427
0.0407372 -0.194746
0.0407372 -0.194746
0.0400467 -0.191976
0.0400467 -0.191976
0.0390867 -0.189143
0.0390867 -0.189143
0.0378418 -0.186279
0.0378418 -0.186279
0.0363124 -0.183418
0.0363124 -0.183418
0.0345007 -0.180608
0.0345007 -0.180608
0.0324079 -0.177874
0.0324079 -0.177874
0.0300588 -0.175266
0.0300588 -0.175266
0.0274684 -0.172815
0.0274684 -0.172815
0.024669 -0.170554
0.024669 -0.170554
0.0216971 -0.168513
0.0216971 -0.168513
0.018594 -0.166711
0.018594 -0.166711
0.0154131 -0.165171
0.0154131 -0.165171
0.0121957 -0.163893
0.0121957 -0.163893
0.00901761 -0.162879
0.00901761 -0.162879
0.00591931 -0.162101
0.00591931 -0.162101
0.00300445 -0.161497
0.00300445 -0.161497
0.000532836 -0.16092
0.000532836 -0.16092
-0.00131433 -0.160394
-0.00131433 -0.160394
-0.00288639 -0.159891
-0.00288639 -0.159891
-0.00437679 -0.159329
-0.00437679 -0.159329
-0.00583641 -0.158661
-0.00583641 -0.158661
-0.00728306 -0.157846
-0.00728306 -0.157846
-0.00873244 -0.156851
-0.00873244 -0.156851
-0.0101666 -0.155672
-0.0101666 -0.155672
-0.0115864 -0.154303
-0.0115864 -0.154303
-0.0129556 -0.152733
-0.0129556 -0.152733
-0.0142452 -0.150958
-0.0142452 -0.150958
-0.0154428 -0.149014
-0.0154428 -0.149014
-0.0165612 -0.146992
-0.0165612 -0.146992
-0.0175392 -0.145058
-0.0175392 -0.145058
-0.0183709 -0.143193
-0.0183709 -0.143193
-0.0190748 -0.141471
-0.0190748 -0.141471
-0.0197237 -0.139936
-0.0197237 -0.139936
-0.0203902 -0.138741
-0.0203902 -0.138741
-0.020967 -0.138055
-0.020967 -0.138055
-0.0215442 -0.137997
-0.0215442 -0.137997
-0.0219627 -0.138976
-0.0219627 -0.138976
-0.0217311 -0.14144
-0.0217311 -0.14144
-0.0191028 -0.148321
-0.0191028 -0.148321
-0.0133838 -0.162986
-0.0133838 -0.162986
-0.00941833 -0.176237
-0.00941833 -0.176237
-0.00596657 -0.186843
-0.00596657 -0.186843
-0.00238623 -0.194782
-0.00238623 -0.194782
0.00121323 -0.200697
0.00121323 -0.200697
0.00462695 -0.205382
0.00462695 -0.205382
0.0079229 -0.208941
0.0079229 -0.208941
0.0110439 -0.211772
0.0110439 -0.211772
0.0139291 -0.214011
0.0139291 -0.214011
0.0165884 -0.215656
0.0165884 -0.215656
0.0190566 -0.216865
0.0190566 -0.216865
0.0213154 -0.217772
0.0213154 -0.217772
0.0233575 -0.218371
      </DataArray> 
      <DataArray type="Float64" NumberOfComponents="2" Name="Velocity" format="ascii">
0 0
0 0
0 0
0 0
0 0
0 0
0 0
0 0
0 0
0 0
0 0
0 0
0 0
0 0
0 0
0 0
0 0
0 0
0 0
0 0
0 0
0 0
0 0
0 0
0 0
0 0
0 0
0 0
0 0
0 0
0 0
0 0
0 0
0 0
0 0
0 0
0 0
0 0
0 0
0 0
0 0
0 0
0 0
0 0
0 0
0 0
0 0
0 0
0 0
0 0
0 0
0 0
0 0
0 0
0 0
0 0
0 0
0 0
0 0
0 0
0 0
0 0
0 0
0 0
0 0
0 0
0 0
0 0
0 0
0 0
0 0
0 0
0 0
0 0
0 0
0 0
0 0
0 0
0 0
0 0
0 0
0 0
0 0
0 0
0 0
0 0
0 0
0 0
0 0
0 0
0 0
0 0
0 0
0 0
0 0
0 0
0 0
0 0
0 0
0 0
0 0
0 0
0 0
0 0
0 0
0 0
0 0
0 0
0 0
0 0
0 0
0 0
0 0
0 0
0 0
0 0
0 0
0 0
0 0
0 0
0 0
0 0
0 0
0 0
0 0
0 0
0 0
0 0
0 0
0 0
0 0
0 0
0 0
0 0
0 0
0 0
0 0
0 0
0 0
0 0
0 0
0 0
0 0
0 0
0 0
0 0
0 0
0 0
0 0
0 0
0 0
0 0
0 0
0 0
0 0
0 0
0 0
0 0
0 0
0 0
0 0
0 0
0 0
0 0
0 0
0 0
0 0
0 0
0 0
0 0
0 0
0 0
0 0
0 0
0 0
0 0
0 0
0 0
0 0
0 0
0 0
0 0
0 0
0 0
0 0
0 0
0 0
0 0
0 0
0 0
0 0
0 0
0 0
0 0
0 0
0 0
0 0
0 0
0 0
0 0
0 0
0 0
0 0
0 0
0 0
0 0
0 0
0 0
0 0
0 0
0 0
0 0
0 0
0 0
0 0
0 0
0 0
0 0
0 0
0 0
0 0
0 0
0 0
0 0
0 0
0 0
0 0
0 0
0 0
0 0
0 0
0 0
0 0
0 0
0 0
0 0
0 0
0 0
0 0
0 0
0 0
0 0
0 0
0 0
0 0
0 0
0 0
0 0
0 0
0 0
0 0
0 0
0 0
0 0
0 0
0 0
0 0
0 0
0 0
0 0
0 0
0 0
0 0
0 0
0 0
0 0
0 0
0 0
0 0
0 0
0 0
0 0
0 0
0 0
0 0
0 0
0 0
0 0
0 0
0 0
0 0
0 0
0 0
0 0
0 0
0 0
0 0
0 0
0 0
0 0
0 0
0 0
0 0
0 0
0 0
0 0
0 0
0 0
0 0
0 0
0 0
0 0
0 0
0 0
0 0
0 0
0 0
0 0
0 0
0 0
0 0
0 0
0 0
0 0
0 0
0 0
0 0
0 0
0 0
0 0
0 0
0 0
0 0
0 0
0 0
0 0
0 0
0 0
0 0
0 0
0 0
0 0
0 0
0 0
0 0
0 0
0 0
0 0
0 0
0 0
0 0
0 0
0 0
0 0
0 0
0 0
0 0
0 0
0 0
0 0
0 0
0 0
0 0
0 0
0 0
0 0
0 0
0 0
0 0
0 0
0 0
0 0
0 0
0 0
0 0
0 0
0 0
0 0
0 0
0 0
0 0
0 0
0 0
0 0
0 0
0 0
0 0
0 0
0 0
0 0
0 0
0 0
0 0
0 0
0 0
0 0
0 0
0 0
0 0
0 0
0 0
0 0
0 0
0 0
0 0
0 0
0 0
0 0
0 0
0 0
0 0
0 0
0 0
0 0
0 0
0 0
0 0
0 0
0 0
0 0
0 0
0 0
0 0
0 0
0 0
0 0
0 0
0 0
0 0
0 0
0 0
0 0
0 0
0 0
0 0
0 0
0 0
0 0
0 0
0 0
0 0
0 0
0 0
0 0
0 0
0 0
0 0
0 0
0 0
0 0
0 0
0 0
0 0
0 0
0 0
0 0
0 0
0 0
0 0
0 0
0 0
0 0
0 0
0 0
0 0
0 0
0 0
0 0
0 0
0 0
0 0
0 0
0 0
0 0
0 0
0 0
0 0
0 0
0 0
0 0
0 0
0 0
0 0
0 0
0 0
0 0
0 0
0 0
0 0
0 0
0 0
0 0
0 0
0 0
0 0
0 0
0 0
0 0
0 0
0 0
0 0
0 0
0 0
0 0
0 0
0 0
0 0
0 0
0 0
0 0
0 0
0 0
0 0
0 0
0 0
0 0
0 0
0 0
0 0
0 0
0 0
0 0
0 0
0 0
0 0
0 0
0 0
0 0
0 0
0 0
0 0
0 0
0 0
0 0
0 0
0 0
0 0
0 0
0 0
0 0
0 0
0 0
0 0
0 0
0 0
0 0
0 0
0 0
0 0
0 0
0 0
0 0
0 0
0 0
0 0
0 0
0 0
0 0
0 0
0 0
0 0
0 0
0 0
0 0
0 0
0 0
0 0
0 0
0 0
0 0
0 0
0 0
0 0
0 0
0 0
0 0
0 0
0 0
0 0
0 0
0 0
0 0
0 0
0 0
0 0
0 0
0 0
0 0
0 0
0 0
0 0
0 0
0 0
0 0
0 0
0 0
0 0
0 0
0 0
0 0
0 0
0 0
0 0
0 0
0 0
0 0
0 0
0 0
0 0
0 0
0 0
0 0
0 0
0 0
0 0
0 0
0 0
0 0
0 0
0 0
0 0
0 0
0 0
0 0
0 0
0 0
0 0
0 0
0 0
0 0
0 0
0 0
0 0
0 0
0 0
0 0
0 0
0 0
0 0
0 0
0 0
0 0
0 0
0 0
0 0
0 0
0 0
0 0
0 0
0 0
0 0
0 0
0 0
0 0
0 0
0 0
0 0
0 0
0 0
0 0
0 0
0 0
0 0
0 0
0 0
0 0
0 0
0 0
0 0
0 0
0 0
0 0
0 0
0 0
0 0
0 0
0 0
0 0
0 0
0 0
0 0
0 0
0 0
0 0
0 0
0 0
0 0
0 0
0 0
0 0
0 0
0 0
0 0
0 0
0 0
0 0
0 0
0 0
0 0
0 0
0 0
0 0
0 0
0 0
0 0
0 0
0 0
0 0
0 0
0 0
0 0
0 0
0 0
0 0
0 0
0 0
0 0
0 0
0 0
0 0
0 0
0 0
0 0
0 0
0 0
0 0
0 0
0 0
0 0
0 0
0 0
0 0
0 0
0 0
0 0
0 0
0 0
0 0
0 0
0 0
0 0
0 0
0 0
0 0
0 0
0 0
0 0
0 0
0 0
0 0
0 0
0 0
0 0
0 0
0 0
0 0
0 0
0 0
0 0
0 0
0 0
0 0
0 0
0 0
0 0
0 0
0 0
0 0
0 0
0 0
0 0
0 0
0 0
0 0
0 0
0 0
0 0
0 0
0 0
0 0
0 0
0 0
0 0
0 0
0 0
0 0
0 0
0 0
0 0
0 0
0 0
0 0
0 0
0 0
0 0
0 0
0 0
0 0
0 0
0 0
0 0
0 0
0 0
0 0
0 0
0 0
0 0
0 0
0 0
0 0
0 0
0 0
0 0
0 0
0 0
0 0
0 0
0 0
0 0
0 0
0 0
0 0
0 0
0 0
0 0
0 0
0 0
0 0
0 0
0 0
0 0
0 0
0 0
0 0
0 0
0 0
0 0
0 0
0 0
0 0
0 0
0 0
0 0
0 0
0 0
0 0
0 0
0 0
0 0
0 0
0 0
0 0
0 0
0 0
0 0
0 0
0 0
0 0
0 0
0 0
0 0
0 0
0 0
0 0
0 0
0 0
0 0
0 0
0 0
0 0
0 0
0 0
0 0
0 0
0 0
0 0
0 0
0 0
0 0
0 0
0 0
0 0
0 0
0 0
0 0
0 0
0 0
0 0
0 0
0 0
0 0
0 0
0 0
0 0
0 0
0 0
0 0
0 0
0 0
0 0
0 0
0 0
0 0
0 0
0 0
0 0
0 0
0 0
0 0
0 0
0 0
0 0
0 0
0 0
0 0
0 0
0 0
0 0
0 0
0 0
0 0
0 0
0 0
0 0
0 0
0 0
0 0
0 0
0 0
0 0
0 0
0 0
0 0
0 0
0 0
0 0
0 0
0 0
0 0
0 0
0 0
0 0
0 0
0 0
0 0
0 0
0 0
0 0
0 0
0 0
0 0
0 0
0 0
0 0
0 0
0 0
0 0
0 0
0 0
0 0
0 0
0 0
0 0
0 0
0 0
0 0
0 0
0 0
0 0
0 0
0 0
0 0
0 0
0 0
0 0
0 0
0 0
0 0
0 0
0 0
0 0
0 0
0 0
0 0
0 0
0 0
0 0
0 0
0 0
0 0
0 0
0 0
0 0
0 0
0 0
0 0
0 0
0 0
0 0
0 0
0 0
0 0
0 0
0 0
0 0
0 0
0 0
0 0
0 0
0 0
0 0
0 0
0 0
0 0
0 0
0 0
0 0
0 0
0 0
0 0
0 0
0 0
0 0
0 0
0 0
0 0
0 0
0 0
0 0
0 0
0 0
0 0
0 0
0 0
0 0
0 0
0 0
0 0
0 0
0 0
0 0
0 0
0 0
0 0
0 0
0 0
0 0
0 0
0 0
0 0
0 0
0 0
0 0
0 0
0 0
0 0
0 0
0 0
0 0
0 0
0 0
0 0
0 0
0 0
0 0
0 0
0 0
0 0
0 0
0 0
0 0
0 0
0 0
0 0
0 0
0 0
0 0
0 0
0 0
0 0
0 0
0 0
0 0
0 0
0 0
0 0
0 0
0 0
0 0
0 0
0 0
0 0
0 0
0 0
0 0
0 0
0 0
0 0
0 0
0 0
0 0
0 0
0 0
0 0
0 0
0 0
0 0
0 0
0 0
0 0
0 0
0 0
0 0
0 0
0 0
0 0
0 0
0 0
0 0
0 0
0 0
0 0
0 0
0 0
0 0
0 0
0 0
0 0
0 0
0 0
0 0
0 0
0 0
0 0
0 0
0 0
0 0
0 0
0 0
0 0
0 0
0 0
0 0
0 0
0 0
0 0
0 0
0 0
0 0
0 0
0 0
0 0
0 0
0 0
0 0
0 0
0 0
0 0
0 0
0 0
0 0
0 0
0 0
0 0
0 0
0 0
0 0
0 0
0 0
0 0
0 0
0 0
0 0
0 0
0 0
0 0
0 0
0 0
0 0
0 0
0 0
0 0
0 0
0 0
0 0
0 0
0 0
0 0
0 0
0 0
0 0
0 0
0 0
0 0
0 0
0 0
0 0
0 0
0 0
0 0
0 0
0 0
0 0
0 0
0 0
0 0
0 0
0 0
0 0
0 0
0 0
0 0
0 0
0 0
0 0
0 0
0 0
0 0
0 0
0 0
0 0
0 0
0 0
0 0
0 0
0 0
0 0
0 0
0 0
0 0
0 0
0 0
0 0
0 0
0 0
0 0
0 0
0 0
0 0
0 0
0 0
0 0
0 0
0 0
0 0
0 0
0 0
0 0
0 0
0 0
0 0
0 0
0 0
0 0
0 0
0 0
0 0
0 0
0 0
0 0
0 0
0 0
0 0
0 0
0 0
0 0
0 0
0 0
0 0
0 0
0 0
0 0
0 0
0 0
0 0
0 0
0 0
0 0
0 0
0 0
0 0
0 0
0 0
0 0
0 0
0 0
0 0
0 0
0 0
0 0
0 0
0 0
0 0
0 0
0 0
0 0
0 0
0 0
0 0
0 0
0 0
0 0
0 0
0 0
0 0
0 0
0 0
0 0
0 0
0 0
0 0
0 0
0 0
0 0
0 0
0 0
0 0
0 0
0 0
0 0
0 0
0 0
0 0
0 0
0 0
0 0
0 0
0 0
0 0
0 0
0 0
0 0
0 0
0 0
0 0
0 0
0 0
0 0
0 0
0 0
0 0
0 0
0 0
0 0
0 0
0 0
0 0
0 0
0 0
0 0
0 0
0 0
0 0
0 0
0 0
0 0
0 0
0 0
0 0
0 0
0 0
0 0
0 0
0 0
0 0
0 0
0 0
0 0
0 0
0 0
0 0
0 0
0 0
0 0
0 0
0 0
0 0
0 0
0 0
0 0
0 0
0 0
0 0
0 0
0 0
0 0
0 0
0 0
0 0
0 0
0 0
0 0
0 0
0 0
0 0
0 0
0 0
0 0
0 0
0 0
0 0
0 0
0 0
0 0
0 0
0 0
0 0
0 0
0 0
0 0
0 0
0 0
0 0
0 0
0 0
0 0
0 0
0 0
0 0
0 0
0 0
0 0
0 0
0 0
0 0
0 0
0 0
0 0
0 0
0 0
0 0
0 0
0 0
0 0
0 0
0 0
0 0
0 0
0 0
0 0
0 0
0 0
0 0
0 0
0 0
0 0
0 0
0 0
0 0
0 0
0 0
0 0
0 0
0 0
0 0
0 0
0 0
0 0
0 0
0 0
0 0
0 0
0 0
0 0
0 0
0 0
0 0
0 0
0 0
0 0
0 0
0 0
0 0
0 0
0 0
0 0
0 0
0 0
0 0
0 0
0 0
0 0
0 0
0 0
0 0
0 0
0 0
0 0
0 0
0 0
0 0
0 0
0 0
0 0
0 0
0 0
0 0
0 0
0 0
0 0
0 0
0 0
0 0
0 0
0 0
0 0
0 0
0 0
0 0
0 0
0 0
0 0
0 0
0 0
0 0
0 0
0 0
0 0
0 0
0 0
0 0
0 0
0 0
0 0
0 0
0 0
0 0
0 0
0 0
0 0
0 0
0 0
0 0
0 0
0 0
0 0
0 0
0 0
0 0
0 0
0 0
0 0
0 0
0 0
0 0
0 0
0 0
0 0
0 0
0 0
0 0
0 0
0 0
0 0
0 0
0 0
0 0
0 0
0 0
0 0
0 0
0 0
0 0
0 0
0 0
0 0
0 0
0 0
0 0
0 0
0 0
0 0
0 0
0 0
0 0
0 0
0 0
0 0
0 0
0 0
0 0
0 0
0 0
0 0
0 0
0 0
0 0
0 0
0 0
0 0
0 0
0 0
0 0
0 0
0 0
0 0
0 0
0 0
0 0
0 0
0 0
0 0
0 0
0 0
0 0
0 0
0 0
0 0
0 0
0 0
0 0
0 0
0 0
0 0
0 0
0 0
0 0
0 0
0 0
0 0
0 0
0 0
0 0
0 0
0 0
0 0
0 0
0 0
0 0
0 0
0 0
0 0
0 0
0 0
0 0
0 0
0 0
0 0
0 0
0 0
0 0
0 0
0 0
0 0
0 0
0 0
0 0
0 0
0 0
0 0
0 0
0 0
0 0
0 0
0 0
0 0
0 0
0 0
0 0
0 0
0 0
0 0
0 0
0 0
0 0
0 0
0 0
0 0
0 0
0 0
0 0
0 0
0 0
0 0
0 0
0 0
0 0
0 0
0 0
0 0
0 0
0 0
0 0
0 0
0 0
0 0
0 0
0 0
0 0
0 0
0 0
0 0
0 0
0 0
0 0
0 0
0 0
0 0
0 0
0 0
0 0
0 0
0 0
0 0
0 0
0 0
0 0
0 0
0 0
0 0
0 0
0 0
0 0
0 0
0 0
0 0
0 0
0 0
0 0
0 0
0 0
0 0
0 0
0 0
0 0
0 0
0 0
0 0
0 0
0 0
0 0
0 0
0 0
0 0
0 0
0 0
0 0
0 0
0 0
0 0
0 0
0 0
0 0
0 0
0 0
0 0
0 0
0 0
0 0
0 0
0 0
0 0
0 0
0 0
0 0
0 0
0 0
0 0
0 0
0 0
0 0
0 0
0 0
0 0
0 0
0 0
0 0
0 0
0 0
0 0
0 0
0 0
0 0
0 0
0 0
0 0
0 0
0 0
0 0
0 0
0 0
0 0
0 0
0 0
0 0
0 0
0 0
0 0
0 0
0 0
0 0
0 0
0 0
0 0
0 0
0 0
0 0
0 0
0 0
0 0
0 0
0 0
0 0
0 0
0 0
0 0
0 0
0 0
0 0
0 0
0 0
0 0
0 0
0 0
0 0
0 0
0 0
0 0
0 0
0 0
0 0
0 0
0 0
0 0
0 0
0 0
0 0
0 0
0 0
0 0
0 0
0 0
0 0
0 0
0 0
0 0
0 0
0 0
0 0
0 0
0 0
0 0
0 0
0 0
0 0
0 0
0 0
0 0
0 0
0 0
0 0
0 0
0 0
0 0
0 0
0 0
0 0
0 0
0 0
0 0
0 0
0 0
0 0
0 0
0 0
0 0
0 0
0 0
0 0
0 0
0 0
0 0
0 0
0 0
0 0
0 0
0 0
0 0
0 0
0 0
0 0
0 0
0 0
0 0
0 0
0 0
0 0
0 0
0 0
0 0
0 0
0 0
0 0
0 0
0 0
0 0
0 0
0 0
0 0
0 0
0 0
0 0
0 0
0 0
0 0
0 0
0 0
0 0
0 0
0 0
0 0
0 0
0 0
0 0
0 0
0 0
0 0
0 0
0 0
0 0
0 0
0 0
0 0
0 0
0 0
0 0
0 0
0 0
0 0
0 0
0 0
0 0
0 0
0 0
0 0
0 0
0 0
0 0
0 0
0 0
0 0
0 0
0 0
0 0
0 0
0 0
0 0
0 0
0 0
0 0
0 0
0 0
0 0
0 0
0 0
0 0
0 0
0 0
0 0
0 0
0 0
0 0
0 0
0 0
0 0
0 0
0 0
0 0
0 0
0 0
0 0
0 0
0 0
0 0
0 0
0 0
0 0
0 0
0 0
0 0
0 0
0 0
0 0
0 0
0 0
0 0
0 0
0 0
0 0
0 0
0 0
0 0
0 0
0 0
0 0
0 0
0 0
0 0
0 0
0 0
0 0
0 0
0 0
0 0
0 0
0 0
0 0
0 0
0 0
0 0
0 0
0 0
0 0
0 0
0 0
0 0
0 0
0 0
0 0
0 0
0 0
0 0
0 0
0 0
0 0
0 0
0 0
0 0
0 0
0 0
0 0
0 0
0 0
0 0
0 0
0 0
0 0
0 0
0 0
0 0
0 0
0 0
0 0
0 0
0 0
0 0
0 0
0 0
0 0
0 0
0 0
0 0
0 0
0 0
0 0
0 0
0 0
0 0
0 0
0 0
0 0
0 0
0 0
0 0
0 0
0 0
0 0
0 0
0 0
0 0
0 0
0 0
0 0
0 0
0 0
0 0
0 0
0 0
0 0
0 0
0 0
0 0
0 0
0 0
0 0
0 0
0 0
0 0
0 0
0 0
0 0
0 0
0 0
0 0
0 0
0 0
0 0
0 0
0 0
0 0
0 0
0 0
0 0
0 0
0 0
0 0
0 0
0 0
0 0
0 0
0 0
0 0
0 0
0 0
0 0
0 0
0 0
0 0
0 0
0 0
0 0
0 0
0 0
0 0
0 0
0 0
0 0
0 0
0 0
0 0
0 0
0 0
0 0
0 0
0 0
0 0
0 0
0 0
0 0
0 0
0 0
0 0
0 0
0 0
0 0
0 0
0 0
0 0
0 0
0 0
0 0
0 0
0 0
0 0
0 0
0 0
0 0
0 0
0 0
0 0
0 0
0 0
0 0
0 0
0 0
0 0
0 0
0 0
0 0
0 0
0 0
0 0
0 0
0 0
0 0
0 0
0 0
0 0
0 0
0 0
0 0
0 0
0 0
0 0
0 0
0 0
0 0
0 0
0 0
0 0
0 0
0 0
0 0
0 0
0 0
0 0
0 0
0 0
0 0
0 0
0 0
0 0
0 0
0 0
0 0
0 0
0 0
0 0
0 0
0 0
0 0
0 0
0 0
0 0
0 0
0 0
0 0
0 0
0 0
0 0
0 0
0 0
0 0
0 0
0 0
0 0
0 0
0 0
0 0
0 0
0 0
0 0
0 0
0 0
0 0
0 0
0 0
0 0
0 0
0 0
0 0
0 0
0 0
0 0
0 0
0 0
0 0
0 0
0 0
0 0
0 0
0 0
0 0
0 0
0 0
0 0
0 0
0 0
0 0
0 0
0 0
0 0
0 0
0 0
0 0
0 0
0 0
0 0
0 0
0 0
0 0
0 0
0 0
0 0
0 0
0 0
0 0
0 0
0 0
0 0
0 0
0 0
0 0
0 0
0 0
0 0
0 0
0 0
0 0
0 0
0 0
0 0
0 0
0 0
0 0
0 0
0 0
0 0
0 0
0 0
0 0
0 0
0 0
0 0
0 0
0 0
0 0
0 0
0 0
0 0
0 0
0 0
0 0
0 0
0 0
0 0
0 0
0 0
0 0
0 0
0 0
0 0
0 0
0 0
0 0
0 0
0 0
0 0
0 0
0 0
0 0
0 0
0 0
0 0
0 0
0 0
0 0
0 0
0 0
0 0
0 0
0 0
0 0
0 0
0 0
0 0
0 0
0 0
0 0
0 0
0 0
0 0
0 0
0 0
0 0
0 0
0 0
0 0
0 0
0 0
0 0
0 0
0 0
0 0
0 0
0 0
0 0
0 0
0 0
0 0
0 0
0 0
0 0
0 0
0 0
0 0
0 0
0 0
0 0
0 0
0 0
0 0
0 0
0 0
0 0
0 0
0 0
0 0
0 0
0 0
0 0
0 0
0 0
0 0
0 0
0 0
0 0
0 0
0 0
0 0
0 0
0 0
0 0
0 0
0 0
0 0
0 0
0 0
0 0
0 0
0 0
0 0
0 0
0 0
0 0
0 0
0 0
0 0
0 0
0 0
0 0
0 0
0 0
0 0
0 0
0 0
0 0
0 0
0 0
0 0
0 0
0 0
0 0
0 0
0 0
0 0
0 0
0 0
0 0
0 0
0 0
0 0
0 0
0 0
0 0
0 0
0 0
0 0
0 0
0 0
0 0
0 0
0 0
0 0
0 0
0 0
0 0
0 0
0 0
0 0
0 0
0 0
0 0
0 0
0 0
0 0
0 0
0 0
0 0
0 0
0 0
0 0
0 0
0 0
0 0
0 0
0 0
0 0
0 0
0 0
0 0
0 0
0 0
0 0
0 0
0 0
0 0
0 0
0 0
0 0
0 0
0 0
0 0
0 0
0 0
0 0
0 0
0 0
0 0
0 0
0 0
0 0
0 0
0 0
0 0
0 0
0 0
0 0
0 0
0 0
0 0
0 0
0 0
0 0
0 0
0 0
0 0
0 0
0 0
0 0
0 0
0 0
0 0
0 0
0 0
0 0
0 0
0 0
0 0
0 0
0 0
0 0
0 0
0 0
0 0
0 0
0 0
0 0
0 0
0 0
0 0
0 0
0 0
0 0
0 0
0 0
0 0
0 0
0 0
0 0
0 0
0 0
0 0
0 0
0 0
0 0
0 0
0 0
0 0
0 0
0 0
0 0
0 0
0 0
0 0
0 0
0 0
0 0
0 0
0 0
0 0
0 0
0 0
0 0
0 0
0 0
0 0
0 0
0 0
0 0
0 0
0 0
0 0
0 0
0 0
0 0
0 0
0 0
0 0
0 0
0 0
0 0
0 0
0 0
0 0
0 0
0 0
0 0
0 0
0 0
0 0
0 0
0 0
0 0
0 0
0 0
0 0
0 0
0 0
0 0
0 0
0 0
0 0
0 0
0 0
0 0
0 0
0 0
0 0
0 0
0 0
0 0
0 0
0 0
0 0
0 0
0 0
0 0
0 0
0 0
0 0
0 0
0 0
0 0
0 0
0 0
0 0
0 0
0 0
0 0
0 0
0 0
0 0
0 0
0 0
0 0
0 0
0 0
0 0
0 0
0 0
0 0
0 0
0 0
0 0
0 0
0 0
0 0
0 0
0 0
0 0
0 0
0 0
0 0
0 0
0 0
0 0
0 0
0 0
0 0
0 0
0 0
0 0
0 0
0 0
0 0
0 0
0 0
0 0
0 0
0 0
0 0
0 0
0 0
0 0
0 0
0 0
0 0
0 0
0 0
0 0
0 0
0 0
0 0
0 0
0 0
0 0
0 0
0 0
0 0
0 0
0 0
0 0
0 0
0 0
0 0
0 0
0 0
0 0
0 0
0 0
0 0
0 0
0 0
0 0
0 0
0 0
0 0
0 0
0 0
0 0
0 0
0 0
0 0
0 0
0 0
0 0
0 0
0 0
0 0
0 0
0 0
0 0
0 0
0 0
0 0
0 0
0 0
0 0
0 0
0 0
0 0
0 0
0 0
0 0
0 0
0 0
0 0
0 0
0 0
0 0
0 0
0 0
0 0
0 0
0 0
0 0
0 0
0 0
0 0
0 0
0 0
0 0
0 0
0 0
0 0
0 0
0 0
0 0
0 0
0 0
0 0
0 0
0 0
0 0
0 0
0 0
0 0
0 0
0 0
0 0
0 0
0 0
0 0
0 0
0 0
0 0
0 0
0 0
0 0
0 0
0 0
0 0
0 0
0 0
0 0
0 0
0 0
0 0
0 0
0 0
0 0
0 0
0 0
0 0
0 0
0 0
0 0
0 0
0 0
0 0
0 0
0 0
0 0
0 0
0 0
0 0
0 0
0 0
0 0
0 0
0 0
0 0
0 0
0 0
0 0
0 0
0 0
0 0
0 0
0 0
0 0
0 0
0 0
0 0
0 0
0 0
0 0
0 0
0 0
0 0
0 0
0 0
0 0
0 0
0 0
0 0
0 0
0 0
0 0
0 0
0 0
0 0
0 0
0 0
0 0
0 0
0 0
0 0
0 0
0 0
0 0
0 0
0 0
0 0
0 0
0 0
0 0
0 0
0 0
0 0
0 0
0 0
0 0
0 0
0 0
0 0
0 0
0 0
0 0
0 0
0 0
0 0
0 0
0 0
0 0
0 0
0 0
0 0
0 0
0 0
0 0
0 0
0 0
0 0
0 0
0 0
0 0
0 0
0 0
0 0
0 0
0 0
0 0
0 0
0 0
0 0
0 0
0 0
0 0
0 0
0 0
0 0
0 0
0 0
0 0
0 0
0 0
0 0
0 0
0 0
0 0
0 0
0 0
0 0
0 0
0 0
0 0
0 0
0 0
0 0
0 0
0 0
0 0
0 0
0 0
0 0
0 0
0 0
0 0
0 0
0 0
0 0
0 0
0 0
0 0
0 0
0 0
0 0
0 0
0 0
0 0
0 0
0 0
0 0
0 0
0 0
0 0
0 0
0 0
0 0
0 0
0 0
0 0
0 0
0 0
0 0
0 0
0 0
0 0
0 0
0 0
0 0
0 0
0 0
0 0
0 0
0 0
0 0
0 0
0 0
0 0
0 0
0 0
0 0
0 0
0 0
0 0
0 0
0 0
0 0
0 0
0 0
0 0
0 0
0 0
0 0
0 0
0 0
0 0
0 0
0 0
0 0
0 0
0 0
0 0
0 0
0 0
0 0
0 0
0 0
0 0
0 0
0 0
0 0
0 0
0 0
0 0
0 0
0 0
0 0
0 0
0 0
0 0
0 0
0 0
0 0
0 0
0 0
0 0
0 0
0 0
0 0
0 0
0 0
0 0
0 0
0 0
0 0
0 0
0 0
0 0
0 0
0 0
0 0
0 0
0 0
0 0
0 0
0 0
0 0
0 0
0 0
0 0
0 0
0 0
0 0
0 0
0 0
0 0
0 0
0 0
0 0
0 0
0 0
0 0
0 0
0 0
0 0
0 0
0 0
0 0
0 0
0 0
0 0
0 0
0 0
0 0
0 0
0 0
0 0
0 0
0 0
0 0
0 0
0 0
0 0
0 0
0 0
0 0
0 0
0 0
0 0
0 0
0 0
0 0
0 0
0 0
0 0
0 0
0 0
0 0
0 0
0 0
0 0
0 0
0 0
0 0
0 0
0 0
0 0
0 0
0 0
0 0
0 0
0 0
0 0
0 0
0 0
0 0
0 0
0 0
0 0
0 0
0 0
0 0
0 0
0 0
0 0
0 0
0 0
0 0
0 0
0 0
0 0
0 0
0 0
0 0
0 0
0 0
0 0
0 0
0 0
0 0
0 0
0 0
0 0
0 0
0 0
0 0
0 0
0 0
0 0
0 0
0 0
0 0
0 0
0 0
0 0
0 0
0 0
0 0
0 0
0 0
0 0
0 0
0 0
0 0
0 0
0 0
0 0
0 0
0 0
0 0
0 0
0 0
0 0
0 0
0 0
0 0
0 0
0 0
0 0
0 0
0 0
0 0
0 0
0 0
0 0
0 0
0 0
0 0
0 0
0 0
0 0
0 0
0 0
0 0
0 0
0 0
0 0
0 0
0 0
0 0
0 0
0 0
0 0
0 0
0 0
0 0
0 0
0 0
0 0
0 0
0 0
0 0
0 0
0 0
0 0
0 0
0 0
0 0
0 0
0 0
0 0
0 0
0 0
0 0
0 0
0 0
0 0
0 0
0 0
0 0
0 0
0 0
0 0
0 0
0 0
0 0
0 0
0 0
0 0
0 0
0 0
0 0
0 0
0 0
0 0
0 0
0 0
0 0
0 0
0 0
0 0
0 0
0 0
0 0
0 0
0 0
0 0
0 0
0 0
0 0
0 0
0 0
0 0
0 0
0 0
0 0
0 0
0 0
0 0
0 0
0 0
0 0
0 0
0 0
0 0
0 0
0 0
0 0
0 0
0 0
0 0
0 0
0 0
0 0
0 0
0 0
0 0
0 0
0 0
0 0
0 0
0 0
0 0
0 0
0 0
0 0
0 0
0 0
0 0
0 0
0 0
0 0
0 0
0 0
0 0
0 0
0 0
0 0
0 0
0 0
0 0
0 0
0 0
0 0
0 0
0 0
0 0
0 0
0 0
0 0
0 0
0 0
0 0
0 0
0 0
0 0
0 0
0 0
0 0
0 0
0 0
0 0
0 0
0 0
0 0
0 0
0 0
0 0
0 0
0 0
0 0
0 0
0 0
0 0
0 0
0 0
0 0
0 0
0 0
0 0
0 0
0 0
0 0
0 0
0 0
0 0
0 0
0 0
0 0
0 0
0 0
0 0
0 0
0 0
0 0
0 0
0 0
0 0
0 0
0 0
0 0
0 0
0 0
0 0
0 0
0 0
0 0
0 0
0 0
0 0
0 0
0 0
0 0
0 0
0 0
0 0
0 0
0 0
0 0
0 0
0 0
0 0
0 0
0 0
0 0
0 0
0 0
0 0
0 0
0 0
0 0
0 0
0 0
0 0
0 0
0 0
0 0
0 0
0 0
0 0
0 0
0 0
0 0
0 0
0 0
0 0
0 0
0 0
0 0
0 0
0 0
0 0
0 0
0 0
0 0
0 0
0 0
0 0
0 0
0 0
0 0
0 0
0 0
0 0
0 0
0 0
0 0
0 0
0 0
0 0
0 0
0 0
0 0
0 0
0 0
0 0
0 0
0 0
0 0
0 0
0 0
0 0
0 0
0 0
0 0
0 0
0 0
0 0
0 0
0 0
0 0
0 0
0 0
0 0
0 0
0 0
0 0
0 0
0 0
0 0
0 0
0 0
0 0
0 0
0 0
0 0
0 0
0 0
0 0
0 0
0 0
0 0
0 0
0 0
0 0
0 0
0 0
0 0
0 0
0 0
0 0
0 0
0 0
      </DataArray> 
      <DataArray type="Float64" NumberOfComponents="2" Name="Acceleration" format="ascii">
0 0
0 0
0 0
0 0
0 0
0 0
0 0
0 0
0 0
0 0
0 0
0 0
0 0
0 0
0 0
0 0
0 0
0 0
0 0
0 0
0 0
0 0
0 0
0 0
0 0
0 0
0 0
0 0
0 0
0 0
0 0
0 0
0 0
0 0
0 0
0 0
0 0
0 0
0 0
0 0
0 0
0 0
0 0
0 0
0 0
0 0
0 0
0 0
0 0
0 0
0 0
0 0
0 0
0 0
0 0
0 0
0 0
0 0
0 0
0 0
0 0
0 0
0 0
0 0
0 0
0 0
0 0
0 0
0 0
0 0
0 0
0 0
0 0
0 0
0 0
0 0
0 0
0 0
0 0
0 0
0 0
0 0
0 0
0 0
0 0
0 0
0 0
0 0
0 0
0 0
0 0
0 0
0 0
0 0
0 0
0 0
0 0
0 0
0 0
0 0
0 0
0 0
0 0
0 0
0 0
0 0
0 0
0 0
0 0
0 0
0 0
0 0
0 0
0 0
0 0
0 0
0 0
0 0
0 0
0 0
0 0
0 0
0 0
0 0
0 0
0 0
0 0
0 0
0 0
0 0
0 0
0 0
0 0
0 0
0 0
0 0
0 0
0 0
0 0
0 0
0 0
0 0
0 0
0 0
0 0
0 0
0 0
0 0
0 0
0 0
0 0
0 0
0 0
0 0
0 0
0 0
0 0
0 0
0 0
0 0
0 0
0 0
0 0
0 0
0 0
0 0
0 0
0 0
0 0
0 0
0 0
0 0
0 0
0 0
0 0
0 0
0 0
0 0
0 0
0 0
0 0
0 0
0 0
0 0
0 0
0 0
0 0
0 0
0 0
0 0
0 0
0 0
0 0
0 0
0 0
0 0
0 0
0 0
0 0
0 0
0 0
0 0
0 0
0 0
0 0
0 0
0 0
0 0
0 0
0 0
0 0
0 0
0 0
0 0
0 0
0 0
0 0
0 0
0 0
0 0
0 0
0 0
0 0
0 0
0 0
0 0
0 0
0 0
0 0
0 0
0 0
0 0
0 0
0 0
0 0
0 0
0 0
0 0
0 0
0 0
0 0
0 0
0 0
0 0
0 0
0 0
0 0
0 0
0 0
0 0
0 0
0 0
0 0
0 0
0 0
0 0
0 0
0 0
0 0
0 0
0 0
0 0
0 0
0 0
0 0
0 0
0 0
0 0
0 0
0 0
0 0
0 0
0 0
0 0
0 0
0 0
0 0
0 0
0 0
0 0
0 0
0 0
0 0
0 0
0 0
0 0
0 0
0 0
0 0
0 0
0 0
0 0
0 0
0 0
0 0
0 0
0 0
0 0
0 0
0 0
0 0
0 0
0 0
0 0
0 0
0 0
0 0
0 0
0 0
0 0
0 0
0 0
0 0
0 0
0 0
0 0
0 0
0 0
0 0
0 0
0 0
0 0
0 0
0 0
0 0
0 0
0 0
0 0
0 0
0 0
0 0
0 0
0 0
0 0
0 0
0 0
0 0
0 0
0 0
0 0
0 0
0 0
0 0
0 0
0 0
0 0
0 0
0 0
0 0
0 0
0 0
0 0
0 0
0 0
0 0
0 0
0 0
0 0
0 0
0 0
0 0
0 0
0 0
0 0
0 0
0 0
0 0
0 0
0 0
0 0
0 0
0 0
0 0
0 0
0 0
0 0
0 0
0 0
0 0
0 0
0 0
0 0
0 0
0 0
0 0
0 0
0 0
0 0
0 0
0 0
0 0
0 0
0 0
0 0
0 0
0 0
0 0
0 0
0 0
0 0
0 0
0 0
0 0
0 0
0 0
0 0
0 0
0 0
0 0
0 0
0 0
0 0
0 0
0 0
0 0
0 0
0 0
0 0
0 0
0 0
0 0
0 0
0 0
0 0
0 0
0 0
0 0
0 0
0 0
0 0
0 0
0 0
0 0
0 0
0 0
0 0
0 0
0 0
0 0
0 0
0 0
0 0
0 0
0 0
0 0
0 0
0 0
0 0
0 0
0 0
0 0
0 0
0 0
0 0
0 0
0 0
0 0
0 0
0 0
0 0
0 0
0 0
0 0
0 0
0 0
0 0
0 0
0 0
0 0
0 0
0 0
0 0
0 0
0 0
0 0
0 0
0 0
0 0
0 0
0 0
0 0
0 0
0 0
0 0
0 0
0 0
0 0
0 0
0 0
0 0
0 0
0 0
0 0
0 0
0 0
0 0
0 0
0 0
0 0
0 0
0 0
0 0
0 0
0 0
0 0
0 0
0 0
0 0
0 0
0 0
0 0
0 0
0 0
0 0
0 0
0 0
0 0
0 0
0 0
0 0
0 0
0 0
0 0
0 0
0 0
0 0
0 0
0 0
0 0
0 0
0 0
0 0
0 0
0 0
0 0
0 0
0 0
0 0
0 0
0 0
0 0
0 0
0 0
0 0
0 0
0 0
0 0
0 0
0 0
0 0
0 0
0 0
0 0
0 0
0 0
0 0
0 0
0 0
0 0
0 0
0 0
0 0
0 0
0 0
0 0
0 0
0 0
0 0
0 0
0 0
0 0
0 0
0 0
0 0
0 0
0 0
0 0
0 0
0 0
0 0
0 0
0 0
0 0
0 0
0 0
0 0
0 0
0 0
0 0
0 0
0 0
0 0
0 0
0 0
0 0
0 0
0 0
0 0
0 0
0 0
0 0
0 0
0 0
0 0
0 0
0 0
0 0
0 0
0 0
0 0
0 0
0 0
0 0
0 0
0 0
0 0
0 0
0 0
0 0
0 0
0 0
0 0
0 0
0 0
0 0
0 0
0 0
0 0
0 0
0 0
0 0
0 0
0 0
0 0
0 0
0 0
0 0
0 0
0 0
0 0
0 0
0 0
0 0
0 0
0 0
0 0
0 0
0 0
0 0
0 0
0 0
0 0
0 0
0 0
0 0
0 0
0 0
0 0
0 0
0 0
0 0
0 0
0 0
0 0
0 0
0 0
0 0
0 0
0 0
0 0
0 0
0 0
0 0
0 0
0 0
0 0
0 0
0 0
0 0
0 0
0 0
0 0
0 0
0 0
0 0
0 0
0 0
0 0
0 0
0 0
0 0
0 0
0 0
0 0
0 0
0 0
0 0
0 0
0 0
0 0
0 0
0 0
0 0
0 0
0 0
0 0
0 0
0 0
0 0
0 0
0 0
0 0
0 0
0 0
0 0
0 0
0 0
0 0
0 0
0 0
0 0
0 0
0 0
0 0
0 0
0 0
0 0
0 0
0 0
0 0
0 0
0 0
0 0
0 0
0 0
0 0
0 0
0 0
0 0
0 0
0 0
0 0
0 0
0 0
0 0
0 0
0 0
0 0
0 0
0 0
0 0
0 0
0 0
0 0
0 0
0 0
0 0
0 0
0 0
0 0
0 0
0 0
0 0
0 0
0 0
0 0
0 0
0 0
0 0
0 0
0 0
0 0
0 0
0 0
0 0
0 0
0 0
0 0
0 0
0 0
0 0
0 0
0 0
0 0
0 0
0 0
0 0
0 0
0 0
0 0
0 0
0 0
0 0
0 0
0 0
0 0
0 0
0 0
0 0
0 0
0 0
0 0
0 0
0 0
0 0
0 0
0 0
0 0
0 0
0 0
0 0
0 0
0 0
0 0
0 0
0 0
0 0
0 0
0 0
0 0
0 0
0 0
0 0
0 0
0 0
0 0
0 0
0 0
0 0
0 0
0 0
0 0
0 0
0 0
0 0
0 0
0 0
0 0
0 0
0 0
0 0
0 0
0 0
0 0
0 0
0 0
0 0
0 0
0 0
0 0
0 0
0 0
0 0
0 0
0 0
0 0
0 0
0 0
0 0
0 0
0 0
0 0
0 0
0 0
0 0
0 0
0 0
0 0
0 0
0 0
0 0
0 0
0 0
0 0
0 0
0 0
0 0
0 0
0 0
0 0
0 0
0 0
0 0
0 0
0 0
0 0
0 0
0 0
0 0
0 0
0 0
0 0
0 0
0 0
0 0
0 0
0 0
0 0
0 0
0 0
0 0
0 0
0 0
0 0
0 0
0 0
0 0
0 0
0 0
0 0
0 0
0 0
0 0
0 0
0 0
0 0
0 0
0 0
0 0
0 0
0 0
0 0
0 0
0 0
0 0
0 0
0 0
0 0
0 0
0 0
0 0
0 0
0 0
0 0
0 0
0 0
0 0
0 0
0 0
0 0
0 0
0 0
0 0
0 0
0 0
0 0
0 0
0 0
0 0
0 0
0 0
0 0
0 0
0 0
0 0
0 0
0 0
0 0
0 0
0 0
0 0
0 0
0 0
0 0
0 0
0 0
0 0
0 0
0 0
0 0
0 0
0 0
0 0
0 0
0 0
0 0
0 0
0 0
0 0
0 0
0 0
0 0
0 0
0 0
0 0
0 0
0 0
0 0
0 0
0 0
0 0
0 0
0 0
0 0
0 0
0 0
0 0
0 0
0 0
0 0
0 0
0 0
0 0
0 0
0 0
0 0
0 0
0 0
0 0
0 0
0 0
0 0
0 0
0 0
0 0
0 0
0 0
0 0
0 0
0 0
0 0
0 0
0 0
0 0
0 0
0 0
0 0
0 0
0 0
0 0
0 0
0 0
0 0
0 0
0 0
0 0
0 0
0 0
0 0
0 0
0 0
0 0
0 0
0 0
0 0
0 0
0 0
0 0
0 0
0 0
0 0
0 0
0 0
0 0
0 0
0 0
0 0
0 0
0 0
0 0
0 0
0 0
0 0
0 0
0 0
0 0
0 0
0 0
0 0
0 0
0 0
0 0
0 0
0 0
0 0
0 0
0 0
0 0
0 0
0 0
0 0
0 0
0 0
0 0
0 0
0 0
0 0
0 0
0 0
0 0
0 0
0 0
0 0
0 0
0 0
0 0
0 0
0 0
0 0
0 0
0 0
0 0
0 0
0 0
0 0
0 0
0 0
0 0
0 0
0 0
0 0
0 0
0 0
0 0
0 0
0 0
0 0
0 0
0 0
0 0
0 0
0 0
0 0
0 0
0 0
0 0
0 0
0 0
0 0
0 0
0 0
0 0
0 0
0 0
0 0
0 0
0 0
0 0
0 0
0 0
0 0
0 0
0 0
0 0
0 0
0 0
0 0
0 0
0 0
0 0
0 0
0 0
0 0
0 0
0 0
0 0
0 0
0 0
0 0
0 0
0 0
0 0
0 0
0 0
0 0
0 0
0 0
0 0
0 0
0 0
0 0
0 0
0 0
0 0
0 0
0 0
0 0
0 0
0 0
0 0
0 0
0 0
0 0
0 0
0 0
0 0
0 0
0 0
0 0
0 0
0 0
0 0
0 0
0 0
0 0
0 0
0 0
0 0
0 0
0 0
0 0
0 0
0 0
0 0
0 0
0 0
0 0
0 0
0 0
0 0
0 0
0 0
0 0
0 0
0 0
0 0
0 0
0 0
0 0
0 0
0 0
0 0
0 0
0 0
0 0
0 0
0 0
0 0
0 0
0 0
0 0
0 0
0 0
0 0
0 0
0 0
0 0
0 0
0 0
0 0
0 0
0 0
0 0
0 0
0 0
0 0
0 0
0 0
0 0
0 0
0 0
0 0
0 0
0 0
0 0
0 0
0 0
0 0
0 0
0 0
0 0
0 0
0 0
0 0
0 0
0 0
0 0
0 0
0 0
0 0
0 0
0 0
0 0
0 0
0 0
0 0
0 0
0 0
0 0
0 0
0 0
0 0
0 0
0 0
0 0
0 0
0 0
0 0
0 0
0 0
0 0
0 0
0 0
0 0
0 0
0 0
0 0
0 0
0 0
0 0
0 0
0 0
0 0
0 0
0 0
0 0
0 0
0 0
0 0
0 0
0 0
0 0
0 0
0 0
0 0
0 0
0 0
0 0
0 0
0 0
0 0
0 0
0 0
0 0
0 0
0 0
0 0
0 0
0 0
0 0
0 0
0 0
0 0
0 0
0 0
0 0
0 0
0 0
0 0
0 0
0 0
0 0
0 0
0 0
0 0
0 0
0 0
0 0
0 0
0 0
0 0
0 0
0 0
0 0
0 0
0 0
0 0
0 0
0 0
0 0
0 0
0 0
0 0
0 0
0 0
0 0
0 0
0 0
0 0
0 0
0 0
0 0
0 0
0 0
0 0
0 0
0 0
0 0
0 0
0 0
0 0
0 0
0 0
0 0
0 0
0 0
0 0
0 0
0 0
0 0
0 0
0 0
0 0
0 0
0 0
0 0
0 0
0 0
0 0
0 0
0 0
0 0
0 0
0 0
0 0
0 0
0 0
0 0
0 0
0 0
0 0
0 0
0 0
0 0
0 0
0 0
0 0
0 0
0 0
0 0
0 0
0 0
0 0
0 0
0 0
0 0
0 0
0 0
0 0
0 0
0 0
0 0
0 0
0 0
0 0
0 0
0 0
0 0
0 0
0 0
0 0
0 0
0 0
0 0
0 0
0 0
0 0
0 0
0 0
0 0
0 0
0 0
0 0
0 0
0 0
0 0
0 0
0 0
0 0
0 0
0 0
0 0
0 0
0 0
0 0
0 0
0 0
0 0
0 0
0 0
0 0
0 0
0 0
0 0
0 0
0 0
0 0
0 0
0 0
0 0
0 0
0 0
0 0
0 0
0 0
0 0
0 0
0 0
0 0
0 0
0 0
0 0
0 0
0 0
0 0
0 0
0 0
0 0
0 0
0 0
0 0
0 0
0 0
0 0
0 0
0 0
0 0
0 0
0 0
0 0
0 0
0 0
0 0
0 0
0 0
0 0
0 0
0 0
0 0
0 0
0 0
0 0
0 0
0 0
0 0
0 0
0 0
0 0
0 0
0 0
0 0
0 0
0 0
0 0
0 0
0 0
0 0
0 0
0 0
0 0
0 0
0 0
0 0
0 0
0 0
0 0
0 0
0 0
0 0
0 0
0 0
0 0
0 0
0 0
0 0
0 0
0 0
0 0
0 0
0 0
0 0
0 0
0 0
0 0
0 0
0 0
0 0
0 0
0 0
0 0
0 0
0 0
0 0
0 0
0 0
0 0
0 0
0 0
0 0
0 0
0 0
0 0
0 0
0 0
0 0
0 0
0 0
0 0
0 0
0 0
0 0
0 0
0 0
0 0
0 0
0 0
0 0
0 0
0 0
0 0
0 0
0 0
0 0
0 0
0 0
0 0
0 0
0 0
0 0
0 0
0 0
0 0
0 0
0 0
0 0
0 0
0 0
0 0
0 0
0 0
0 0
0 0
0 0
0 0
0 0
0 0
0 0
0 0
0 0
0 0
0 0
0 0
0 0
0 0
0 0
0 0
0 0
0 0
0 0
0 0
0 0
0 0
0 0
0 0
0 0
0 0
0 0
0 0
0 0
0 0
0 0
0 0
0 0
0 0
0 0
0 0
0 0
0 0
0 0
0 0
0 0
0 0
0 0
0 0
0 0
0 0
0 0
0 0
0 0
0 0
0 0
0 0
0 0
0 0
0 0
0 0
0 0
0 0
0 0
0 0
0 0
0 0
0 0
0 0
0 0
0 0
0 0
0 0
0 0
0 0
0 0
0 0
0 0
0 0
0 0
0 0
0 0
0 0
0 0
0 0
0 0
0 0
0 0
0 0
0 0
0 0
0 0
0 0
0 0
0 0
0 0
0 0
0 0
0 0
0 0
0 0
0 0
0 0
0 0
0 0
0 0
0 0
0 0
0 0
0 0
0 0
0 0
0 0
0 0
0 0
0 0
0 0
0 0
0 0
0 0
0 0
0 0
0 0
0 0
0 0
0 0
0 0
0 0
0 0
0 0
0 0
0 0
0 0
0 0
0 0
0 0
0 0
0 0
0 0
0 0
0 0
0 0
0 0
0 0
0 0
0 0
0 0
0 0
0 0
0 0
0 0
0 0
0 0
0 0
0 0
0 0
0 0
0 0
0 0
0 0
0 0
0 0
0 0
0 0
0 0
0 0
0 0
0 0
0 0
0 0
0 0
0 0
0 0
0 0
0 0
0 0
0 0
0 0
0 0
0 0
0 0
0 0
0 0
0 0
0 0
0 0
0 0
0 0
0 0
0 0
0 0
0 0
0 0
0 0
0 0
0 0
0 0
0 0
0 0
0 0
0 0
0 0
0 0
0 0
0 0
0 0
0 0
0 0
0 0
0 0
0 0
0 0
0 0
0 0
0 0
0 0
0 0
0 0
0 0
0 0
0 0
0 0
0 0
0 0
0 0
0 0
0 0
0 0
0 0
0 0
0 0
0 0
0 0
0 0
0 0
0 0
0 0
0 0
0 0
0 0
0 0
0 0
0 0
0 0
0 0
0 0
0 0
0 0
0 0
0 0
0 0
0 0
0 0
0 0
0 0
0 0
0 0
0 0
0 0
0 0
0 0
0 0
0 0
0 0
0 0
0 0
0 0
0 0
0 0
0 0
0 0
0 0
0 0
0 0
0 0
0 0
0 0
0 0
0 0
0 0
0 0
0 0
0 0
0 0
0 0
0 0
0 0
0 0
0 0
0 0
0 0
0 0
0 0
0 0
0 0
0 0
0 0
0 0
0 0
0 0
0 0
0 0
0 0
0 0
0 0
0 0
0 0
0 0
0 0
0 0
0 0
0 0
0 0
0 0
0 0
0 0
0 0
0 0
0 0
0 0
0 0
0 0
0 0
0 0
0 0
0 0
0 0
0 0
0 0
0 0
0 0
0 0
0 0
0 0
0 0
0 0
0 0
0 0
0 0
0 0
0 0
0 0
0 0
0 0
0 0
0 0
0 0
0 0
0 0
0 0
0 0
0 0
0 0
0 0
0 0
0 0
0 0
0 0
0 0
0 0
0 0
0 0
0 0
0 0
0 0
0 0
0 0
0 0
0 0
0 0
0 0
0 0
0 0
0 0
0 0
0 0
0 0
0 0
0 0
0 0
0 0
0 0
0 0
0 0
0 0
0 0
0 0
0 0
0 0
0 0
0 0
0 0
0 0
0 0
0 0
0 0
0 0
0 0
0 0
0 0
0 0
0 0
0 0
0 0
0 0
0 0
0 0
0 0
0 0
0 0
0 0
0 0
0 0
0 0
0 0
0 0
0 0
0 0
0 0
0 0
0 0
0 0
0 0
0 0
0 0
0 0
0 0
0 0
0 0
0 0
0 0
0 0
0 0
0 0
0 0
0 0
0 0
0 0
0 0
0 0
0 0
0 0
0 0
0 0
0 0
0 0
0 0
0 0
0 0
0 0
0 0
0 0
0 0
0 0
0 0
0 0
0 0
0 0
0 0
0 0
0 0
0 0
0 0
0 0
0 0
0 0
0 0
0 0
0 0
0 0
0 0
0 0
0 0
0 0
0 0
0 0
0 0
0 0
0 0
0 0
0 0
0 0
0 0
0 0
0 0
0 0
0 0
0 0
0 0
0 0
0 0
0 0
0 0
0 0
0 0
0 0
0 0
0 0
0 0
0 0
0 0
0 0
0 0
0 0
0 0
0 0
0 0
0 0
0 0
0 0
0 0
0 0
0 0
0 0
0 0
0 0
0 0
0 0
0 0
0 0
0 0
0 0
0 0
0 0
0 0
0 0
0 0
0 0
0 0
0 0
0 0
0 0
0 0
0 0
0 0
0 0
0 0
0 0
0 0
0 0
0 0
0 0
0 0
0 0
0 0
0 0
0 0
0 0
0 0
0 0
0 0
0 0
0 0
0 0
0 0
0 0
0 0
0 0
0 0
0 0
0 0
0 0
0 0
0 0
0 0
0 0
0 0
0 0
0 0
0 0
0 0
0 0
0 0
0 0
0 0
0 0
0 0
0 0
0 0
0 0
0 0
0 0
0 0
0 0
0 0
0 0
0 0
0 0
0 0
0 0
0 0
0 0
0 0
0 0
0 0
0 0
0 0
0 0
0 0
0 0
0 0
0 0
0 0
0 0
0 0
0 0
0 0
0 0
0 0
0 0
0 0
0 0
0 0
0 0
0 0
0 0
0 0
0 0
0 0
0 0
0 0
0 0
0 0
0 0
0 0
0 0
0 0
0 0
0 0
0 0
0 0
0 0
0 0
0 0
0 0
0 0
0 0
0 0
0 0
0 0
0 0
0 0
0 0
0 0
0 0
0 0
0 0
0 0
0 0
0 0
0 0
0 0
0 0
0 0
0 0
0 0
0 0
0 0
0 0
0 0
0 0
0 0
0 0
0 0
0 0
0 0
0 0
0 0
0 0
0 0
0 0
0 0
0 0
0 0
0 0
0 0
0 0
0 0
0 0
0 0
0 0
0 0
0 0
0 0
0 0
0 0
0 0
0 0
0 0
0 0
0 0
0 0
0 0
0 0
0 0
0 0
0 0
0 0
0 0
0 0
0 0
0 0
0 0
0 0
0 0
0 0
0 0
0 0
0 0
0 0
0 0
0 0
0 0
0 0
0 0
0 0
0 0
0 0
0 0
0 0
0 0
0 0
0 0
0 0
0 0
0 0
0 0
0 0
0 0
0 0
0 0
0 0
0 0
0 0
0 0
0 0
0 0
0 0
0 0
0 0
0 0
0 0
0 0
0 0
0 0
0 0
0 0
0 0
0 0
0 0
0 0
0 0
0 0
0 0
0 0
0 0
0 0
0 0
0 0
0 0
0 0
0 0
0 0
0 0
0 0
0 0
0 0
0 0
0 0
0 0
0 0
0 0
0 0
0 0
0 0
0 0
0 0
0 0
0 0
0 0
0 0
0 0
0 0
0 0
0 0
0 0
0 0
0 0
0 0
0 0
0 0
0 0
0 0
0 0
0 0
0 0
0 0
0 0
0 0
0 0
0 0
0 0
0 0
0 0
0 0
0 0
0 0
0 0
0 0
0 0
0 0
0 0
0 0
0 0
0 0
0 0
0 0
0 0
0 0
0 0
0 0
0 0
0 0
0 0
0 0
0 0
0 0
0 0
0 0
0 0
0 0
0 0
0 0
0 0
0 0
0 0
0 0
0 0
0 0
0 0
0 0
0 0
0 0
0 0
0 0
0 0
0 0
0 0
0 0
0 0
0 0
0 0
0 0
0 0
0 0
0 0
0 0
0 0
0 0
0 0
0 0
0 0
0 0
0 0
0 0
0 0
0 0
0 0
0 0
0 0
0 0
0 0
0 0
0 0
0 0
0 0
0 0
0 0
0 0
0 0
0 0
0 0
0 0
0 0
0 0
0 0
0 0
0 0
0 0
0 0
0 0
0 0
0 0
0 0
0 0
0 0
0 0
0 0
0 0
0 0
0 0
0 0
0 0
0 0
0 0
0 0
0 0
0 0
0 0
0 0
0 0
0 0
0 0
0 0
0 0
0 0
0 0
0 0
0 0
0 0
0 0
0 0
0 0
0 0
0 0
0 0
0 0
0 0
0 0
0 0
0 0
0 0
0 0
0 0
0 0
0 0
0 0
0 0
0 0
0 0
0 0
0 0
0 0
0 0
0 0
0 0
0 0
0 0
0 0
0 0
0 0
0 0
0 0
0 0
0 0
0 0
0 0
0 0
0 0
0 0
0 0
0 0
0 0
0 0
0 0
0 0
0 0
0 0
0 0
0 0
0 0
0 0
0 0
0 0
0 0
0 0
0 0
0 0
0 0
0 0
0 0
0 0
0 0
0 0
0 0
0 0
0 0
0 0
0 0
0 0
0 0
0 0
0 0
0 0
0 0
0 0
0 0
0 0
0 0
0 0
0 0
0 0
0 0
0 0
0 0
0 0
0 0
0 0
0 0
0 0
0 0
0 0
0 0
0 0
0 0
0 0
0 0
0 0
0 0
0 0
0 0
0 0
0 0
0 0
0 0
0 0
0 0
0 0
0 0
0 0
0 0
0 0
0 0
0 0
0 0
0 0
0 0
0 0
0 0
0 0
0 0
0 0
0 0
0 0
0 0
0 0
0 0
0 0
0 0
0 0
0 0
0 0
0 0
0 0
0 0
0 0
0 0
0 0
0 0
0 0
0 0
0 0
0 0
0 0
0 0
0 0
0 0
0 0
0 0
0 0
0 0
0 0
0 0
0 0
0 0
0 0
0 0
0 0
0 0
0 0
0 0
0 0
0 0
0 0
0 0
0 0
0 0
0 0
0 0
0 0
0 0
0 0
0 0
0 0
0 0
0 0
0 0
0 0
0 0
0 0
0 0
0 0
0 0
0 0
0 0
0 0
0 0
0 0
0 0
0 0
0 0
0 0
0 0
0 0
0 0
0 0
0 0
0 0
0 0
0 0
0 0
0 0
0 0
0 0
0 0
0 0
0 0
0 0
0 0
0 0
0 0
0 0
0 0
0 0
0 0
0 0
0 0
0 0
0 0
0 0
0 0
0 0
0 0
0 0
0 0
0 0
0 0
0 0
0 0
0 0
0 0
0 0
0 0
0 0
0 0
0 0
0 0
0 0
0 0
0 0
0 0
0 0
0 0
0 0
0 0
0 0
0 0
0 0
0 0
0 0
0 0
0 0
0 0
0 0
0 0
0 0
0 0
0 0
0 0
0 0
0 0
0 0
0 0
0 0
0 0
0 0
0 0
0 0
0 0
0 0
0 0
0 0
0 0
0 0
0 0
0 0
0 0
0 0
0 0
0 0
0 0
0 0
0 0
0 0
0 0
0 0
0 0
0 0
0 0
0 0
0 0
0 0
0 0
0 0
0 0
0 0
0 0
0 0
0 0
0 0
0 0
0 0
0 0
0 0
0 0
0 0
0 0
0 0
0 0
0 0
0 0
0 0
0 0
0 0
0 0
0 0
0 0
0 0
0 0
0 0
0 0
0 0
0 0
0 0
0 0
0 0
0 0
0 0
0 0
0 0
0 0
0 0
0 0
0 0
0 0
0 0
0 0
0 0
0 0
0 0
0 0
0 0
0 0
0 0
0 0
0 0
0 0
0 0
0 0
0 0
0 0
0 0
0 0
0 0
0 0
0 0
0 0
0 0
0 0
0 0
0 0
0 0
0 0
0 0
0 0
0 0
0 0
0 0
0 0
0 0
0 0
0 0
0 0
0 0
0 0
0 0
0 0
0 0
0 0
0 0
0 0
0 0
0 0
0 0
0 0
0 0
0 0
0 0
0 0
0 0
0 0
0 0
0 0
0 0
0 0
0 0
0 0
0 0
0 0
0 0
0 0
0 0
0 0
0 0
0 0
0 0
0 0
0 0
0 0
0 0
0 0
0 0
0 0
0 0
0 0
0 0
0 0
0 0
0 0
0 0
0 0
0 0
0 0
0 0
0 0
0 0
0 0
0 0
0 0
0 0
0 0
0 0
0 0
0 0
0 0
0 0
0 0
0 0
0 0
0 0
0 0
0 0
0 0
0 0
0 0
0 0
0 0
0 0
0 0
0 0
0 0
0 0
0 0
0 0
0 0
0 0
0 0
0 0
0 0
0 0
0 0
0 0
0 0
0 0
0 0
0 0
0 0
0 0
0 0
0 0
0 0
0 0
0 0
0 0
0 0
0 0
0 0
0 0
0 0
0 0
0 0
0 0
0 0
0 0
0 0
0 0
0 0
0 0
0 0
0 0
0 0
0 0
0 0
0 0
0 0
0 0
0 0
0 0
0 0
0 0
0 0
0 0
0 0
0 0
0 0
0 0
0 0
0 0
0 0
0 0
0 0
0 0
0 0
0 0
0 0
0 0
0 0
0 0
0 0
0 0
0 0
0 0
0 0
0 0
0 0
0 0
0 0
0 0
0 0
0 0
0 0
0 0
0 0
0 0
0 0
0 0
0 0
0 0
0 0
0 0
0 0
0 0
0 0
0 0
0 0
0 0
0 0
0 0
0 0
0 0
0 0
0 0
0 0
0 0
0 0
0 0
0 0
0 0
0 0
0 0
0 0
0 0
0 0
0 0
0 0
0 0
0 0
0 0
0 0
0 0
0 0
0 0
0 0
0 0
0 0
0 0
0 0
0 0
0 0
0 0
0 0
0 0
0 0
0 0
0 0
0 0
0 0
0 0
0 0
0 0
0 0
0 0
0 0
0 0
0 0
0 0
0 0
0 0
0 0
0 0
0 0
0 0
0 0
0 0
0 0
0 0
0 0
0 0
0 0
0 0
0 0
0 0
0 0
0 0
0 0
0 0
0 0
0 0
0 0
0 0
0 0
0 0
0 0
0 0
0 0
0 0
0 0
0 0
0 0
0 0
0 0
0 0
0 0
0 0
0 0
0 0
0 0
0 0
0 0
0 0
0 0
0 0
0 0
0 0
0 0
0 0
0 0
0 0
0 0
0 0
0 0
0 0
0 0
0 0
0 0
0 0
0 0
0 0
0 0
0 0
0 0
0 0
0 0
0 0
0 0
0 0
0 0
0 0
0 0
0 0
0 0
0 0
0 0
0 0
0 0
0 0
0 0
0 0
0 0
0 0
0 0
0 0
0 0
0 0
0 0
0 0
0 0
0 0
0 0
0 0
0 0
0 0
0 0
0 0
0 0
0 0
0 0
0 0
0 0
0 0
0 0
0 0
0 0
0 0
0 0
0 0
0 0
0 0
0 0
0 0
0 0
0 0
0 0
0 0
0 0
0 0
0 0
0 0
0 0
0 0
0 0
0 0
0 0
0 0
0 0
0 0
0 0
0 0
0 0
0 0
0 0
0 0
0 0
0 0
0 0
0 0
0 0
0 0
0 0
0 0
0 0
0 0
0 0
0 0
0 0
0 0
0 0
0 0
0 0
0 0
0 0
0 0
0 0
0 0
0 0
0 0
0 0
0 0
0 0
0 0
0 0
0 0
0 0
0 0
0 0
0 0
0 0
0 0
0 0
0 0
0 0
0 0
0 0
0 0
0 0
0 0
0 0
0 0
0 0
0 0
0 0
0 0
0 0
0 0
0 0
0 0
0 0
0 0
0 0
0 0
0 0
0 0
0 0
0 0
0 0
0 0
0 0
0 0
0 0
0 0
0 0
0 0
0 0
0 0
0 0
0 0
0 0
0 0
0 0
0 0
0 0
0 0
0 0
0 0
0 0
0 0
0 0
0 0
0 0
0 0
0 0
0 0
0 0
0 0
0 0
0 0
0 0
0 0
0 0
0 0
0 0
0 0
0 0
0 0
0 0
0 0
0 0
0 0
0 0
0 0
0 0
0 0
0 0
0 0
0 0
0 0
0 0
0 0
0 0
0 0
0 0
0 0
0 0
0 0
0 0
0 0
0 0
0 0
0 0
0 0
0 0
0 0
0 0
0 0
0 0
0 0
0 0
0 0
0 0
0 0
0 0
0 0
0 0
0 0
0 0
0 0
0 0
0 0
0 0
0 0
0 0
0 0
0 0
0 0
0 0
0 0
0 0
0 0
0 0
0 0
0 0
0 0
0 0
0 0
0 0
0 0
0 0
0 0
0 0
0 0
0 0
0 0
0 0
0 0
0 0
0 0
0 0
0 0
0 0
0 0
0 0
0 0
0 0
0 0
0 0
0 0
0 0
0 0
0 0
0 0
0 0
0 0
0 0
0 0
0 0
0 0
0 0
0 0
0 0
0 0
0 0
0 0
0 0
0 0
0 0
0 0
0 0
0 0
0 0
0 0
0 0
0 0
0 0
0 0
0 0
0 0
0 0
0 0
0 0
0 0
0 0
0 0
      </DataArray> 
      <DataArray type="Float64" NumberOfComponents="2" Name="CauchyNormalStress" format="ascii">
6.22641 3.55143
5.63746 2.84749
6.10634 0.603272
3.17386 -0.130632
2.15323 0.0250717
1.32337 -0.0118896
0.844912 -0.071456
0.524351 -0.0696539
0.159099 -0.0322786
-0.106028 -0.00382873
-0.314882 -0.0347749
-0.441819 -0.0472312
-0.620915 -0.0250278
-0.737059 -0.00125342
-0.814603 -0.0276658
-0.832849 -0.0341465
-0.890151 -0.012816
-0.89318 0.00306537
-0.859033 -0.0255254
-0.763909 -0.0343932
-0.708214 -0.0128691
-0.597091 0.00199984
-0.438531 -0.0319335
-0.19998 -0.0464372
-0.0106792 -0.0176791
0.259827 0.00916565
0.623318 -0.0337121
1.20712 -0.135656
1.77662 -0.195998
2.67973 -0.090759
5.47378 0.257857
-0.540741 0.432558
-0.713798 0.522095
-0.651526 1.14467
1.87654 4.61088
-0.566896 -0.0206812
-0.12971 -0.212749
-0.0278994 -0.293286
-0.0688125 -0.359784
-0.0663782 -0.377931
-0.0186078 -0.503445
-0.0133217 -0.533812
-0.0130978 -0.572292
-0.0313081 -0.570829
-0.050503 -0.609195
-0.057044 -0.513665
-0.0648858 -0.546336
-0.0828321 -0.525787
-0.110337 -0.528894
-0.136856 -0.480154
-0.161304 -0.468787
-0.183293 -0.388643
-0.221769 -0.404104
-0.00555194 -0.550396
-0.454003 -0.0327306
-0.534902 -0.0422843
-0.408702 -0.099356
-0.438927 -0.129874
-0.312647 -0.224146
-55.3311 -148.539
-0.323419 -1.45652
-0.109056 -0.610789
-0.7135 -1.83619
-5.69135 -28.3353
-1.95882 -25.0394
0.00105771 -14.3943
-1.10282 -15.1133
-1.27412 -14.8409
-2.2903 -17.2123
12.3337 0.7647
-9.43481 -28.3451
-12.4217 -33.8802
-17.0144 -50.6882
-5.75303 -28.1292
12.9211 0.378546
17.4055 7.25873
-14.2084 -5.35373
-50.3465 -142.302
-2.09134 -25.1369
-0.00331933 -14.5482
-1.14023 -15.1964
-1.27461 -14.8837
-2.28024 -17.2019
0.0121799 -0.683943
-0.311822 -1.43597
-0.161933 -0.614832
-0.924758 -1.64505
-0.612313 0.077787
-0.155051 -1.12604
-0.0311244 -0.642381
-0.154613 -0.783829
-0.173744 -0.458483
-0.213386 -0.402537
-0.396333 0.45327
-0.451753 -0.0110474
-0.521893 -0.0692331
-0.391329 -0.0843515
-0.435765 -0.154485
-0.342955 -0.156283
-0.337917 -0.226782
-0.276146 -0.26228
-0.263318 -0.315275
-0.227318 -0.377866
-0.189406 -0.387996
-0.166273 -0.470871
-0.11656 -0.451488
-0.0913231 -0.548446
-0.0532113 -0.551307
-0.0607541 -0.588966
-0.0478114 -0.5522
-0.0304618 -0.592605
-0.531444 0.807806
-0.199851 1.63315
2.03286 4.27171
-14.4036 -8.83879
-8.69554 -22.6881
-13.935 -9.5322
-7.6033 -30.7358
-9.71809 -24.896
-1.75182 -18.2676
-14.2381 -6.98326
3.75715 -20.2526
1.04818 -3.15363
0.765901 -3.07461
-2.59949 -31.5532
-2.74404 -32.4538
1.77571 -7.51729
0.674363 -3.64516
0.288704 -15.2879
0.336522 -13.3635
-0.254774 -15.372
0.702137 -11.6863
0.417349 -13.5783
-1.40081 -12.9493
-0.222022 -13.0011
-0.427448 -14.0684
-1.8676 -13.9063
1.04351 -10.785
1.36467 -10.2998
1.16265 -14.0146
-7.37159 -4.65932
-7.67543 -4.65939
-8.1394 -5.14714
0.637995 -16.2651
0.894907 -12.399
-4.20152 -14.3879
-4.01846 -13.5287
-0.26902 -18.115
-1.21654 -17.4735
-3.27095 -15.4065
-3.66832 -16.5249
-0.342894 -16.8073
-5.67931 -3.80404
-6.74491 -4.03653
-6.26228 -4.09725
0.546845 -10.4004
0.77459 -10.953
-6.28987 -6.58188
-4.15471 -9.85642
-0.958837 -11.2624
0.239016 -9.80434
0.151169 -10.48
-0.998566 -12.1607
-4.42518 -10.553
-6.69484 -6.8353
1.2211 -9.03643
1.70592 -12.511
-10.4247 -7.9047
-10.17 -6.30238
-8.55901 -5.0646
-8.93481 -6.92577
2.16582 -12.9347
2.3376 -15.5632
1.87488 -15.0497
1.48515 -12.4164
1.47366 -9.71567
1.29312 -8.6347
-10.9105 -9.04425
-6.25552 -13.1189
-6.04365 -12.2355
-10.7846 -12.6089
1.69978 -19.231
0.101315 -24.3419
-3.97449 -18.2013
-0.813495 -19.2268
2.05908 -17.7048
-5.10911 -3.72467
-5.8337 -3.77384
-5.82786 -3.61759
-5.98545 -3.73767
-4.90598 -3.14283
-4.75623 -3.09714
-4.54739 -2.95077
-5.18956 -3.53355
0.733831 -8.8702
1.05828 -8.05315
1.13283 -7.85846
0.762953 -9.11623
-4.83255 -3.77447
-5.03415 -4.32087
-5.11735 -6.43475
-3.96072 -7.642
-1.9404 -8.94953
-0.694699 -9.64216
-0.953874 -10.1325
-2.24589 -9.47837
-4.28566 -8.16163
-5.28287 -6.65755
-5.32938 -4.14471
-5.01329 -3.62458
1.17845 -7.62198
1.89825 -9.89415
-13.8043 -11.349
-11.4836 -6.60635
-12.4506 -8.0284
2.81071 -13.0144
2.80852 -14.6339
1.74735 -9.77363
1.14512 -6.91993
-10.9751 -14.2451
-10.9833 -18.3429
2.99708 -20.8765
-5.21945 -21.6737
-11.1527 -22.5971
-4.23451 -18.8603
0.969813 -21.4985
-3.60981 -2.61155
-4.10509 -2.87183
-4.16451 -2.83202
-3.64803 -2.51266
-3.41266 -2.45368
-3.43189 -2.43145
0.8795 -7.36303
0.736116 -7.24548
-3.55441 -3.2483
-2.65782 -5.35636
-0.330812 -7.50261
-0.719788 -7.81689
-2.89894 -5.47358
-3.55708 -3.00729
0.787355 -4.83011
0.978152 -5.56249
1.17383 -6.61267
1.4042 -6.7465
1.98291 -7.37883
2.58968 -9.64822
-11.8608 -17.8859
-14.6489 -7.07908
-13.254 -12.3518
3.13895 -12.2218
3.20301 -12.9552
2.62067 -10.6761
2.00899 -8.69462
1.54759 -7.42805
1.02099 -5.77251
0.733721 -4.28957
-13.0648 -19.576
-13.0851 -25.7874
3.57645 -15.4975
3.26759 -28.1807
-12.4508 -29.8703
3.7185 -20.9919
3.49063 -14.5848
-7.20737 -24.3797
2.02277 -25.5882
-1.92343 -1.82818
-2.09419 -1.79799
-2.57791 -2.08087
-2.24361 -2.07703
-2.97449 -2.1175
-2.77168 -2.14248
-2.82825 -1.95088
-2.83036 -1.99731
-2.29881 -1.73421
-2.44039 -1.72811
-2.18487 -1.90154
-2.47064 -1.87173
-1.82335 -1.65516
-2.00046 -1.76536
0.758444 -6.5967
0.858887 -6.40514
0.925771 -5.603
0.679872 -4.21416
0.928486 -5.41813
0.788746 -6.60759
0.331266 -7.05385
-2.43656 -2.36097
-1.90694 -3.12616
-0.846783 -4.74521
0.0655143 -5.69746
-0.578934 -6.20417
-1.21429 -4.92057
-2.19509 -3.0416
-2.27085 -2.04024
0.302632 -2.30612
0.642438 -3.86979
0.872424 -4.29033
1.30071 -5.1574
1.80998 -6.19582
0.29587 -40.5003
-11.3207 -6.16448
-6.85625 -0.861508
-11.6182 -4.76305
-1.52946 -37.0458
2.7441 -9.6326
2.64156 -9.21048
1.82007 -6.73982
1.09072 -5.4372
0.366685 -2.63183
0.530182 -52.077
-4.08469 -39.771
0.298183 -50.2761
-1.85082 -42.6094
2.85923 -16.3524
-7.28182 -41.2969
-23.4517 -48.3253
2.76985 -13.4828
-22.4545 -42.5211
-1.95269 -32.7829
-0.355325 -1.05852
-0.938152 -1.34042
-1.59683 -1.33686
-1.81 -1.24689
-1.66512 -1.17478
-1.17355 -1.19921
-0.377765 -1.1087
1.27244 -4.59689
0.496134 -3.00152
0.669945 -3.33276
0.868498 -5.01417
-0.241854 -1.43863
1.32977 -3.71683
1.95544 -3.22748
1.48654 -3.94987
0.461849 -4.09456
-0.309578 -1.32877
0.301721 -1.51601
0.291856 -1.92309
0.0728721 -1.08511
0.203153 -1.72819
0.189037 -1.7155
0.375621 -2.55136
0.322972 -2.1735
0.487503 -2.68703
0.513845 -2.64894
0.587079 -2.75667
0.490448 -2.42013
-10.2227 -17.5104
-5.45098 -1.77442
-4.92324 -1.58313
-10.5348 -12.3936
1.04126 -3.75997
1.30322 -4.51095
1.39884 -5.04777
0.969008 -4.28209
1.2241 -6.99002
1.14547 -6.30479
1.02117 -4.4714
1.27052 -4.67852
1.28287 -4.46445
0.990009 -3.66092
0.987853 -3.72882
0.741423 -3.17182
0.43605 -2.37408
0.527637 -2.82541
0.137727 -1.56274
0.197468 -1.59421
0.179274 -1.63891
0.128247 -1.41398
0.539448 -28.1718
0.662882 -37.6031
-0.674266 -49.9708
0.440534 -27.3901
0.388488 -47.9491
0.280102 -36.1691
0.434955 -8.45298
-1.4382 -7.72353
-1.12343 -58.4158
0.762784 -8.27318
1.5605 -39.5486
-0.376234 -10.7352
0.983839 -0.580197
2.23936 0.583074
1.22566 -0.765156
0.123908 -0.676649
0.49636 -0.673641
-0.346862 -0.715575
-0.835412 -0.689759
-0.629061 -0.676371
-1.07017 -0.672066
-1.27137 -0.659869
-1.19113 -0.64363
-1.26361 -0.60124
-1.23429 -0.60548
-1.27212 -0.58448
-1.08364 -0.593609
-0.787818 -0.613293
-0.967352 -0.582563
-0.448319 -0.62373
0.292365 -0.681224
-0.16769 -0.608148
0.861039 -0.456215
2.46592 0.405004
1.15767 -0.515122
0.0756478 -0.939928
0.0768935 -1.04063
0.161631 -1.34561
0.137885 -1.31088
0.721344 -2.97639
1.47268 -1.1503
0.866021 -2.9478
1.35397 -3.45293
1.15414 -1.49823
2.48074 -0.282068
1.54098 -2.03225
1.09532 -2.38731
2.18412 -0.260431
0.106384 -0.776794
0.0915212 -0.724725
0.122235 -0.123934
0.208904 -0.535273
0.164537 -0.572295
0.0728935 -0.244116
0.988366 0.30304
4.76743 1.68334
1.19836 0.3285
1.09414 -0.258109
1.20987 -0.384466
3.74312 0.369198
2.26203 -2.17429
2.84358 -0.964545
0.40159 -1.15279
0.49189 -1.2052
-0.289435 -2.50238
0.122781 -2.55578
1.05224 -4.61393
0.929837 -4.47058
0.31142 -2.32803
0.165057 -1.58741
-0.294786 -0.756531
-0.73367 -1.21751
-1.42752 -1.16898
-1.7293 -1.17531
-1.73999 -1.29709
-1.28076 -1.35206
-0.439541 -1.30378
-0.924488 -0.845214
2.76048 -18.9934
1.98131 -24.5051
3.31936 -41.4483
3.59071 -42.7314
0.421541 -2.7144
1.25271 -5.28106
2.27813 -7.71384
2.31661 -9.03148
2.86428 -11.5295
2.32416 -7.84269
-10.8673 -12.888
-9.66646 -17.4212
1.30887 -4.77131
1.10476 -4.89775
0.863857 -4.63754
0.459771 -2.98371
0.674823 -5.47592
1.44593 -4.86375
-13.0504 -30.0658
-13.9847 -35.7819
-12.9051 -4.14129
-3.9364 -3.75837
-1.97307 -7.07073
-1.5837 -6.71343
-3.84521 -3.99186
0.308168 -8.54263
0.980529 -6.06456
1.04533 -6.60195
0.555847 -8.24622
-3.24708 -2.40699
-3.61095 -2.54245
-3.22583 -2.30007
-3.9927 -2.70916
-4.2945 -2.92257
-3.91954 -2.79561
-3.34579 -2.55345
-2.27181 -20.7013
3.19564 -18.8795
2.13403 -26.7824
3.08181 -16.3581
-13.3333 -16.8727
-13.9862 -11.9547
1.36035 -7.72285
2.25373 -11.9848
-9.51659 -5.68048
-13.3144 -8.79033
2.35823 -10.1922
1.42231 -8.58345
-6.10161 -16.9523
-5.96659 -15.9002
-6.75854 -4.64028
-6.58722 -9.28352
-2.37295 -11.8512
-2.13031 -11.1309
-6.30548 -8.62129
-6.2856 -4.80818
1.21757 -9.62978
0.980405 -9.50088
-5.84083 -3.60667
-7.64631 -4.50047
0.580306 -17.7464
-1.82291 -20.37
0.721446 -14.7896
1.1373 -15.9564
0.253839 -12.3574
0.126699 -11.3408
-1.23863 -15.9005
-0.599034 -14.6922
1.24654 -12.0555
1.39568 -61.077
-1.13839 -0.895494
-6.49789 -14.7718
-2.5583 -13.2857
-1.99752 -1.81358
2.50234 -26.7914
-0.851624 -1.19376
-10.4443 -82.4572
-6.84098 -26.2132
-1.26698 -1.57762
-3.57482 -14.9265
1.09034 -38.2122
-0.0790746 -42.4175
-5.83629 -42.4576
-5.24192 -34.6399
-3.54958 -67.1054
-3.31193 -18.2757
-5.39225 -20.1292
-3.66008 -29.537
1.66713 -38.6136
1.43156 -42.5047
0.340018 -31.1785
-1.9813 -27.1096
-1.51122 -23.1895
-7.31301 -22.1192
-9.54006 -27.5222
-0.487207 -21.1654
1.34068 -34.9315
-0.0940084 -44.3768
-4.78237 -35.8345
-5.87347 -44.8135
-3.52069 -30.3237
-3.32453 -18.2976
-5.38018 -20.1887
-5.91002 -73.863
1.16025 -43.6937
1.9238 -40.0922
0.546913 -32.2226
-1.47567 -23.6307
-1.85649 -27.7972
-0.443664 -21.5793
-7.33212 -22.2819
-9.53265 -28.0105
1.53225 -36.0942
-6.71812 -4.66815
0.674483 -2.50732
3.81448 1.17838
3.02697 -0.319871
-36.551 -71.2962
-17.2622 -51.4171
-26.8595 -40.2296
-10.4494 -13.3812
-7.61173 -6.16129
-7.24306 -5.72186
3.03437 0.644121
0.0869026 -2.55053
-26.7884 -45.2019
-36.0213 -72.325
-14.5521 -5.97939
2.92338 -0.483213
-7.45665 -7.92492
-9.93639 -18.098
-11.47 -36.7943
-10.3703 -52.0582
0.631295 -39.7287
-36.532 -59.33
3.14986 -28.9834
-12.3703 -28.9179
-16.3948 -35.2767
-20.9745 -44.5447
-4.65784 -51.6913
-25.616 -58.7917
1.80542 -38.3219
-36.7077 -62.0793
-18.6106 -41.3164
-16.6156 -36.6856
-10.6981 -46.9782
-10.0561 -58.0572
-1.65585 -46.0641
0.737004 -43.0541
-7.76235 -39.4809
-11.8285 -41.2137
-3.23884 -45.2476
-14.4343 -52.3265
0.0174167 -42.3774
-8.8429 -34.5886
1.35795 -44.8863
-6.11379 -29.1536
-3.00061 -34.2461
-7.26104 -25.6925
-11.1432 -70.968
2.56858 -45.9151
0.779197 -40.5116
-9.40194 -2.57559
-5.37504 -1.21746
-8.61028 -4.09261
2.36351 -0.612961
-11.0206 -8.29314
-12.0585 -4.3003
-10.1906 -2.899
-9.25965 -3.29025
-8.85177 -5.153
-5.6549 -1.3941
-10.4622 -10.8085
-11.9088 -4.94449
1.73288 -46.1529
-2.27841 -37.0425
-4.2572 -33.6326
-10.552 -69.0728
-5.41264 -30.1775
1.46163 -41.3591
2.28398 -44.717
-11.4354 -25.5887
-6.8886 -29.7102
-2.19024 -26.1372
-4.69985 -22.57
-13.9847 -32.7389
-7.4652 -33.7566
-0.195604 -34.0307
-1.62844 -29.5586
-12.4332 -26.2827
-9.27465 -23.4525
-6.49019 -20.5855
-8.62401 -19.7443
-10.8032 -18.427
-12.1577 -17.0006
-12.4801 -21.2589
-12.5276 -13.0251
-13.3925 -15.886
-12.7002 -24.5299
-8.67474 -15.6322
-12.2901 -17.6847
-12.1948 -14.8386
-10.7154 -15.4525
-8.47522 -14.2102
-8.62084 -10.7843
-8.48863 -17.1836
-12.4692 -10.6999
-10.8427 -11.5906
-8.84129 -11.912
-8.82077 -9.02862
-13.2166 -9.92474
-11.6438 -8.46728
-10.2123 -7.32541
-11.0054 -6.95493
-11.7118 -7.62498
-12.3536 -7.56152
-10.8038 -6.40661
-9.59044 -5.61958
-10.4779 -6.10267
-8.9387 -5.35433
-10.5131 -10.1491
-12.335 -11.9126
-12.2019 -9.85585
-13.4768 -14.0082
-13.531 -9.94225
-11.8316 -8.27134
-8.41263 -8.10341
-10.2186 -7.02724
-8.80415 -5.51383
-6.8072 -4.68536
-7.44634 -4.57584
-8.91995 -6.23433
-8.43915 -6.54527
-8.27229 -33.7748
-2.1813 -42.2807
-7.93709 -43.0797
1.02515 -38.66
-12.4241 -33.7577
-9.40464 -28.2561
-4.45964 -29.2709
0.213222 -21.6497
-0.932802 -31.044
-1.4091 -22.6783
-11.4095 -31.7598
-15.1821 -25.554
-1.32797 -22.2049
-0.926361 -30.2064
0.168173 -21.2387
0.910858 -37.4204
-11.5961 -30.6715
-14.8352 -26.1348
-4.30794 -28.9788
-7.95182 -42.272
-2.11261 -41.0456
-8.13854 -33.3059
16.9898 8.66036
12.9498 0.654874
-13.651 -9.52826
-13.0527 -6.24797
-12.3619 -8.25481
-13.5636 -5.31243
-11.8751 -12.7382
-13.6825 -12.2254
-14.1469 -9.45159
-11.6534 -18.8345
-11.372 -21.7638
-13.1549 -16.2253
-11.3285 -27.655
-10.1727 -19.5873
-2.44743 -37.8802
-7.36251 -32.034
-5.45242 -30.0995
-3.40514 -34.9115
-5.48954 -36.5657
-0.605493 -40.6786
-10.3169 -33.1415
-8.26598 -24.9982
-12.2893 -22.2504
-10.2644 -27.8204
-9.94217 -24.8062
-13.4707 -30.4761
-10.5472 -17.9397
-12.6016 -17.3796
-12.8603 -21.5462
-13.9381 -10.7277
-14.2086 -8.06852
-14.2316 -9.01802
-13.4908 -6.60761
-13.9579 -6.01549
-14.1593 -8.25762
-13.5645 -13.085
-11.5139 -11.4988
-12.7857 -8.40131
-12.9077 -13.3277
-11.1878 -24.2436
-10.1495 -26.2918
-13.2936 -27.9184
-5.00473 -26.906
-12.0229 -21.9926
-9.94614 -20.4818
-7.1579 -19.2102
-13.0705 -7.87648
-13.4657 -8.48491
-11.9387 -7.35116
-14.0838 -10.357
-13.8723 -8.69565
-14.352 -6.8668
-14.3535 -8.09002
-14.4571 -7.70862
-3.38602 -7.96011
-2.05251 -10.4947
-1.9823 -5.35453
-0.862411 -21.4483
-0.132429 -16.0052
-1.2516 -4.53633
-1.9315 -1.4094
-2.98713 -1.04491
-4.723 -8.43425
-3.35111 -35.5281
-1.73374 -27.2931
-4.53216 -19.2195
1.87321 -29.8339
-7.07327 -13.4649
-3.50685 -40.5725
0.961755 -45.3797
-18.3793 -110.492
-21.2457 -27.2586
-12.476 -48.6934
-2.21446 -54.2324
-11.2775 -51.4274
-29.1356 -97.4111
-21.2071 -26.1418
-22.618 -115.661
-12.3604 -52.942
-11.5988 -56.1509
-3.21579 -57.1786
-28.0749 -104.861
-22.4813 -54.8565
-16.7397 -65.5592
-6.46771 -59.9676
-50.3242 -92.2207
-21.6043 -91.8906
0.828103 -46.0897
-3.26985 -48.9728
-17.9232 -46.1775
-26.9249 -50.2428
1.66167 -34.0893
2.5773 -28.5916
2.21941 -33.3307
2.7668 -22.1238
2.88194 -24.4127
0.93314 -31.2007
-1.20656 -36.491
0.584211 -41.2975
2.18882 -31.4332
-12.0335 -32.522
-14.7083 -32.1033
-14.7457 -35.8896
-13.0877 -29.67
-14.5749 -32.7084
-18.3933 -39.0098
-17.7737 -39.712
-6.22052 -35.0049
-8.79754 -33.1923
-0.634505 -43.8011
0.910294 -39.3766
-0.98766 -45.7508
1.93878 -31.9875
-3.69206 -57.0198
-6.51244 -46.4919
-2.12382 -40.153
-19.288 -71.1174
-29.3359 -73.6023
-34.7222 -59.7446
-40.0078 -113.559
-51.0122 -96.934
-26.396 -55.0209
-27.1919 -52.3587
-12.1036 -61.7506
-5.1194 -70.0328
-21.1695 -42.8918
-18.8741 -39.0421
-17.6357 -40.2576
-15.3626 -38.1927
-16.2992 -36.3652
-12.273 -38.8249
-14.0828 -43.1989
-24.3594 -46.697
-19.7698 -44.6982
-19.8722 -60.8249
-17.4421 -66.2009
-8.4634 -64.4124
-4.28425 -53.8518
-16.9533 -53.2497
-16.7719 -47.8152
-14.7535 -44.2223
-13.0385 -41.252
-5.28928 -43.8534
-11.9671 -62.3166
-22.4228 -66.0588
-24.9065 -54.3404
-19.6053 -47.2861
-7.1588 -53.3335
-17.3979 -42.3262
-14.5245 -38.2849
-7.72232 -40.0049
-12.6403 -35.4971
-4.59555 -31.0708
-2.21204 -29.4207
-4.62872 -27.9022
-4.72749 -25.2842
-2.28452 -23.4288
-7.04926 -27.0844
0.257773 -36.5463
1.64544 -31.4672
2.76721 -32.4714
1.15812 -30.0134
2.48061 -27.6794
2.57676 -26.8558
-3.23339 -37.3919
-4.33301 -31.7033
-1.15625 -31.8689
-3.61643 -33.9987
0.354657 -28.3382
-7.43147 -37.3524
-10.4636 -31.7172
-5.93096 -30.1315
-0.582143 -26.7831
-3.49082 -28.1947
-7.14111 -24.8717
-8.68608 -28.5655
0.904776 -25.6467
-2.39851 -25.7839
-3.20037 -23.4929
-1.06891 -22.3754
0.057748 -25.8944
1.29741 -23.6277
-0.512772 -23.7154
2.73062 -21.9126
2.18402 -20.2732
-0.605743 -21.1072
0.342741 -28.8883
0.0856603 -20.7388
-1.35632 -11.9383
0.687601 -19.0599
-1.98963 -6.76205
-0.839082 -5.65976
1.24705 -15.1607
-1.30538 -26.583
-3.95357 -6.83942
-2.34744 -6.33006
-4.34665 -14.2197
-1.99641 -0.473659
-2.38731 -27.6142
-5.656 -6.7737
-3.47642 -2.22967
-7.41462 -21.6358
-11.6503 -9.93318
-4.46732 -35.9527
-3.42985 -0.0368228
-5.31615 -1.16226
0.197912 -9.5525
-0.355797 -5.60721
0.233059 -4.35182
-12.9182 9.97517
-27.2716 -44.8047
0.327134 -4.44446
1.60695 -13.7625
-10.4743 -24.0117
-4.56207 -46.4791
-13.9388 -16.2579
-4.33733 0.0803899
-6.91016 3.11278
-0.772053 -8.64074
0.0651592 -4.38147
-0.611904 -4.25139
0.245688 -4.50862
-12.1178 21.052
-27.4925 -37.9581
1.23988 -15.6862
0.467539 -2.63193
0.123328 -1.35784
0.166584 -1.58215
0.0983952 -1.32834
-0.0082624 -0.536984
-0.0396271 -0.484718
0.200842 -1.61965
0.870562 -4.05903
0.853455 -3.78925
0.584746 -2.76807
0.221519 -1.65973
0.0452787 -1.29207
0.161908 -1.62686
-0.070575 -0.371884
-0.05387 -0.407175
0.998638 -4.2378
0.989537 -3.69854
0.275438 -1.82967
0.247204 -1.84231
0.179506 -1.78814
-0.0148425 -0.328059
-0.0756558 -0.230577
0.307005 -1.88271
1.62015 -5.74036
1.66936 -5.54204
1.12261 -4.14773
0.386983 -2.17466
0.298787 -1.83287
0.457499 -2.23855
-0.31477 -0.295145
-0.32044 -0.236106
1.76511 -6.18403
1.16513 -4.60217
0.328475 -2.35258
0.493006 -2.41048
0.419431 -2.4141
-0.438017 -0.153669
-0.412595 -0.131586
0.410447 -2.34951
1.82382 -6.73012
1.62339 -6.78377
1.07916 -5.46361
0.505537 -3.45581
0.484084 -2.48325
0.546279 -3.38132
-0.52761 -0.0693382
-0.455836 -0.0590341
1.77303 -7.71422
1.07812 -5.73558
0.442413 -2.35572
0.562032 -3.78216
0.394602 -2.33494
-0.310452 -0.305953
-0.211903 -0.393955
0.568912 -3.62016
2.0743 -9.26181
1.88173 -7.85563
1.20197 -4.70384
0.563916 -2.60794
0.307152 -2.27495
0.46439 -2.53208
-0.169442 -0.45541
-0.161379 -0.780857
2.1334 -8.08844
1.15889 -4.18068
0.302798 -1.86871
0.389735 -2.21881
0.259754 -1.84036
-0.0291913 -0.594707
-0.201269 -1.10497
0.468419 -2.27228
1.81597 -6.21516
1.71534 -5.69689
0.525058 -2.62601
0.12604 -1.45606
0.0918068 -1.27657
0.177951 -1.49399
-0.250718 -0.343667
-0.283274 -0.324502
0.023552 -1.25601
0.918187 -3.52634
0.93757 -3.78554
0.491598 -2.69894
0.148273 -1.51952
0.163966 -1.47982
0.175244 -1.54965
-0.332058 -0.220833
-0.359977 -0.192858
0.13564 -1.45821
0.827583 -3.72679
0.790246 -3.79328
-0.46347 -0.106406
0.0945587 -1.3094
0.117197 -1.35325
0.122111 -1.37455
0.601162 -3.35017
-0.399381 -0.0860282
-11.2887 -43.6412
-3.49699 -44.7788
-5.01615 -38.6175
1.88693 -9.94201
1.83211 -10.9783
0.943165 -7.40019
2.8225 -15.9138
2.5786 -11.0999
-12.676 -47.8329
-13.7218 -55.1013
-22.3366 -50.4557
2.00367 -11.5543
0.753729 -8.10437
1.69354 -12.1637
2.40124 -20.1749
2.84629 -13.9972
-10.3923 -53.1159
-4.70159 -49.066
-12.2996 -46.8032
-6.71764 -46.8781
1.16008 -5.40023
0.832465 -4.07762
0.465782 -2.82536
0.738611 -4.06573
1.40982 -5.2043
0.8662 -3.44889
1.28087 -4.95954
1.5312 -6.03878
2.02787 -7.27394
1.91981 -7.01606
1.27336 -4.62761
2.01225 -6.68025
2.42837 -8.56467
2.47287 -9.20749
2.06002 -6.92705
1.34242 -4.8536
2.07002 -7.39807
2.78159 -10.7389
2.48709 -8.81342
0.895724 -3.92115
0.539476 -2.75284
0.969438 -3.89203
1.29975 -5.01466
1.19607 -5.06474
0.593125 -3.22815
0.394383 -2.46063
0.69282 -3.45595
0.979046 -4.60828
0.861445 -4.49145
-9.58606 -29.4334
-9.80499 -26.6613
3.69899 -17.452
3.18491 -17.481
3.1102 -14.2038
3.16817 -20.3401
2.85351 -11.9384
3.37854 -16.9158
3.2965 -20.1385
-12.1736 -35.4274
-13.8235 -32.9375
1.40732 -6.32152
1.30954 -6.45602
1.24709 -6.55647
1.46351 -7.60416
2.27377 -9.68086
2.23664 -8.67044
1.9116 -7.73388
2.46467 -9.24253
1.6374 -6.98031
2.15935 -10.2862
2.44211 -11.3692
3.28663 -13.9121
3.11171 -11.6728
2.92771 -11.2196
2.79269 -10.1794
3.28048 -15.7089
3.33012 -13.9152
2.95043 -10.9339
3.2005 -12.4282
2.76741 -9.93215
3.26758 -13.57
3.33179 -15.9454
3.10725 -14.2542
2.26077 -8.54534
1.89621 -6.81241
2.22993 -7.84759
1.67116 -6.01074
1.53504 -5.50335
2.03757 -7.06722
2.46209 -8.77087
2.47519 -9.9339
2.18861 -8.73155
1.26298 -5.78897
1.13481 -5.52131
1.11752 -5.72788
1.42097 -7.6409
3.57983 -24.3939
2.95639 -23.5408
2.28177 -27.5999
1.88866 -9.25663
1.76248 -8.07088
1.66447 -8.57361
1.537 -8.76284
1.95839 -10.8941
3.02549 -13.8281
2.85441 -11.8426
2.75267 -12.5604
2.47796 -13.3269
2.94996 -16.7535
2.71321 -11.2802
2.83222 -10.9826
2.97861 -12.626
2.94236 -14.6809
2.57119 -11.626
2.53429 -18.3689
1.5851 -19.5252
0.672564 -19.6473
1.37772 -17.754
1.02861 -21.6323
2.2354 -20.1129
1.59167 -22.7824
2.38043 -17.8625
3.06319 -18.5331
2.67358 -23.6452
0.0023818 -19.9219
1.88019 -12.2249
1.63992 -11.0534
1.28923 -11.0452
1.13835 -13.5648
1.93729 -16.4192
2.41806 -16.1392
2.35033 -14.8672
2.09152 -13.4635
1.25298 -16.372
2.23211 -14.2744
2.48983 -12.9882
2.55556 -14.2851
2.27121 -11.5358
2.67795 -15.9834
1.77991 -15.7924
1.66548 -14.4208
2.12119 -10.0551
2.03674 -11.423
1.59841 -10.9696
1.6258 -9.25046
2.04707 -17.3119
1.32922 -17.6587
1.62421 -13.7535
1.32233 -14.9236
1.87718 -7.47821
1.55902 -6.2803
1.62306 -6.3028
1.43227 -6.23189
2.05624 -8.87999
1.66261 -8.3344
1.57997 -7.15418
1.84938 -8.66671
1.31154 -4.56067
0.89491 -3.44162
1.42625 -5.01219
0.149175 -1.52901
1.03125 -3.95051
0.0203245 -1.22961
0.145712 -1.52518
0.624573 -2.75019
-0.535352 -0.0649028
-0.44898 -0.0311451
3.53793 -23.8846
3.35008 -18.4016
3.01153 -22.5297
3.29982 -15.8766
2.98565 -23.7481
3.25938 -18.2372
3.6312 -17.863
3.33421 -20.6441
0 0
0 0
0 0
0 0
0 0
0 0
0 0
0 0
0 0
0 0
0 0
0 0
0 0
0 0
0 0
0 0
0 0
0 0
0 0
0 0
0 0
0 0
0 0
0 0
0 0
0 0
0 0
0 0
0 0
0 0
0 0
0 0
0 0
0 0
0 0
0 0
0 0
0 0
0 0
0 0
0 0
0 0
0 0
0 0
0 0
0 0
0 0
0 0
0 0
0 0
0 0
0 0
0 0
0 0
0 0
0 0
0 0
0 0
0 0
0 0
0 0
0 0
0 0
0 0
0 0
0 0
0 0
0 0
0 0
0 0
0 0
0 0
0 0
0 0
0 0
0 0
0 0
0 0
0 0
0 0
0 0
0 0
0 0
0 0
0 0
0 0
0 0
0 0
0 0
0 0
0 0
0 0
0 0
0 0
0 0
0 0
0 0
0 0
0 0
0 0
0 0
0 0
0 0
0 0
0 0
0 0
0 0
0 0
0 0
0 0
0 0
0 0
0 0
0 0
0 0
0 0
0 0
0 0
0 0
0 0
0 0
0 0
0 0
0 0
0 0
0 0
0 0
0 0
0 0
0 0
0 0
0 0
0 0
0 0
0 0
0 0
0 0
0 0
0 0
0 0
0 0
0 0
0 0
0 0
0 0
0 0
0 0
0 0
0 0
0 0
0 0
0 0
0 0
0 0
0 0
0 0
0 0
0 0
0 0
0 0
0 0
0 0
0 0
0 0
0 0
0 0
0 0
0 0
0 0
0 0
0 0
0 0
0 0
0 0
0 0
0 0
0 0
0 0
0 0
0 0
0 0
0 0
0 0
0 0
0 0
0 0
0 0
0 0
0 0
0 0
0 0
0 0
0 0
0 0
0 0
0 0
0 0
0 0
0 0
0 0
0 0
0 0
0 0
0 0
0 0
0 0
0 0
0 0
0 0
0 0
0 0
0 0
0 0
0 0
0 0
0 0
0 0
0 0
0 0
0 0
0 0
0 0
0 0
0 0
0 0
0 0
0 0
0 0
0 0
0 0
0 0
0 0
0 0
0 0
0 0
0 0
0 0
0 0
0 0
0 0
0 0
0 0
0 0
0 0
0 0
0 0
0 0
0 0
0 0
0 0
0 0
0 0
0 0
0 0
0 0
0 0
0 0
0 0
0 0
0 0
0 0
0 0
0 0
0 0
0 0
0 0
0 0
0 0
0 0
0 0
0 0
0 0
0 0
0 0
0 0
0 0
0 0
0 0
0 0
0 0
0 0
0 0
0 0
0 0
0 0
0 0
0 0
0 0
0 0
0 0
0 0
0 0
0 0
0 0
0 0
0 0
0 0
0 0
0 0
0 0
0 0
0 0
0 0
0 0
0 0
0 0
0 0
0 0
0 0
0 0
0 0
0 0
0 0
0 0
0 0
0 0
0 0
0 0
0 0
0 0
0 0
0 0
0 0
0 0
0 0
0 0
0 0
0 0
0 0
0 0
0 0
0 0
0 0
0 0
0 0
0 0
0 0
0 0
0 0
0 0
0 0
0 0
0 0
0 0
0 0
0 0
0 0
0 0
0 0
0 0
0 0
0 0
0 0
0 0
0 0
0 0
0 0
0 0
0 0
0 0
0 0
0 0
0 0
0 0
0 0
0 0
0 0
0 0
0 0
0 0
0 0
0 0
0 0
0 0
0 0
0 0
0 0
0 0
0 0
0 0
0 0
0 0
0 0
0 0
0 0
0 0
0 0
0 0
0 0
0 0
0 0
0 0
0 0
0 0
0 0
0 0
0 0
0 0
0 0
0 0
0 0
0 0
0 0
0 0
0 0
0 0
0 0
0 0
0 0
0 0
0 0
0 0
0 0
0 0
0 0
0 0
0 0
0 0
0 0
0 0
0 0
0 0
0 0
0 0
0 0
0 0
0 0
0 0
0 0
0 0
0 0
0 0
0 0
0 0
0 0
0 0
0 0
0 0
0 0
0 0
0 0
0 0
0 0
0 0
0 0
0 0
0 0
0 0
0 0
0 0
0 0
0 0
0 0
0 0
0 0
0 0
0 0
0 0
0 0
0 0
0 0
0 0
0 0
0 0
0 0
0 0
0 0
0 0
0 0
0 0
0 0
0 0
0 0
0 0
0 0
0 0
0 0
0 0
0 0
0 0
0 0
0 0
0 0
0 0
0 0
0 0
0 0
0 0
0 0
0 0
0 0
0 0
0 0
0 0
0 0
0 0
0 0
0 0
0 0
0 0
0 0
0 0
0 0
0 0
0 0
0 0
0 0
0 0
0 0
0 0
0 0
0 0
0 0
0 0
0 0
0 0
0 0
0 0
0 0
0 0
0 0
0 0
0 0
0 0
0 0
0 0
0 0
0 0
0 0
0 0
0 0
0 0
0 0
0 0
0 0
0 0
0 0
0 0
0 0
0 0
0 0
0 0
0 0
0 0
0 0
0 0
0 0
0 0
0 0
0 0
0 0
0 0
0 0
0 0
0 0
0 0
0 0
0 0
0 0
0 0
0 0
0 0
0 0
0 0
0 0
0 0
0 0
0 0
0 0
0 0
0 0
0 0
0 0
0 0
0 0
0 0
0 0
0 0
0 0
0 0
0 0
0 0
0 0
0 0
0 0
0 0
0 0
0 0
0 0
0 0
0 0
0 0
0 0
0 0
0 0
0 0
0 0
0 0
0 0
0 0
0 0
0 0
0 0
0 0
0 0
0 0
0 0
0 0
0 0
0 0
0 0
0 0
0 0
0 0
0 0
0 0
0 0
0 0
0 0
0 0
0 0
0 0
0 0
0 0
0 0
0 0
0 0
0 0
0 0
0 0
0 0
0 0
0 0
0 0
0 0
0 0
0 0
0 0
0 0
0 0
0 0
0 0
0 0
0 0
0 0
0 0
0 0
0 0
0 0
0 0
0 0
0 0
0 0
0 0
0 0
0 0
0 0
0 0
0 0
0 0
0 0
0 0
0 0
0 0
0 0
0 0
0 0
0 0
0 0
0 0
0 0
0 0
0 0
0 0
0 0
0 0
0 0
0 0
0 0
0 0
0 0
0 0
0 0
0 0
0 0
0 0
0 0
0 0
0 0
0 0
0 0
0 0
0 0
0 0
0 0
0 0
0 0
0 0
0 0
0 0
0 0
0 0
0 0
0 0
0 0
0 0
0 0
0 0
0 0
0 0
0 0
0 0
0 0
0 0
0 0
0 0
0 0
0 0
0 0
0 0
0 0
0 0
0 0
0 0
0 0
0 0
0 0
0 0
0 0
0 0
0 0
0 0
0 0
0 0
0 0
0 0
0 0
0 0
0 0
0 0
0 0
0 0
0 0
0 0
0 0
0 0
0 0
0 0
0 0
0 0
0 0
0 0
0 0
0 0
0 0
0 0
0 0
0 0
0 0
0 0
0 0
0 0
0 0
0 0
0 0
0 0
0 0
0 0
0 0
0 0
0 0
0 0
0 0
0 0
0 0
0 0
0 0
0 0
0 0
0 0
0 0
0 0
0 0
0 0
0 0
0 0
0 0
0 0
0 0
0 0
0 0
0 0
0 0
0 0
0 0
0 0
0 0
0 0
0 0
0 0
0 0
0 0
0 0
0 0
0 0
0 0
0 0
0 0
0 0
0 0
0 0
0 0
0 0
0 0
0 0
0 0
0 0
0 0
0 0
0 0
0 0
0 0
0 0
0 0
0 0
0 0
0 0
0 0
0 0
0 0
0 0
0 0
0 0
0 0
0 0
0 0
0 0
0 0
0 0
0 0
0 0
0 0
0 0
0 0
0 0
0 0
0 0
0 0
0 0
0 0
0 0
0 0
0 0
0 0
0 0
0 0
0 0
0 0
0 0
0 0
0 0
0 0
0 0
0 0
0 0
0 0
0 0
0 0
0 0
0 0
0 0
0 0
0 0
0 0
0 0
0 0
0 0
0 0
0 0
0 0
0 0
0 0
0 0
0 0
0 0
0 0
0 0
0 0
0 0
0 0
0 0
0 0
0 0
0 0
0 0
0 0
0 0
0 0
0 0
0 0
0 0
0 0
0 0
0 0
0 0
0 0
0 0
0 0
0 0
0 0
0 0
0 0
0 0
0 0
0 0
0 0
0 0
0 0
0 0
0 0
0 0
0 0
0 0
0 0
0 0
0 0
0 0
0 0
0 0
0 0
0 0
0 0
0 0
0 0
0 0
0 0
0 0
0 0
0 0
0 0
0 0
0 0
0 0
0 0
0 0
0 0
0 0
0 0
0 0
0 0
0 0
0 0
0 0
0 0
0 0
0 0
0 0
0 0
0 0
0 0
0 0
0 0
0 0
0 0
0 0
0 0
0 0
0 0
0 0
0 0
0 0
0 0
0 0
0 0
0 0
0 0
0 0
0 0
0 0
0 0
0 0
0 0
0 0
0 0
0 0
0 0
0 0
0 0
0 0
0 0
0 0
0 0
0 0
0 0
0 0
0 0
0 0
0 0
0 0
0 0
0 0
0 0
0 0
0 0
0 0
0 0
0 0
0 0
0 0
0 0
0 0
0 0
0 0
0 0
0 0
0 0
0 0
0 0
0 0
0 0
0 0
0 0
0 0
0 0
0 0
0 0
0 0
0 0
0 0
0 0
0 0
0 0
0 0
0 0
0 0
0 0
0 0
0 0
0 0
0 0
0 0
0 0
0 0
0 0
0 0
0 0
0 0
0 0
0 0
0 0
0 0
0 0
0 0
0 0
0 0
0 0
0 0
0 0
0 0
0 0
0 0
0 0
0 0
0 0
0 0
0 0
0 0
0 0
0 0
0 0
0 0
0 0
0 0
0 0
0 0
0 0
0 0
0 0
0 0
0 0
0 0
0 0
0 0
0 0
0 0
0 0
0 0
0 0
0 0
0 0
0 0
0 0
0 0
0 0
0 0
0 0
0 0
0 0
0 0
0 0
0 0
0 0
0 0
0 0
0 0
0 0
0 0
0 0
0 0
0 0
0 0
0 0
0 0
0 0
0 0
0 0
0 0
0 0
0 0
0 0
0 0
0 0
0 0
0 0
0 0
0 0
0 0
0 0
0 0
0 0
0 0
0 0
0 0
0 0
0 0
0 0
0 0
0 0
0 0
0 0
0 0
0 0
0 0
0 0
0 0
0 0
0 0
0 0
0 0
0 0
0 0
0 0
0 0
0 0
0 0
0 0
0 0
0 0
0 0
0 0
0 0
0 0
0 0
0 0
0 0
0 0
0 0
0 0
0 0
0 0
0 0
0 0
0 0
0 0
0 0
0 0
0 0
0 0
0 0
0 0
0 0
0 0
0 0
0 0
0 0
0 0
0 0
0 0
0 0
0 0
0 0
0 0
0 0
0 0
0 0
0 0
0 0
0 0
0 0
0 0
0 0
0 0
0 0
0 0
0 0
0 0
0 0
0 0
0 0
0 0
0 0
0 0
0 0
0 0
0 0
0 0
0 0
0 0
0 0
0 0
0 0
0 0
0 0
0 0
0 0
0 0
0 0
0 0
0 0
0 0
0 0
0 0
0 0
0 0
0 0
0 0
0 0
0 0
0 0
0 0
0 0
0 0
0 0
0 0
0 0
0 0
0 0
0 0
0 0
0 0
0 0
0 0
0 0
0 0
0 0
0 0
0 0
0 0
0 0
0 0
0 0
0 0
0 0
0 0
0 0
0 0
0 0
0 0
0 0
0 0
0 0
0 0
0 0
0 0
0 0
0 0
0 0
0 0
0 0
0 0
0 0
0 0
0 0
0 0
0 0
0 0
0 0
0 0
0 0
0 0
0 0
0 0
0 0
0 0
0 0
0 0
0 0
0 0
0 0
0 0
0 0
0 0
0 0
0 0
0 0
0 0
0 0
0 0
0 0
0 0
0 0
0 0
0 0
0 0
0 0
0 0
0 0
0 0
0 0
0 0
0 0
0 0
0 0
0 0
0 0
0 0
0 0
0 0
0 0
0 0
0 0
0 0
0 0
0 0
0 0
0 0
0 0
0 0
0 0
0 0
0 0
0 0
0 0
0 0
0 0
0 0
0 0
0 0
0 0
0 0
0 0
0 0
0 0
0 0
0 0
0 0
0 0
0 0
0 0
0 0
0 0
0 0
0 0
0 0
0 0
0 0
0 0
0 0
0 0
0 0
0 0
0 0
0 0
0 0
0 0
0 0
0 0
0 0
0 0
0 0
0 0
0 0
0 0
0 0
0 0
0 0
0 0
0 0
0 0
0 0
0 0
0 0
0 0
0 0
0 0
0 0
0 0
0 0
0 0
0 0
0 0
0 0
0 0
0 0
0 0
0 0
0 0
0 0
0 0
0 0
0 0
0 0
0 0
0 0
0 0
0 0
0 0
0 0
0 0
0 0
0 0
0 0
0 0
0 0
0 0
0 0
0 0
0 0
0 0
0 0
0 0
0 0
0 0
0 0
0 0
0 0
0 0
0 0
0 0
0 0
0 0
0 0
0 0
0 0
0 0
0 0
0 0
0 0
0 0
0 0
0 0
0 0
0 0
0 0
0 0
0 0
0 0
0 0
0 0
0 0
0 0
0 0
0 0
0 0
0 0
0 0
0 0
0 0
0 0
0 0
0 0
0 0
0 0
0 0
0 0
0 0
0 0
0 0
0 0
0 0
0 0
0 0
0 0
0 0
0 0
0 0
0 0
0 0
0 0
0 0
0 0
0 0
0 0
0 0
0 0
0 0
0 0
0 0
0 0
0 0
0 0
0 0
0 0
0 0
0 0
0 0
0 0
0 0
0 0
0 0
0 0
0 0
0 0
0 0
0 0
0 0
0 0
0 0
0 0
0 0
0 0
0 0
0 0
0 0
0 0
0 0
0 0
0 0
0 0
0 0
0 0
0 0
0 0
0 0
0 0
0 0
0 0
0 0
0 0
0 0
0 0
0 0
0 0
0 0
0 0
0 0
0 0
0 0
0 0
0 0
0 0
0 0
0 0
0 0
0 0
0 0
0 0
0 0
0 0
0 0
0 0
0 0
0 0
0 0
0 0
0 0
0 0
0 0
0 0
0 0
0 0
0 0
0 0
0 0
0 0
0 0
0 0
0 0
0 0
0 0
0 0
0 0
0 0
0 0
0 0
0 0
0 0
0 0
0 0
0 0
0 0
0 0
0 0
0 0
0 0
0 0
0 0
0 0
0 0
0 0
0 0
0 0
0 0
0 0
0 0
0 0
0 0
0 0
0 0
0 0
0 0
0 0
0 0
0 0
0 0
0 0
0 0
0 0
0 0
0 0
0 0
0 0
0 0
0 0
0 0
0 0
0 0
0 0
0 0
0 0
0 0
0 0
0 0
0 0
0 0
0 0
0 0
0 0
0 0
0 0
0 0
0 0
0 0
0 0
0 0
0 0
0 0
0 0
0 0
0 0
0 0
0 0
0 0
0 0
0 0
0 0
0 0
0 0
0 0
0 0
0 0
0 0
0 0
0 0
0 0
0 0
0 0
0 0
0 0
0 0
0 0
0 0
0 0
0 0
0 0
0 0
0 0
0 0
0 0
0 0
0 0
0 0
0 0
0 0
0 0
0 0
0 0
0 0
0 0
0 0
0 0
0 0
0 0
0 0
0 0
0 0
0 0
0 0
0 0
0 0
0 0
0 0
0 0
0 0
0 0
0 0
0 0
0 0
0 0
0 0
0 0
0 0
0 0
0 0
0 0
0 0
0 0
0 0
0 0
0 0
0 0
0 0
0 0
0 0
0 0
0 0
0 0
0 0
0 0
0 0
0 0
0 0
0 0
0 0
0 0
0 0
0 0
0 0
0 0
0 0
0 0
0 0
0 0
0 0
0 0
0 0
0 0
0 0
0 0
0 0
0 0
0 0
0 0
0 0
0 0
0 0
0 0
0 0
0 0
0 0
0 0
0 0
0 0
0 0
0 0
0 0
0 0
0 0
0 0
0 0
0 0
0 0
0 0
0 0
0 0
0 0
0 0
0 0
0 0
0 0
0 0
0 0
0 0
0 0
0 0
0 0
0 0
0 0
0 0
0 0
0 0
0 0
0 0
0 0
0 0
0 0
0 0
0 0
0 0
0 0
0 0
0 0
0 0
0 0
0 0
0 0
0 0
0 0
0 0
0 0
0 0
0 0
0 0
0 0
0 0
0 0
0 0
0 0
0 0
0 0
0 0
0 0
0 0
0 0
0 0
0 0
0 0
0 0
0 0
0 0
0 0
0 0
0 0
0 0
0 0
0 0
0 0
0 0
0 0
0 0
0 0
0 0
0 0
0 0
0 0
0 0
0 0
0 0
0 0
0 0
0 0
0 0
0 0
0 0
0 0
0 0
0 0
0 0
0 0
0 0
0 0
0 0
0 0
0 0
0 0
0 0
0 0
0 0
0 0
0 0
0 0
0 0
0 0
0 0
0 0
0 0
0 0
0 0
0 0
0 0
0 0
0 0
0 0
0 0
0 0
0 0
0 0
0 0
0 0
0 0
0 0
0 0
0 0
0 0
0 0
0 0
0 0
0 0
0 0
0 0
0 0
0 0
0 0
0 0
0 0
0 0
0 0
0 0
0 0
0 0
0 0
0 0
0 0
0 0
0 0
0 0
0 0
0 0
0 0
0 0
0 0
0 0
0 0
0 0
0 0
0 0
0 0
0 0
0 0
0 0
0 0
0 0
0 0
0 0
0 0
0 0
0 0
0 0
0 0
0 0
0 0
0 0
0 0
0 0
0 0
0 0
0 0
0 0
0 0
0 0
0 0
0 0
0 0
0 0
0 0
0 0
0 0
0 0
0 0
0 0
0 0
0 0
0 0
0 0
0 0
0 0
0 0
0 0
0 0
0 0
0 0
0 0
0 0
0 0
0 0
0 0
0 0
0 0
0 0
0 0
0 0
0 0
0 0
0 0
0 0
0 0
0 0
0 0
0 0
0 0
0 0
0 0
0 0
0 0
0 0
0 0
0 0
0 0
0 0
0 0
0 0
0 0
0 0
0 0
0 0
0 0
0 0
0 0
0 0
0 0
0 0
0 0
0 0
0 0
0 0
0 0
0 0
0 0
0 0
0 0
0 0
0 0
0 0
0 0
0 0
0 0
0 0
0 0
0 0
0 0
0 0
0 0
0 0
0 0
0 0
0 0
0 0
0 0
0 0
0 0
0 0
0 0
0 0
0 0
0 0
0 0
0 0
0 0
0 0
0 0
0 0
0 0
0 0
0 0
0 0
0 0
0 0
0 0
0 0
0 0
0 0
0 0
0 0
0 0
0 0
0 0
0 0
0 0
0 0
0 0
0 0
0 0
0 0
0 0
0 0
0 0
0 0
0 0
0 0
0 0
0 0
0 0
0 0
0 0
0 0
0 0
0 0
0 0
0 0
0 0
0 0
0 0
0 0
0 0
0 0
0 0
0 0
0 0
0 0
0 0
0 0
0 0
0 0
0 0
0 0
0 0
0 0
0 0
0 0
0 0
0 0
0 0
0 0
0 0
0 0
0 0
0 0
0 0
0 0
0 0
0 0
0 0
0 0
0 0
0 0
0 0
0 0
0 0
0 0
0 0
0 0
0 0
0 0
0 0
0 0
0 0
0 0
0 0
0 0
0 0
0 0
0 0
0 0
0 0
0 0
0 0
0 0
0 0
0 0
0 0
0 0
0 0
0 0
0 0
0 0
0 0
0 0
0 0
0 0
0 0
0 0
0 0
0 0
0 0
0 0
0 0
0 0
0 0
0 0
0 0
0 0
0 0
0 0
0 0
0 0
0 0
0 0
0 0
0 0
0 0
0 0
0 0
0 0
0 0
0 0
0 0
0 0
0 0
0 0
0 0
0 0
0 0
0 0
0 0
0 0
0 0
0 0
0 0
0 0
0 0
0 0
0 0
0 0
0 0
0 0
0 0
0 0
0 0
0 0
0 0
0 0
0 0
0 0
0 0
0 0
0 0
0 0
0 0
0 0
0 0
0 0
0 0
0 0
0 0
0 0
0 0
0 0
0 0
0 0
0 0
0 0
0 0
0 0
0 0
0 0
0 0
0 0
0 0
0 0
0 0
0 0
0 0
0 0
0 0
0 0
0 0
0 0
0 0
0 0
0 0
0 0
0 0
0 0
0 0
0 0
0 0
0 0
0 0
0 0
0 0
0 0
0 0
0 0
0 0
0 0
0 0
0 0
0 0
0 0
0 0
0 0
0 0
0 0
0 0
0 0
0 0
0 0
0 0
0 0
0 0
0 0
0 0
0 0
0 0
0 0
0 0
0 0
0 0
      </DataArray> 
      <DataArray type="Float64" NumberOfComponents="1" Name="CauchyShearStress" format="ascii">
-2.14128
1.87129
-0.613404
0.172169
0.098119
0.128788
0.0893502
0.0389455
-0.0204225
-0.0301319
-0.0280108
-0.0414103
-0.0548794
-0.0405757
-0.0200188
-0.0150394
-0.0154334
0.00875805
0.029088
0.0289193
0.0232138
0.0409829
0.0470544
0.0198126
-0.0151879
-0.0205317
-0.0500297
-0.191439
-0.240685
-0.311292
0.192263
0.0126261
0.0996643
0.225496
-2.45434
0.0158351
0.0834348
0.0982865
0.0928089
0.0431189
0.042368
0.0736486
0.109505
0.108217
0.149882
0.126082
0.165894
0.206975
0.233133
0.233135
0.2497
0.254974
0.265231
0.107911
-0.0581502
-0.115501
-0.177956
-0.225659
-0.271913
0.208533
0.345514
0.493682
0.975581
-11.2258
-5.65063
-2.41537
-3.61824
-4.46716
-6.3957
0.0828768
-10.7548
-9.35029
-7.16386
11.3663
-0.987431
-7.53337
11.3146
-2.48253
5.82761
2.50251
3.65814
4.48299
6.40681
-0.138533
-0.45273
-0.552661
-1.14882
-0.000474777
-0.0405085
0.112308
0.192297
0.336249
0.346412
0.052182
-0.0662213
-0.117091
-0.171005
-0.217111
-0.245127
-0.264892
-0.274612
-0.29411
-0.262103
-0.254716
-0.247035
-0.222742
-0.226156
-0.172329
-0.113376
-0.0885888
-0.102975
0.226921
0.448939
2.55489
0.754004
-6.05942
-3.58413
-6.21905
6.94853
3.93798
1.7195
1.62949
-1.42676
-0.137439
-5.87648
5.87734
-1.37759
-1.46666
-2.89158
-2.72095
3.09359
-2.40855
2.70346
-2.64773
-2.71333
2.93489
2.95006
-2.32538
-2.21324
-2.62168
-1.2803
0.958013
1.33202
2.98014
2.47124
3.35736
-3.04313
-3.52994
-3.69759
-3.53801
3.88438
3.26451
-1.34028
0.294329
1.2393
-2.25926
2.34723
-1.69288
-1.99512
-2.29647
-2.09619
2.21874
2.5348
2.27699
1.7944
-2.14532
-2.22567
-1.91369
-0.974391
0.415338
1.94201
-2.0127
-1.97738
2.30309
2.36266
2.0804
2.03566
2.35223
3.22307
-2.85952
-3.34116
-2.60412
-3.85122
-4.27788
3.82047
2.21354
-1.52942
-1.04823
-0.104113
-0.514668
0.400189
0.9906
0.695086
1.39542
-2.02068
-2.07366
2.03335
2.06624
-1.59305
-1.35915
-1.51045
-1.34396
-1.5275
-1.89899
2.03247
1.73166
1.53609
1.60669
1.38213
1.58022
-1.97281
-1.89764
-2.64552
0.0539988
1.49481
-1.24613
1.4062
1.95729
1.82782
3.98685
-4.85584
-1.09185
-5.29406
5.55088
4.46689
3.16777
-1.53987
-1.14504
-0.406296
0.285085
0.867864
1.39786
-1.92513
1.87779
-1.3277
-0.937905
-1.34693
1.41072
1.02232
1.36743
-1.55575
-1.69888
-1.73973
-1.59776
-0.894539
-0.669379
-6.66729
-1.1913
5.21595
-0.177868
0.183621
1.05153
1.44484
1.60813
1.62084
1.30936
5.34318
-5.28708
0.633873
1.93947
-6.57586
-1.68713
-1.38982
6.11499
2.03119
-1.45586
-1.4386
-1.08465
-1.32967
-0.550631
-0.800464
0.0681324
-0.170212
0.520314
0.318362
1.05589
0.810585
1.44932
1.24715
-1.50831
-1.75467
-1.82921
1.51782
1.73969
1.73344
1.36098
-1.25411
-0.567316
-0.544358
-0.878241
0.894255
0.652309
0.609615
1.3333
-0.907135
-1.26372
-1.11469
-0.893314
-0.332219
-11.5472
-4.47866
-0.359002
2.85242
12.2559
0.86017
-0.84709
0.860316
1.41811
0.919782
8.57979
4.48882
-7.25252
-4.56811
4.5374
-7.54436
0.533879
-3.45351
3.61741
5.19013
-1.47057
-0.945736
-0.512716
-0.101542
0.273086
0.649603
1.18454
-1.64953
-1.24644
1.40613
1.39189
-0.755954
-0.590049
-1.45571
1.1436
0.458224
0.782717
-0.96288
1.07748
-0.27807
-0.526003
-0.464636
-0.671772
-0.511879
-0.60098
-0.493039
-0.3962
-0.21281
-21.6696
-3.26787
2.66114
19.4963
0.0548172
0.402698
0.917476
1.2578
2.83817
-2.44541
-1.25403
-0.815688
-0.362679
0.0288907
0.311497
0.437111
0.38058
0.63932
0.25018
0.333673
0.391125
0.431527
6.69356
10.9552
6.07651
-6.5415
-8.63406
-10.9213
4.57696
5.78245
6.02501
-4.10927
-8.96443
-6.45628
-0.800774
-1.38988
-0.584544
-0.508428
-0.515447
-0.361285
-0.336812
-0.359615
-0.192657
-0.130359
-0.166816
0.0195466
0.0830913
0.0520106
0.214848
0.259829
0.244126
0.37961
0.373928
0.396785
0.659728
1.35591
0.72051
-0.345687
-0.316584
0.4996
0.550244
-1.60045
-1.72458
1.51946
1.54576
1.61758
-0.285418
-0.51766
0.59022
0.428766
-0.555162
0.509324
-0.790926
-0.631593
0.554068
0.700739
-1.22458
-2.53085
-1.26637
1.24022
1.32476
2.06118
1.73014
-2.02483
1.218
-1.36938
0.0496216
-0.00224739
1.68394
-1.77476
1.0633
-0.697001
1.53436
0.86618
0.454481
0.0993811
-0.302107
-0.720285
-1.20093
-1.54206
-5.23041
7.59214
-8.35825
8.48519
0.814084
1.08016
0.192071
-1.98185
2.37267
0.0922614
9.15042
-11.2893
-0.515665
-1.09506
-1.41579
-1.12656
0.930742
-1.24616
4.12208
-2.25605
-0.949428
1.13191
1.00606
-0.845782
-1.09654
1.81267
1.84312
-1.95064
-1.7987
1.55166
1.18123
0.563041
0.00139069
-0.818417
-1.4281
-1.57382
4.53465
0.853545
-1.63765
-1.07222
-4.52984
3.07085
1.85756
1.8146
1.05632
-1.16157
-1.39579
-2.039
4.3694
-3.98096
1.58227
2.15652
2.43141
-2.15608
-1.91136
-1.61232
2.20373
-2.20102
0.819561
-0.228474
3.1536
-4.4064
2.80352
-2.79485
2.56907
-2.38475
3.37661
-3.04157
-2.43511
-11.3799
-1.28541
-13.6282
-9.56044
-1.56468
-6.91115
1.15062
8.76216
17.7317
1.71882
10.7911
9.39482
-10.193
-15.4957
-15.9019
-15.7901
-8.38278
-10.6836
-12.2047
-9.23595
-8.90208
-8.52986
-9.91181
-7.51508
-12.9291
-16.1917
-5.48877
-7.54742
9.31551
16.1726
14.7268
12.2605
8.44006
10.746
9.40399
8.04799
9.26981
8.60191
7.62377
9.96818
5.56737
13.0247
16.2735
7.65712
8.51708
0.775465
2.95696
0.97247
26.0127
7.07864
29.7715
12.9149
5.39261
-10.019
-3.9608
-0.878336
-30.5393
-25.4626
-11.6627
-1.26916
-6.86387
-15.2542
8.55598
8.7967
1.68494
5.15187
-1.24422
6.54068
4.70466
-8.01652
-4.64825
-10.984
1.03349
1.61559
-1.72282
-6.75664
-0.0335304
0.582844
-5.77694
-6.92195
-3.09966
0.747784
4.42618
-2.5766
6.81999
4.18663
11.9005
17.3553
17.2452
11.6563
12.613
9.35199
9.55987
1.2343
1.03838
3.13998
-0.0760899
5.59182
0.821628
-0.665432
-2.46673
-4.30787
-1.67596
-7.45565
-2.53865
-10.4616
-16.5993
-17.5893
-10.9328
-12.3468
-9.16775
-8.75729
5.957
6.85879
5.15339
5.36598
-4.6363
-7.39251
-3.48775
-4.86753
4.97921
5.69305
5.26053
5.09184
4.85617
4.7058
5.43464
3.50368
4.11704
4.90553
4.16913
-4.63981
-3.97507
-4.0783
-3.659
-2.69064
-4.50051
2.73092
3.08478
3.15064
2.29103
2.28385
1.98787
1.67154
1.26629
-1.08251
-0.582969
-0.49033
-0.0748115
0.578489
-0.603763
-2.53196
-2.99685
-2.30055
-3.50487
-1.76481
-1.52211
-1.99873
-1.43767
-1.09204
-1.5171
-0.778254
-1.56133
-1.7666
7.20091
6.24108
7.67822
6.94991
9.3321
10.7742
8.71376
4.66057
6.4297
4.43265
22.6072
25.7567
-4.35525
-6.32856
-4.55471
-6.86922
-21.8114
-25.0112
-8.61413
-7.52317
-6.10294
-7.25844
8.25367
1.31903
3.36543
2.38271
3.92699
0.426574
7.1329
4.14288
2.40129
6.31031
6.12292
5.25911
5.25221
8.49687
8.1675
5.74598
9.41613
-8.74783
-5.23872
-7.95431
-4.0514
-9.18331
-5.7423
-5.50463
-6.63229
-3.90938
-8.89381
-5.57251
-4.96705
-3.14631
-2.26375
-1.95086
-2.3725
-1.08564
-1.18885
-4.01645
-5.62241
-4.14946
-5.03707
-5.81837
-6.28698
-5.95688
-6.23625
-5.18887
-5.4621
-4.97279
0.384639
1.14395
0.729629
1.94437
-0.360569
0.134832
1.26279
-0.22175
6.41017
7.97068
4.13716
9.21042
7.37376
3.39054
2.19041
2.76587
7.31024
12.7789
11.0403
13.4148
8.31905
10.7443
13.5835
8.48268
-18.3094
-28.6593
-21.3805
-12.1213
-20.9682
-45.6686
30.9165
11.2071
20.7886
20.0156
8.30737
42.977
9.04693
2.00321
2.38544
1.45169
-16.1406
-10.7863
-0.243852
6.46307
3.74721
-3.00775
-3.74758
-0.111992
-6.02715
-3.43919
1.87704
3.82233
-2.75334
-7.94436
7.43324
5.55028
6.49069
5.16655
4.5962
4.13806
6.84434
6.89623
7.42596
-1.2374
4.52496
3.08962
4.62298
-0.410395
-6.5058
-3.14213
-7.33676
-3.20862
-6.43155
14.7644
3.17726
1.41822
-4.11133
-4.20847
7.59303
-4.35159
-4.2378
-7.1544
-2.19607
-4.2272
-7.39405
-8.26176
-4.04274
-0.571513
2.85001
-6.29655
-5.51637
-4.7201
0.210445
0.528328
-0.621665
-0.875119
-2.54397
0.311844
3.81245
-1.89974
0.931291
1.9
1.35961
2.68904
2.6977
2.50507
6.04978
5.20041
6.01832
5.67362
4.8655
6.51398
-1.63154
-0.697714
1.64705
-2.41194
-0.0476913
4.44642
-5.31766
-6.10398
-4.28892
-5.42354
-3.23135
-7.48722
-6.94715
-6.73083
-4.29122
-5.52464
-6.22343
-6.61946
-2.84527
-5.03133
-5.19475
-4.20001
3.55673
2.70416
4.09429
1.35625
1.96918
3.83515
3.45261
-8.36453
-7.92073
-7.01447
-5.13139
-3.90131
-5.90322
-10.1223
-6.56192
-5.42967
-11.2379
-1.42132
-11.5586
-7.86807
-2.235
-12.6802
-12.0028
-15.5943
-2.38257
-3.12772
-5.22698
-3.28786
-2.36536
-8.33744
-30.2549
-1.99674
-4.75884
15.622
18.8828
14.5924
2.99033
3.65976
5.25028
2.6322
2.71304
2.14256
8.20267
28.5444
6.14976
0.510945
0.0823704
0.169083
0.0507132
-0.0650973
-0.0241579
0.223284
0.882142
0.716456
0.410323
0.108897
0.0426512
0.0963038
-0.0132367
-0.069628
0.757565
0.150555
0.016814
0.0747555
0.0131323
-0.0703145
-0.0386011
0.0971274
0.289798
0.104441
-0.143744
-0.107142
-0.0104836
-0.14577
0.290501
0.273094
-0.130727
-0.9786
-0.416228
-0.327655
-0.497034
0.220718
0.178369
-0.257463
-1.38377
-1.60038
-1.83486
-1.10692
-0.615878
-1.32483
0.102838
0.0462624
-2.19866
2.03098
0.588549
1.27032
0.475441
-0.289845
-0.341953
1.54674
2.6383
1.85718
1.03897
0.371383
0.418755
0.298313
-0.33856
-0.205501
1.61578
0.199446
0.0259141
0.115632
0.0152132
-0.132112
0.00432165
0.155856
0.284253
0.0855839
-0.302138
-0.0579313
-0.0179176
-0.0989965
0.25058
0.249319
0.00807833
-0.357384
-0.474677
-0.536886
-0.156497
-0.134764
-0.199405
0.244414
0.223966
-0.107062
-0.78925
-0.859608
0.24561
-0.124257
-0.151147
-0.197686
-0.957713
0.172304
8.8152
4.53369
5.42652
-2.96333
-3.79857
-3.25344
-4.30154
-2.69538
-7.05643
-8.08834
-8.7965
3.62147
3.66893
4.6234
5.9173
3.40047
-0.104133
-4.60177
-0.28739
3.13038
1.2335
1.02186
0.710159
1.14865
0.591621
0.368994
0.647156
0.979988
0.541794
-0.87922
-0.553788
-0.606821
-0.277736
-1.37757
0.638117
0.628527
0.952494
1.51946
0.427947
-0.7146
-0.437431
-0.639514
-0.691754
-0.987904
-0.833865
-0.553841
-0.857089
-1.0923
-1.25093
6.81426
6.41614
-1.56589
-2.68652
-2.34514
-3.32387
-1.73962
-0.325441
-0.260794
-7.49168
-6.58909
1.34206
1.52109
1.61914
1.73597
1.26416
0.940601
1.15963
0.603946
1.26607
1.61315
1.41996
-0.532474
-1.12623
-0.365224
0.168059
0.480369
0.191475
0.393294
0.759786
-0.0286396
1.56219
-0.240346
-0.625667
-0.805161
-0.593455
-0.489399
-0.693067
-0.444329
-0.154651
-0.260282
-1.02001
-1.13833
-1.34263
-1.35211
-1.5
-1.83269
-1.53933
0.101304
0.643426
1.69952
1.51998
1.7681
1.92076
1.90476
0.751888
0.672894
1.20575
1.64409
1.17279
-0.952893
-0.455062
-0.706552
-1.15477
-1.33389
1.57719
2.64988
3.19012
2.66963
-3.14922
-1.9214
-2.44146
-1.84683
-1.0452
-1.30543
-3.49573
2.08589
2.13932
2.29685
2.55885
2.2633
1.82771
1.85196
2.04122
2.71287
-1.99651
-1.63282
-1.62625
-1.70742
-1.55293
-2.38819
-2.39709
-1.6358
-1.96169
-2.17601
-1.96096
-2.24589
-2.7306
2.35799
2.54745
-1.12505
-1.12651
-0.912068
-1.25058
-1.40112
-1.75293
-1.47906
-1.63494
-0.222398
-0.061108
-0.120869
-0.0219299
-0.318967
-0.00906893
-0.0170159
-0.184065
0.137887
0.0646974
1.85763
3.0415
3.38586
2.01599
0.0510718
-0.230216
1.141
0.209319
0
0
0
0
0
0
0
0
0
0
0
0
0
0
0
0
0
0
0
0
0
0
0
0
0
0
0
0
0
0
0
0
0
0
0
0
0
0
0
0
0
0
0
0
0
0
0
0
0
0
0
0
0
0
0
0
0
0
0
0
0
0
0
0
0
0
0
0
0
0
0
0
0
0
0
0
0
0
0
0
0
0
0
0
0
0
0
0
0
0
0
0
0
0
0
0
0
0
0
0
0
0
0
0
0
0
0
0
0
0
0
0
0
0
0
0
0
0
0
0
0
0
0
0
0
0
0
0
0
0
0
0
0
0
0
0
0
0
0
0
0
0
0
0
0
0
0
0
0
0
0
0
0
0
0
0
0
0
0
0
0
0
0
0
0
0
0
0
0
0
0
0
0
0
0
0
0
0
0
0
0
0
0
0
0
0
0
0
0
0
0
0
0
0
0
0
0
0
0
0
0
0
0
0
0
0
0
0
0
0
0
0
0
0
0
0
0
0
0
0
0
0
0
0
0
0
0
0
0
0
0
0
0
0
0
0
0
0
0
0
0
0
0
0
0
0
0
0
0
0
0
0
0
0
0
0
0
0
0
0
0
0
0
0
0
0
0
0
0
0
0
0
0
0
0
0
0
0
0
0
0
0
0
0
0
0
0
0
0
0
0
0
0
0
0
0
0
0
0
0
0
0
0
0
0
0
0
0
0
0
0
0
0
0
0
0
0
0
0
0
0
0
0
0
0
0
0
0
0
0
0
0
0
0
0
0
0
0
0
0
0
0
0
0
0
0
0
0
0
0
0
0
0
0
0
0
0
0
0
0
0
0
0
0
0
0
0
0
0
0
0
0
0
0
0
0
0
0
0
0
0
0
0
0
0
0
0
0
0
0
0
0
0
0
0
0
0
0
0
0
0
0
0
0
0
0
0
0
0
0
0
0
0
0
0
0
0
0
0
0
0
0
0
0
0
0
0
0
0
0
0
0
0
0
0
0
0
0
0
0
0
0
0
0
0
0
0
0
0
0
0
0
0
0
0
0
0
0
0
0
0
0
0
0
0
0
0
0
0
0
0
0
0
0
0
0
0
0
0
0
0
0
0
0
0
0
0
0
0
0
0
0
0
0
0
0
0
0
0
0
0
0
0
0
0
0
0
0
0
0
0
0
0
0
0
0
0
0
0
0
0
0
0
0
0
0
0
0
0
0
0
0
0
0
0
0
0
0
0
0
0
0
0
0
0
0
0
0
0
0
0
0
0
0
0
0
0
0
0
0
0
0
0
0
0
0
0
0
0
0
0
0
0
0
0
0
0
0
0
0
0
0
0
0
0
0
0
0
0
0
0
0
0
0
0
0
0
0
0
0
0
0
0
0
0
0
0
0
0
0
0
0
0
0
0
0
0
0
0
0
0
0
0
0
0
0
0
0
0
0
0
0
0
0
0
0
0
0
0
0
0
0
0
0
0
0
0
0
0
0
0
0
0
0
0
0
0
0
0
0
0
0
0
0
0
0
0
0
0
0
0
0
0
0
0
0
0
0
0
0
0
0
0
0
0
0
0
0
0
0
0
0
0
0
0
0
0
0
0
0
0
0
0
0
0
0
0
0
0
0
0
0
0
0
0
0
0
0
0
0
0
0
0
0
0
0
0
0
0
0
0
0
0
0
0
0
0
0
0
0
0
0
0
0
0
0
0
0
0
0
0
0
0
0
0
0
0
0
0
0
0
0
0
0
0
0
0
0
0
0
0
0
0
0
0
0
0
0
0
0
0
0
0
0
0
0
0
0
0
0
0
0
0
0
0
0
0
0
0
0
0
0
0
0
0
0
0
0
0
0
0
0
0
0
0
0
0
0
0
0
0
0
0
0
0
0
0
0
0
0
0
0
0
0
0
0
0
0
0
0
0
0
0
0
0
0
0
0
0
0
0
0
0
0
0
0
0
0
0
0
0
0
0
0
0
0
0
0
0
0
0
0
0
0
0
0
0
0
0
0
0
0
0
0
0
0
0
0
0
0
0
0
0
0
0
0
0
0
0
0
0
0
0
0
0
0
0
0
0
0
0
0
0
0
0
0
0
0
0
0
0
0
0
0
0
0
0
0
0
0
0
0
0
0
0
0
0
0
0
0
0
0
0
0
0
0
0
0
0
0
0
0
0
0
0
0
0
0
0
0
0
0
0
0
0
0
0
0
0
0
0
0
0
0
0
0
0
0
0
0
0
0
0
0
0
0
0
0
0
0
0
0
0
0
0
0
0
0
0
0
0
0
0
0
0
0
0
0
0
0
0
0
0
0
0
0
0
0
0
0
0
0
0
0
0
0
0
0
0
0
0
0
0
0
0
0
0
0
0
0
0
0
0
0
0
0
0
0
0
0
0
0
0
0
0
0
0
0
0
0
0
0
0
0
0
0
0
0
0
0
0
0
0
0
0
0
0
0
0
0
0
0
0
0
0
0
0
0
0
0
0
0
0
0
0
0
0
0
0
0
0
0
0
0
0
0
0
0
0
0
0
0
0
0
0
0
0
0
0
0
0
0
0
0
0
0
0
0
0
0
0
0
0
0
0
0
0
0
0
0
0
0
0
0
0
0
0
0
0
0
0
0
0
0
0
0
0
0
0
0
0
0
0
0
0
0
0
0
0
0
0
0
0
0
0
0
0
0
0
0
0
0
0
0
0
0
0
0
0
0
0
0
0
0
0
0
0
0
0
0
0
0
0
0
0
0
0
0
0
0
0
0
0
0
0
0
0
0
0
0
0
0
0
0
0
0
0
0
0
0
0
0
0
0
0
0
0
0
0
0
0
0
0
0
0
0
0
0
0
0
0
0
0
0
0
0
0
0
0
0
0
0
0
0
0
0
0
0
0
0
0
0
0
0
0
0
0
0
0
0
0
0
0
0
0
0
0
0
0
0
0
0
0
0
0
0
0
0
0
0
0
0
0
0
0
0
0
0
0
0
0
0
0
0
0
0
0
0
0
0
0
0
0
0
0
0
0
0
0
0
0
0
0
0
0
0
0
0
0
0
0
0
0
0
0
0
0
0
0
0
0
0
0
0
0
0
0
0
0
0
0
0
0
0
0
0
0
0
0
0
0
0
0
0
0
0
0
0
0
0
0
0
0
0
0
0
0
0
0
0
0
0
0
0
0
0
0
0
0
0
0
0
0
0
0
0
0
0
0
0
0
0
0
0
0
0
0
0
0
0
0
0
0
0
0
0
0
0
0
0
0
0
0
0
0
0
0
0
0
0
0
0
0
0
0
0
0
0
0
0
0
0
0
0
0
0
0
0
0
0
0
0
0
0
0
0
0
0
0
0
0
0
0
0
0
0
0
0
0
0
0
0
0
0
0
0
0
0
0
0
0
0
0
0
0
0
0
0
0
0
0
0
0
0
0
0
0
0
0
0
0
0
0
0
0
0
0
0
0
0
0
0
0
0
0
0
0
0
0
0
0
0
0
0
0
0
0
0
0
0
0
0
0
0
0
0
0
0
0
0
0
0
0
0
0
0
0
0
0
0
0
0
0
0
0
0
0
0
0
0
0
0
0
0
0
0
0
0
0
0
0
0
0
0
0
0
0
0
0
0
0
0
0
0
0
0
0
0
0
0
0
0
0
0
0
0
0
0
0
0
0
0
0
0
0
0
0
0
0
0
0
0
0
0
0
0
0
0
0
0
0
0
0
0
0
0
0
0
0
0
0
0
0
0
0
0
0
0
0
0
0
0
0
0
0
0
0
0
0
0
0
0
0
0
0
0
0
0
0
0
0
0
0
0
0
0
0
0
0
0
0
0
0
0
0
0
0
0
0
0
0
0
0
0
0
0
0
0
0
0
0
0
0
0
0
0
0
0
0
0
0
0
0
0
0
0
0
0
0
0
0
0
0
0
0
0
0
0
0
0
0
0
0
0
0
0
0
0
0
0
0
0
0
0
0
0
0
0
0
0
0
0
0
0
0
0
0
0
0
0
0
0
0
0
0
0
0
0
0
0
0
0
0
0
0
0
0
0
0
0
0
0
0
0
0
0
0
0
0
0
0
0
0
0
0
0
0
0
0
0
0
0
0
0
0
0
0
0
0
0
0
0
0
0
0
0
0
0
0
0
0
0
0
0
0
0
0
0
0
0
0
0
0
0
0
0
0
0
0
0
0
0
0
0
0
0
0
0
0
0
0
0
0
0
0
0
0
0
0
0
0
0
0
0
0
0
0
0
0
0
0
0
0
0
0
0
0
0
0
0
0
0
0
0
0
0
0
0
0
0
0
0
0
0
0
0
0
0
0
0
0
0
0
0
0
0
0
0
0
0
0
0
0
0
0
0
0
0
0
0
0
0
0
0
0
0
0
0
0
0
0
0
0
0
0
0
0
0
0
0
0
0
0
0
0
0
0
0
0
0
0
0
0
0
0
0
0
0
0
0
0
0
0
0
0
0
0
0
0
0
0
0
0
0
0
0
0
0
0
0
0
0
0
0
0
0
0
0
0
0
0
0
0
0
0
0
0
0
0
0
0
0
0
0
0
0
0
0
0
0
0
0
0
0
0
0
0
0
0
0
0
0
0
0
0
0
0
0
0
0
0
0
0
0
0
0
0
0
0
0
0
0
0
0
0
0
0
0
0
0
0
0
0
0
0
0
0
0
0
0
0
0
0
0
0
0
0
0
0
0
0
0
0
0
0
0
0
0
0
0
0
0
0
0
0
0
0
0
0
0
0
0
0
0
0
0
0
0
0
0
0
0
0
0
0
0
0
0
0
0
0
0
0
0
0
0
0
0
0
0
0
0
0
0
0
0
0
0
0
0
0
0
0
0
0
0
0
0
0
0
0
0
0
0
0
0
0
0
0
0
0
0
0
0
0
0
0
0
0
0
0
0
0
0
0
0
0
0
0
0
0
0
0
0
0
0
0
0
0
0
0
0
0
0
0
0
0
0
0
0
0
0
0
0
0
0
0
0
0
0
0
0
0
0
0
0
0
0
0
0
0
0
0
0
0
0
0
0
0
0
0
0
0
0
0
0
0
0
0
0
0
0
0
0
0
0
0
0
0
0
0
0
0
0
0
0
0
0
0
0
0
0
0
0
0
0
0
0
0
0
0
0
0
0
0
0
0
0
0
0
0
0
0
0
0
0
0
0
0
0
0
0
0
0
0
0
0
0
      </DataArray> 
      <DataArray type="Float64" NumberOfComponents="1" Name="NormalFibers" format="ascii">
0
0
0
0
0
0
0
0
0
0
0
0
0
0
0
0
0
0
0
0
0
0
0
0
0
0
0
0
0
0
0
0
0
0
0
0
0
0
0
0
0
0
0
0
0
0
0
0
0
0
0
0
0
0
0
0
0
0
0
0
0
0
0
0
0
0
0
0
0
0
0
0
0
0
0
0
0
0
0
0
0
0
0
0
0
0
0
0
0
0
0
0
0
0
0
0
0
0
0
0
0
0
0
0
0
0
0
0
0
0
0
0
0
0
0
0
0
0
0
0
0
0
0
0
0
0
0
0
0
0
0
0
0
0
0
0
0
0
0
0
0
0
0
0
0
0
0
0
0
0
0
0
0
0
0
0
0
0
0
0
0
0
0
0
0
0
0
0
0
0
0
0
0
0
0
0
0
0
0
0
0
0
0
0
0
0
0
0
0
0
0
0
0
0
0
0
0
0
0
0
0
0
0
0
0
0
0
0
0
0
0
0
0
0
0
0
0
0
0
0
0
0
0
0
0
0
0
0
0
0
0
0
0
0
0
0
0
0
0
0
0
0
0
0
0
0
0
0
0
0
0
0
0
0
0
0
0
0
0
0
0
0
0
0
0
0
0
0
0
0
0
0
0
0
0
0
0
0
0
0
0
0
0
0
0
0
0
0
0
0
0
0
0
0
0
0
0
0
0
0
0
0
0
0
0
0
0
0
0
0
0
0
0
0
0
0
0
0
0
0
0
0
0
0
0
0
0
0
0
0
0
0
0
0
0
0
0
0
0
0
0
0
0
0
0
0
0
0
0
0
0
0
0
0
0
0
0
0
0
0
0
0
0
0
0
0
0
0
0
0
0
0
0
0
0
0
0
0
0
0
0
0
0
0
0
0
0
0
0
0
0
0
0
0
0
0
0
0
0
0
0
0
0
0
0
0
0
0
0
0
0
0
0
0
0
0
0
0
0
0
0
0
0
0
0
0
0
0
0
0
0
0
0
0
0
0
0
0
0
0
0
0
0
0
0
0
0
0
0
0
0
0
0
0
0
0
0
0
0
0
0
0
0
0
0
0
0
0
0
0
0
0
0
0
0
0
0
0
0
0
0
0
0
0
0
0
0
0
0
0
0
0
0
0
0
0
0
0
0
0
0
0
0
0
0
0
0
0
0
0
0
0
0
0
0
0
0
0
0
0
0
0
0
0
0
0
0
0
0
0
0
0
0
0
0
0
0
0
0
0
0
0
0
0
0
0
0
0
0
0
0
0
0
0
0
0
0
0
0
0
0
0
0
0
0
0
0
0
0
0
0
0
0
0
0
0
0
0
0
0
0
0
0
0
0
0
0
0
0
0
0
0
0
0
0
0
0
0
0
0
0
0
0
0
0
0
0
0
0
0
0
0
0
0
0
0
0
0
0
0
0
0
0
0
0
0
0
0
0
0
0
0
0
0
0
0
0
0
0
0
0
0
0
0
0
0
0
0
0
0
0
0
0
0
0
0
0
0
0
0
0
0
0
0
0
0
0
0
0
0
0
0
0
0
0
0
0
0
0
0
0
0
0
0
0
0
0
0
0
0
0
0
0
0
0
0
0
0
0
0
0
0
0
0
0
0
0
0
0
0
0
0
0
0
0
0
0
0
0
0
0
0
0
0
0
0
0
0
0
0
0
0
0
0
0
0
0
0
0
0
0
0
0
0
0
0
0
0
0
0
0
0
0
0
0
0
0
0
0
0
0
0
0
0
0
0
0
0
0
0
0
0
0
0
0
0
0
0
0
0
0
0
0
0
0
0
0
0
0
0
0
0
0
0
0
0
0
0
0
0
0
0
0
0
0
0
0
0
0
0
0
0
0
0
0
0
0
0
0
0
0
0
0
0
0
0
0
0
0
0
0
0
0
0
0
0
0
0
0
0
0
0
0
0
0
0
0
0
0
0
0
0
0
0
0
0
0
0
0
0
0
0
0
0
0
0
0
0
0
0
0
0
0
0
0
0
0
0
0
0
0
0
0
0
0
0
0
0
0
0
0
0
0
0
0
0
0
0
0
0
0
0
0
0
0
0
0
0
0
0
0
0
0
0
0
0
0
0
0
0
0
0
0
0
0
0
0
0
0
0
0
0
0
0
0
0
0
0
0
0
0
0
0
0
0
0
0
0
0
0
0
0
0
0
0
0
0
0
0
0
0
0
0
0
0
0
0
0
0
0
0
0
0
0
0
0
0
0
0
0
0
0
0
0
0
0
0
0
0
0
0
0
0
0
0
0
0
0
0
0
0
0
0
0
0
0
0
0
0
0
0
0
0
0
0
0
0
0
0
0
0
0
0
0
0
0
0
0
0
0
0
0
0
0
0
0
0
0
0
0
0
0
0
0
0
0
0
0
0
0
0
0
0
0
0
0
0
0
0
0
0
0
0
0
0
0
0
0
0
0
0
0
0
0
0
0
0
0
0
0
0
0
0
0
0
0
0
0
0
0
0
0
0
0
0
0
0
0
0
0
0
0
0
0
0
0
0
0
0
0
0
0
0
0
0
0
0
0
0
0
0
0
0
0
0
0
0
0
0
0
0
0
0
0
0
0
0
0
0
0
0
0
0
0
0
0
0
0
0
0
0
0
0
0
0
0
0
0
0
0
0
0
0
0
0
0
0
0
0
0
0
0
0
0
0
0
0
0
0
0
0
0
0
0
0
0
0
0
0
0
0
0
0
0
0
0
0
0
0
0.00310578
0.00310578
0.0159461
0.0159461
-0.051803
-0.051803
-0.0261324
-0.0261324
-0.00157976
-0.00157976
-0.024877
-0.024877
0.00151248
0.00151248
0.0115325
0.0115325
-0.0638936
-0.0638936
-0.00817384
-0.00817384
-0.021544
-0.021544
-0.0320475
-0.0320475
-0.0547517
-0.0547517
0.0140439
0.0140439
-0.0260101
-0.0260101
0.0365146
0.0365146
-0.022051
-0.022051
-0.00189709
-0.00189709
0.02129
0.02129
-0.0135874
-0.0135874
-0.00769262
-0.00769262
-0.0328127
-0.0328127
-0.125187
-0.125187
-0.0125352
-0.0125352
-0.0161056
-0.0161056
-0.0112241
-0.0112241
-0.00787438
-0.00787438
-0.00163046
-0.00163046
-0.0628425
-0.0628425
0.00538072
0.00538072
0.00521847
0.00521847
0.00623405
0.00623405
-0.0846573
-0.0846573
-0.0137929
-0.0137929
-0.094539
-0.094539
-0.00517244
-0.00517244
-0.0203895
-0.0203895
-0.00711945
-0.00711945
0.00437841
0.00437841
-0.0244931
-0.0244931
-0.0184669
-0.0184669
0.0305488
0.0305488
-0.0288221
-0.0288221
-0.0260138
-0.0260138
-0.0905529
-0.0905529
-0.0249602
-0.0249602
-0.0146417
-0.0146417
-0.015681
-0.015681
-0.0104563
-0.0104563
-0.00965269
-0.00965269
0.0446781
0.0446781
-0.0145135
-0.0145135
0.00856443
0.00856443
-0.074436
-0.074436
-0.00281011
-0.00281011
-0.00761762
-0.00761762
-0.0374344
-0.0374344
-0.0471013
-0.0471013
-0.00306143
-0.00306143
-0.00969482
-0.00969482
-0.036578
-0.036578
0.0264302
0.0264302
0.000167387
0.000167387
-0.0359112
-0.0359112
-0.0263932
-0.0263932
-0.0263417
-0.0263417
-0.0269183
-0.0269183
0.0251993
0.0251993
0.0350041
0.0350041
-0.0584294
-0.0584294
-0.0402542
-0.0402542
-0.012905
-0.012905
-0.0966675
-0.0966675
0.0234864
0.0234864
-0.0484632
-0.0484632
-0.000234562
-0.000234562
-0.0145384
-0.0145384
-0.00181548
-0.00181548
-0.0374388
-0.0374388
-0.0277241
-0.0277241
-0.0629397
-0.0629397
0.0060122
0.0060122
-0.0338029
-0.0338029
-0.0885862
-0.0885862
-0.0556333
-0.0556333
-0.044794
-0.044794
-0.0124685
-0.0124685
-0.00368758
-0.00368758
0.0130628
0.0130628
-0.00277665
-0.00277665
-0.0127255
-0.0127255
-0.000585496
-0.000585496
0.0227587
0.0227587
-0.0475519
-0.0475519
-0.0744332
-0.0744332
-0.00533096
-0.00533096
0.00337695
0.00337695
-0.0189392
-0.0189392
-0.116571
-0.116571
-0.0248857
-0.0248857
-0.00068169
-0.00068169
-0.0320203
-0.0320203
-0.0132622
-0.0132622
-0.0254107
-0.0254107
-0.00477808
-0.00477808
0.00442692
0.00442692
-0.087473
-0.087473
-0.0217391
-0.0217391
-0.0150396
-0.0150396
-0.0171628
-0.0171628
-0.0549078
-0.0549078
0.0428474
0.0428474
0.0279032
0.0279032
0.00649491
0.00649491
0.021593
0.021593
-0.00534528
-0.00534528
-0.00253679
-0.00253679
-0.0380317
-0.0380317
-0.0603728
-0.0603728
0.00630447
0.00630447
-0.00268776
-0.00268776
-0.0117313
-0.0117313
0.00654277
0.00654277
-0.0192195
-0.0192195
-0.0309899
-0.0309899
-0.0703412
-0.0703412
-0.0025021
-0.0025021
-0.00311559
-0.00311559
0.00189565
0.00189565
-0.0904551
-0.0904551
-0.0466712
-0.0466712
0.0153841
0.0153841
0.0024159
0.0024159
-0.0119952
-0.0119952
0.0257607
0.0257607
-0.0161935
-0.0161935
-0.00274981
-0.00274981
-0.0345932
-0.0345932
-0.0399467
-0.0399467
-0.0136698
-0.0136698
-0.00463598
-0.00463598
-0.0192887
-0.0192887
-0.00308564
-0.00308564
-0.00981
-0.00981
-0.0072002
-0.0072002
-0.00392718
-0.00392718
-0.0127121
-0.0127121
0.00752806
0.00752806
-0.0116324
-0.0116324
-0.0392088
-0.0392088
-0.00749061
-0.00749061
-0.00440925
-0.00440925
0.010355
0.010355
-0.0746869
-0.0746869
-0.0646648
-0.0646648
-0.176587
-0.176587
-0.0874802
-0.0874802
-0.0668863
-0.0668863
0.00116323
0.00116323
-0.0118427
-0.0118427
-0.0341843
-0.0341843
0.0238359
0.0238359
-0.0161007
-0.0161007
0.0168555
0.0168555
-0.00326446
-0.00326446
-0.0218523
-0.0218523
-0.0364555
-0.0364555
0.0126936
0.0126936
-0.0299702
-0.0299702
-0.017861
-0.017861
-0.0131494
-0.0131494
-0.0426716
-0.0426716
-0.0408788
-0.0408788
-0.00549967
-0.00549967
0.0027158
0.0027158
-0.0252187
-0.0252187
-0.00710693
-0.00710693
-0.0343454
-0.0343454
-0.0304383
-0.0304383
-0.0417435
-0.0417435
-0.00550609
-0.00550609
-0.0078626
-0.0078626
-0.000758937
-0.000758937
-0.0793416
-0.0793416
-0.0450475
-0.0450475
-0.0904084
-0.0904084
-0.00399348
-0.00399348
-0.00482438
-0.00482438
0.0161976
0.0161976
0.00781363
0.00781363
0.0181455
0.0181455
0.0317288
0.0317288
-0.0281975
-0.0281975
-0.030493
-0.030493
0.00159843
0.00159843
-0.00982479
-0.00982479
-0.000593976
-0.000593976
-0.00766887
-0.00766887
-0.0199387
-0.0199387
0.00919854
0.00919854
-0.0117574
-0.0117574
-0.0604451
-0.0604451
-0.00491778
-0.00491778
0.0204396
0.0204396
-0.00919702
-0.00919702
-0.120365
-0.120365
0.0203047
0.0203047
0.00523404
0.00523404
-0.00891939
-0.00891939
-0.0454151
-0.0454151
-0.00235144
-0.00235144
-0.00852245
-0.00852245
-0.05096
-0.05096
-0.0236712
-0.0236712
0.0203275
0.0203275
-0.0112289
-0.0112289
-0.0230607
-0.0230607
-0.0581935
-0.0581935
0.0339336
0.0339336
0.0335187
0.0335187
-0.00170503
-0.00170503
-0.0706745
-0.0706745
0.00794417
0.00794417
-0.0179475
-0.0179475
-0.0273609
-0.0273609
-0.00498563
-0.00498563
0.000150323
0.000150323
-0.00789819
-0.00789819
-0.0557475
-0.0557475
-0.0173158
-0.0173158
-0.00547856
-0.00547856
-0.00430065
-0.00430065
-0.0177717
-0.0177717
-0.0718506
-0.0718506
0.00194876
0.00194876
-0.015253
-0.015253
-0.0215998
-0.0215998
-0.0909838
-0.0909838
-0.0643714
-0.0643714
-0.0556255
-0.0556255
-0.0164718
-0.0164718
-0.00380078
-0.00380078
-0.00338496
-0.00338496
0.0364759
0.0364759
-0.00159759
-0.00159759
-0.00710587
-0.00710587
-0.00429796
-0.00429796
0.0331454
0.0331454
-0.0643077
-0.0643077
-0.0289487
-0.0289487
-0.0046379
-0.0046379
-0.0865643
-0.0865643
-0.0880263
-0.0880263
-0.00344005
-0.00344005
-0.0978492
-0.0978492
-0.000957407
-0.000957407
-0.0570134
-0.0570134
0.0174794
0.0174794
-0.00834283
-0.00834283
-0.000295051
-0.000295051
-0.0142797
-0.0142797
-0.131968
-0.131968
-0.0165148
-0.0165148
-0.00769931
-0.00769931
-0.0173402
-0.0173402
-0.0592391
-0.0592391
-0.0277978
-0.0277978
-0.0271319
-0.0271319
0.0399697
0.0399697
-0.00530517
-0.00530517
-0.0667755
-0.0667755
-0.00806017
-0.00806017
-0.00341153
-0.00341153
-0.0870786
-0.0870786
-0.0119275
-0.0119275
-0.0704131
-0.0704131
-0.0088052
-0.0088052
-0.00160549
-0.00160549
-0.033735
-0.033735
0.0130633
0.0130633
0.000784871
0.000784871
-0.0209764
-0.0209764
-0.0263139
-0.0263139
-0.018646
-0.018646
-0.0338152
-0.0338152
-0.0802074
-0.0802074
0.0258244
0.0258244
-0.0706984
-0.0706984
0.00376208
0.00376208
-0.083076
-0.083076
-0.024762
-0.024762
-0.0330682
-0.0330682
-0.00466091
-0.00466091
0.0146499
0.0146499
-0.0952212
-0.0952212
0.0190385
0.0190385
0.00693181
0.00693181
0.0371516
0.0371516
-0.0801886
-0.0801886
-0.024193
-0.024193
-0.00146936
-0.00146936
-0.0428303
-0.0428303
-0.0595863
-0.0595863
-0.0166294
-0.0166294
-0.0732495
-0.0732495
-0.0288392
-0.0288392
-0.00855778
-0.00855778
-0.0133976
-0.0133976
0.0150127
0.0150127
-0.0655386
-0.0655386
0.0255641
0.0255641
-0.0209005
-0.0209005
0.00027643
0.00027643
-0.0260944
-0.0260944
0.00403445
0.00403445
0.0139519
0.0139519
-0.0238702
-0.0238702
-0.0403531
-0.0403531
-0.0608489
-0.0608489
0.00346538
0.00346538
-0.0889882
-0.0889882
0.0170324
0.0170324
-0.0114972
-0.0114972
-0.0356784
-0.0356784
-0.0567467
-0.0567467
-0.0773743
-0.0773743
-0.0724554
-0.0724554
-0.00955872
-0.00955872
-0.0346284
-0.0346284
-0.000516581
-0.000516581
-0.00544467
-0.00544467
-0.0975384
-0.0975384
-0.0104514
-0.0104514
0.0310692
0.0310692
0.0149042
0.0149042
-0.011486
-0.011486
-0.000650361
-0.000650361
0.000464709
0.000464709
-0.00037604
-0.00037604
-0.0282517
-0.0282517
-0.0267884
-0.0267884
0.00690292
0.00690292
-0.00433309
-0.00433309
-0.0406537
-0.0406537
0.00882276
0.00882276
-0.0213815
-0.0213815
-0.0144273
-0.0144273
-0.0162716
-0.0162716
-0.00734528
-0.00734528
-0.00730315
-0.00730315
-0.0503796
-0.0503796
-0.00531677
-0.00531677
0.00337663
0.00337663
-0.00282749
-0.00282749
0.033278
0.033278
-0.040487
-0.040487
-0.0328878
-0.0328878
-0.0291857
-0.0291857
-0.0338108
-0.0338108
-0.0121008
-0.0121008
-0.0508273
-0.0508273
-0.0550094
-0.0550094
-0.0254714
-0.0254714
-0.10549
-0.10549
0.0164397
0.0164397
-0.00782308
-0.00782308
-0.00487665
-0.00487665
0.0339737
0.0339737
0.0164277
0.0164277
-0.00501084
-0.00501084
-8.24955e-05
-8.24955e-05
-0.00920643
-0.00920643
-0.0106507
-0.0106507
-0.0403773
-0.0403773
-0.027272
-0.027272
-0.026817
-0.026817
-0.0239648
-0.0239648
-0.0358456
-0.0358456
-0.00868121
-0.00868121
0.00894804
0.00894804
0.024816
0.024816
-0.0169633
-0.0169633
-0.0258878
-0.0258878
-0.010674
-0.010674
-0.151527
-0.151527
0.0041933
0.0041933
0.0165272
0.0165272
-0.0808016
-0.0808016
0.019665
0.019665
-0.0128058
-0.0128058
0.0104958
0.0104958
-0.139497
-0.139497
-0.0170145
-0.0170145
0.0155952
0.0155952
-0.0990879
-0.0990879
-0.046939
-0.046939
-0.0256637
-0.0256637
-0.0999342
-0.0999342
-0.00983264
-0.00983264
-0.00945927
-0.00945927
-0.0330303
-0.0330303
-0.138137
-0.138137
-0.0343452
-0.0343452
-0.00365241
-0.00365241
-0.0108119
-0.0108119
0.00252603
0.00252603
-0.0694185
-0.0694185
-0.036638
-0.036638
0.00577645
0.00577645
-0.0317128
-0.0317128
-0.0124684
-0.0124684
-0.0112591
-0.0112591
-0.0520519
-0.0520519
-0.056833
-0.056833
-0.0812656
-0.0812656
-0.00111207
-0.00111207
-0.0188041
-0.0188041
-0.0309797
-0.0309797
-0.0173345
-0.0173345
-0.0200401
-0.0200401
0.00194085
0.00194085
-0.0274399
-0.0274399
0.010922
0.010922
-0.0199845
-0.0199845
-0.0156813
-0.0156813
-0.00632894
-0.00632894
0.0191365
0.0191365
-0.0441976
-0.0441976
-0.0567682
-0.0567682
-0.00589835
-0.00589835
-0.0644305
-0.0644305
-0.015044
-0.015044
-0.099772
-0.099772
-0.166083
-0.166083
0.00976194
0.00976194
0.0185765
0.0185765
0.00991391
0.00991391
-0.0397252
-0.0397252
0.000298014
0.000298014
-0.00187691
-0.00187691
-0.0684603
-0.0684603
-0.00472633
-0.00472633
-0.00522139
-0.00522139
0.00288057
0.00288057
-0.00343964
-0.00343964
-0.0404518
-0.0404518
-0.110202
-0.110202
-0.00235645
-0.00235645
-0.000158952
-0.000158952
-0.0110572
-0.0110572
-0.0122163
-0.0122163
-0.0828631
-0.0828631
-0.0041923
-0.0041923
-0.0632526
-0.0632526
0.00304156
0.00304156
-0.0298252
-0.0298252
-0.0197314
-0.0197314
0.0115055
0.0115055
-0.0169473
-0.0169473
0.00664057
0.00664057
0.00584367
0.00584367
-0.0157209
-0.0157209
-0.00281989
-0.00281989
-0.0215897
-0.0215897
-0.0229525
-0.0229525
-0.00764142
-0.00764142
0.0187486
0.0187486
-0.0176106
-0.0176106
-0.0276014
-0.0276014
0.0185959
0.0185959
-0.00413415
-0.00413415
-0.0495552
-0.0495552
-0.00225065
-0.00225065
-0.0319464
-0.0319464
-0.0947975
-0.0947975
-0.0125602
-0.0125602
-0.0235663
-0.0235663
-0.0417655
-0.0417655
0.0275577
0.0275577
0.0101943
0.0101943
-0.0230365
-0.0230365
0.00709504
0.00709504
-0.00308006
-0.00308006
-0.0254486
-0.0254486
-0.0216561
-0.0216561
-0.0202418
-0.0202418
-0.00514587
-0.00514587
7.00575e-05
7.00575e-05
-0.0187235
-0.0187235
-0.0194433
-0.0194433
-0.00703675
-0.00703675
-0.0133537
-0.0133537
-0.137159
-0.137159
-0.00488989
-0.00488989
-0.0163662
-0.0163662
-0.021092
-0.021092
-0.00919522
-0.00919522
0.0101627
0.0101627
-0.0122679
-0.0122679
-0.0194486
-0.0194486
0.00942791
0.00942791
0.00307402
0.00307402
-0.0325255
-0.0325255
-0.0245347
-0.0245347
-0.0619974
-0.0619974
-0.0103265
-0.0103265
0.00243038
0.00243038
-0.00803463
-0.00803463
-0.00620745
-0.00620745
-0.0377415
-0.0377415
-0.00456745
-0.00456745
-0.0129731
-0.0129731
-0.0119089
-0.0119089
-0.0705921
-0.0705921
-0.0073518
-0.0073518
-0.00851293
-0.00851293
-0.0188406
-0.0188406
-0.0586859
-0.0586859
-0.00199649
-0.00199649
-0.0662794
-0.0662794
-0.00208446
-0.00208446
-0.0851793
-0.0851793
-0.0708807
-0.0708807
-0.000600079
-0.000600079
0.0173569
0.0173569
0.00565126
0.00565126
-0.0520914
-0.0520914
-0.00156967
-0.00156967
-0.0150095
-0.0150095
-0.0805472
-0.0805472
0.0216641
0.0216641
-0.0519129
-0.0519129
-0.0182487
-0.0182487
-0.0484725
-0.0484725
-0.0674531
-0.0674531
0.0290665
0.0290665
-0.01077
-0.01077
-0.0267593
-0.0267593
-0.00637991
-0.00637991
-0.0285787
-0.0285787
-0.00694254
-0.00694254
-0.0091676
-0.0091676
-0.0182122
-0.0182122
-0.0497502
-0.0497502
-0.0325379
-0.0325379
0.00321797
0.00321797
-0.0550271
-0.0550271
-0.0238096
-0.0238096
-0.0278703
-0.0278703
-0.0423273
-0.0423273
-0.0542846
-0.0542846
-0.0335935
-0.0335935
0.0107151
0.0107151
-0.124033
-0.124033
0.0064806
0.0064806
-0.0319808
-0.0319808
-0.0147735
-0.0147735
-0.0779545
-0.0779545
-0.0459028
-0.0459028
0.0232266
0.0232266
-0.0407813
-0.0407813
-0.0597599
-0.0597599
-0.0179298
-0.0179298
-0.0518099
-0.0518099
-0.0828562
-0.0828562
0.0256074
0.0256074
-0.0187439
-0.0187439
8.10948e-05
8.10948e-05
-0.00698844
-0.00698844
-0.0715957
-0.0715957
-0.0691739
-0.0691739
-0.00352905
-0.00352905
-0.0205229
-0.0205229
0.0133052
0.0133052
-0.0501129
-0.0501129
-0.00389917
-0.00389917
-0.11258
-0.11258
-0.0815206
-0.0815206
-0.0122995
-0.0122995
-0.0133378
-0.0133378
-0.0682112
-0.0682112
-0.0267116
-0.0267116
0.0402206
0.0402206
-0.0587287
-0.0587287
0.0374504
0.0374504
-0.0151546
-0.0151546
-0.0144372
-0.0144372
-0.0659596
-0.0659596
-0.00906269
-0.00906269
-0.00215369
-0.00215369
-0.0130625
-0.0130625
-0.0192337
-0.0192337
-0.0155127
-0.0155127
-0.0156571
-0.0156571
0.000848645
0.000848645
-0.010581
-0.010581
-0.041713
-0.041713
-0.0139881
-0.0139881
-0.0166939
-0.0166939
-0.0121492
-0.0121492
-0.00569952
-0.00569952
-0.0201403
-0.0201403
0.00716852
0.00716852
-0.0140606
-0.0140606
0.00261683
0.00261683
-0.00844708
-0.00844708
-0.0905269
-0.0905269
-0.0163066
-0.0163066
-0.0268985
-0.0268985
0.014465
0.014465
-0.00730614
-0.00730614
0.00506487
0.00506487
-0.0154021
-0.0154021
-0.0724209
-0.0724209
-0.00546956
-0.00546956
-0.0605575
-0.0605575
-0.0134763
-0.0134763
-0.00270348
-0.00270348
-0.0154118
-0.0154118
-0.0160128
-0.0160128
-0.0144207
-0.0144207
-0.0205725
-0.0205725
-0.0308678
-0.0308678
0.0305051
0.0305051
0.000924672
0.000924672
-0.0021531
-0.0021531
-0.0315113
-0.0315113
0.0187943
0.0187943
-0.00861395
-0.00861395
-0.00480137
-0.00480137
-0.0173535
-0.0173535
-0.0144846
-0.0144846
-0.00228985
-0.00228985
-0.0107432
-0.0107432
-0.000610079
-0.000610079
-0.00596479
-0.00596479
-0.0207389
-0.0207389
0.0040188
0.0040188
-0.0396004
-0.0396004
-0.0193378
-0.0193378
0.0390188
0.0390188
-0.00527755
-0.00527755
0.0124018
0.0124018
-0.0117385
-0.0117385
-0.106637
-0.106637
-0.0902594
-0.0902594
-0.0389497
-0.0389497
0.0236288
0.0236288
-0.0597226
-0.0597226
-0.00159459
-0.00159459
-0.00659826
-0.00659826
-0.00752463
-0.00752463
-0.00199902
-0.00199902
-0.0158158
-0.0158158
-0.0200149
-0.0200149
-0.00585619
-0.00585619
-0.0293544
-0.0293544
-0.133176
-0.133176
-0.0104686
-0.0104686
-0.0158341
-0.0158341
-0.0109922
-0.0109922
-0.0366648
-0.0366648
0.0115188
0.0115188
-0.0600288
-0.0600288
-0.00284015
-0.00284015
0.016947
0.016947
-0.00294665
-0.00294665
-0.0073427
-0.0073427
-0.0930611
-0.0930611
-0.0929441
-0.0929441
-0.0804084
-0.0804084
-0.00163471
-0.00163471
0.00379631
0.00379631
-0.0183535
-0.0183535
-0.0046259
-0.0046259
-0.00625732
-0.00625732
-0.00682513
-0.00682513
-0.00373177
-0.00373177
0.0218563
0.0218563
-0.0997483
-0.0997483
-0.00618397
-0.00618397
-0.000634312
-0.000634312
-0.00383693
-0.00383693
-0.00890567
-0.00890567
-0.00422829
-0.00422829
0.00744273
0.00744273
-0.0560973
-0.0560973
-0.0119872
-0.0119872
-0.0319177
-0.0319177
-0.0607544
-0.0607544
-0.0206556
-0.0206556
-0.081229
-0.081229
-0.0272365
-0.0272365
-0.0261326
-0.0261326
-0.00193522
-0.00193522
-0.00964468
-0.00964468
0.0215199
0.0215199
0.0313177
0.0313177
-0.00652307
-0.00652307
-0.00348998
-0.00348998
0.00670289
0.00670289
-0.0422055
-0.0422055
-0.0039739
-0.0039739
0.0158689
0.0158689
-0.0150237
-0.0150237
5.00075e-05
5.00075e-05
-0.00598198
-0.00598198
-0.00881689
-0.00881689
-0.0777645
-0.0777645
0.03117
0.03117
-0.00449122
-0.00449122
-0.0285685
-0.0285685
-0.0430294
-0.0430294
-0.0472916
-0.0472916
-0.00648794
-0.00648794
-0.00333393
-0.00333393
-0.0579545
-0.0579545
0.00788843
0.00788843
-0.0771251
-0.0771251
-0.100904
-0.100904
0.00801641
0.00801641
-0.00660541
-0.00660541
-0.071834
-0.071834
-0.0136817
-0.0136817
-0.0179363
-0.0179363
-0.0299036
-0.0299036
-0.0101248
-0.0101248
0.015977
0.015977
-0.0671356
-0.0671356
-0.0265467
-0.0265467
0.0103538
0.0103538
-0.0586854
-0.0586854
-0.0163024
-0.0163024
-0.0136287
-0.0136287
-0.00584106
-0.00584106
-0.00426501
-0.00426501
-0.0187411
-0.0187411
-0.0349958
-0.0349958
-0.00678637
-0.00678637
0.0172055
0.0172055
-0.163347
-0.163347
0.00198642
0.00198642
-0.00871617
-0.00871617
-0.0237289
-0.0237289
0.0103651
0.0103651
-0.0227564
-0.0227564
-0.0109307
-0.0109307
-0.0157032
-0.0157032
-0.0021697
-0.0021697
0.00458882
0.00458882
0.00317316
0.00317316
0.00580649
0.00580649
-0.0822088
-0.0822088
-0.0229518
-0.0229518
0.00318422
0.00318422
0.0216192
0.0216192
0.00418709
0.00418709
0.020669
0.020669
-0.0101627
-0.0101627
0.00472736
0.00472736
-0.00948843
-0.00948843
-0.0116608
-0.0116608
-0.139553
-0.139553
0.00762567
0.00762567
-0.117288
-0.117288
0.0198261
0.0198261
0.00142088
0.00142088
-0.0215336
-0.0215336
-0.0120999
-0.0120999
-0.0377735
-0.0377735
-0.0424506
-0.0424506
-0.014137
-0.014137
-0.00161778
-0.00161778
0.0215589
0.0215589
-0.0493074
-0.0493074
-0.0129182
-0.0129182
-0.0107232
-0.0107232
0.0291767
0.0291767
0.000614912
0.000614912
-0.00268007
-0.00268007
0.000145099
0.000145099
-0.00506536
-0.00506536
-0.0313649
-0.0313649
-0.0667769
-0.0667769
-0.0764263
-0.0764263
-0.0120657
-0.0120657
0.0156774
0.0156774
-0.0778888
-0.0778888
-0.0307302
-0.0307302
0.0290768
0.0290768
-0.00379132
-0.00379132
0.00080748
0.00080748
-0.0213156
-0.0213156
-0.0174424
-0.0174424
-0.0051786
-0.0051786
-0.0744825
-0.0744825
0.0444991
0.0444991
-0.0534932
-0.0534932
-0.00507826
-0.00507826
-0.0227178
-0.0227178
-0.0978126
-0.0978126
0.00371527
0.00371527
-0.0185584
-0.0185584
-0.0854532
-0.0854532
0.0319563
0.0319563
-0.00235472
-0.00235472
0.0043166
0.0043166
-0.0135111
-0.0135111
0.0183297
0.0183297
-0.00114051
-0.00114051
-0.00374076
-0.00374076
-0.025218
-0.025218
-0.0412157
-0.0412157
-0.124388
-0.124388
-0.0977942
-0.0977942
0.0114724
0.0114724
-0.09197
-0.09197
-0.0180213
-0.0180213
-0.00893401
-0.00893401
0.00136562
0.00136562
-0.0293852
-0.0293852
0.00709531
0.00709531
-0.00387761
-0.00387761
0.00588312
0.00588312
-0.00341264
-0.00341264
-7.12042e-05
-7.12042e-05
-0.0251585
-0.0251585
-0.0150343
-0.0150343
-0.0032404
-0.0032404
-0.0492037
-0.0492037
0.00247709
0.00247709
-0.0191322
-0.0191322
-0.0221703
-0.0221703
0.0159845
0.0159845
-0.0246797
-0.0246797
-0.0115658
-0.0115658
0.0247851
0.0247851
0.00654301
0.00654301
0.0227699
0.0227699
-0.0304357
-0.0304357
-0.00114697
-0.00114697
-0.0631558
-0.0631558
-0.0188707
-0.0188707
-0.0932358
-0.0932358
-0.0507795
-0.0507795
-0.0934064
-0.0934064
-0.00762105
-0.00762105
-0.0653303
-0.0653303
0.00208073
0.00208073
-0.0171491
-0.0171491
-0.0820775
-0.0820775
-0.0933914
-0.0933914
0.0140418
0.0140418
-0.018965
-0.018965
0.0172409
0.0172409
0.0221183
0.0221183
-0.0343996
-0.0343996
-0.0870476
-0.0870476
-0.00326342
-0.00326342
0.00846241
0.00846241
0.00577605
0.00577605
0.0169639
0.0169639
-0.0465442
-0.0465442
-0.0171148
-0.0171148
0.00181384
0.00181384
-0.0171836
-0.0171836
-0.0188477
-0.0188477
-0.0240795
-0.0240795
0.00936336
0.00936336
-0.0514401
-0.0514401
-0.00636752
-0.00636752
-0.00598296
-0.00598296
-0.0117665
-0.0117665
-0.0172129
-0.0172129
-0.00507951
-0.00507951
-0.056734
-0.056734
-0.0803601
-0.0803601
-0.0123297
-0.0123297
-0.00285737
-0.00285737
-0.0181736
-0.0181736
0.00396003
0.00396003
-0.0834602
-0.0834602
-0.00138407
-0.00138407
0.0233004
0.0233004
-0.101146
-0.101146
-0.00148021
-0.00148021
-0.0257813
-0.0257813
-0.028483
-0.028483
-0.0643749
-0.0643749
-0.0140352
-0.0140352
-0.0151761
-0.0151761
-0.0023903
-0.0023903
-0.0722514
-0.0722514
-0.0181244
-0.0181244
-0.0482042
-0.0482042
0.000879839
0.000879839
-0.00701918
-0.00701918
0.00786553
0.00786553
0.0120174
0.0120174
-0.0337686
-0.0337686
0.00219788
0.00219788
0.00213325
0.00213325
0.00175555
0.00175555
0.000365809
0.000365809
-0.00306512
-0.00306512
-0.0194923
-0.0194923
-0.0196305
-0.0196305
-0.0421513
-0.0421513
-0.00672988
-0.00672988
0.0190478
0.0190478
-0.0215287
-0.0215287
-0.0654785
-0.0654785
0.0144436
0.0144436
-0.0214254
-0.0214254
-0.0072567
-0.0072567
-0.0200262
-0.0200262
-0.0146657
-0.0146657
-0.0118074
-0.0118074
-0.00677006
-0.00677006
-0.054686
-0.054686
-0.0076801
-0.0076801
-0.0116814
-0.0116814
-0.0114259
-0.0114259
-0.0680539
-0.0680539
-0.109094
-0.109094
-0.014313
-0.014313
-0.00715979
-0.00715979
-0.06991
-0.06991
-0.0157324
-0.0157324
-0.00677598
-0.00677598
-0.0460653
-0.0460653
-0.0494128
-0.0494128
-0.0204276
-0.0204276
-0.0046685
-0.0046685
-0.0385322
-0.0385322
0.00653949
0.00653949
0.0132268
0.0132268
0.00132974
0.00132974
-0.00409572
-0.00409572
-0.0134369
-0.0134369
0.0132138
0.0132138
0.0342627
0.0342627
-0.0705532
-0.0705532
-0.0101629
-0.0101629
-0.0132633
-0.0132633
-0.0297534
-0.0297534
-0.0217685
-0.0217685
0.00818846
0.00818846
-0.0244587
-0.0244587
0.0128692
0.0128692
-0.0571611
-0.0571611
-0.0820752
-0.0820752
0.0385893
0.0385893
-0.0654858
-0.0654858
-0.0792839
-0.0792839
-0.0527037
-0.0527037
-0.0276209
-0.0276209
-0.010735
-0.010735
-0.010211
-0.010211
-0.0400148
-0.0400148
-0.027796
-0.027796
0.000731336
0.000731336
-0.00890904
-0.00890904
-0.00480326
-0.00480326
0.00894973
0.00894973
-0.0253353
-0.0253353
-0.0575875
-0.0575875
-0.119435
-0.119435
-0.0826946
-0.0826946
-0.0461802
-0.0461802
-0.0318962
-0.0318962
-0.142643
-0.142643
-0.00693258
-0.00693258
-0.061873
-0.061873
0.0147232
0.0147232
-0.00214745
-0.00214745
-0.0828842
-0.0828842
-0.0273306
-0.0273306
-0.0241476
-0.0241476
-0.0635348
-0.0635348
-0.00551627
-0.00551627
-0.00818011
-0.00818011
-0.00503858
-0.00503858
-0.012317
-0.012317
-0.06263
-0.06263
-0.00798747
-0.00798747
-0.00612375
-0.00612375
-0.00573801
-0.00573801
-0.00123939
-0.00123939
-0.0471678
-0.0471678
-0.00288438
-0.00288438
-0.0855773
-0.0855773
-0.140096
-0.140096
-0.0143159
-0.0143159
0.011713
0.011713
-0.0255423
-0.0255423
-0.026577
-0.026577
-0.0100191
-0.0100191
-0.0353813
-0.0353813
0.00671193
0.00671193
-0.00699251
-0.00699251
-0.00538844
-0.00538844
-0.00438989
-0.00438989
-0.00378581
-0.00378581
-0.00299314
-0.00299314
-0.00237364
-0.00237364
-0.00178739
-0.00178739
-0.00125833
-0.00125833
-0.000819246
-0.000819246
-0.000380285
-0.000380285
-1.29812e-05
-1.29812e-05
0.000315253
0.000315253
0.000631169
0.000631169
0.000829373
0.000829373
0.00101062
0.00101062
0.00117856
0.00117856
0.00124346
0.00124346
0.00130415
0.00130415
0.00127436
0.00127436
0.0012674
0.0012674
0.00114933
0.00114933
0.000967857
0.000967857
0.000832022
0.000832022
0.000582258
0.000582258
0.00030538
0.00030538
-7.89555e-05
-7.89555e-05
-0.000403151
-0.000403151
-0.000754819
-0.000754819
-0.00131381
-0.00131381
-0.00176556
-0.00176556
-0.00258008
-0.00258008
-0.0030473
-0.0030473
-0.00356094
-0.00356094
-0.00475589
-0.00475589
-0.00566275
-0.00566275
-0.00599779
-0.00599779
-0.007107
-0.007107
-0.00916992
-0.00916992
-0.0100864
-0.0100864
-0.0111455
-0.0111455
-0.0137894
-0.0137894
-0.0162984
-0.0162984
-0.0191855
-0.0191855
-0.0232759
-0.0232759
-0.0302361
-0.0302361
-0.0371122
-0.0371122
-0.050926
-0.050926
-0.0596306
-0.0596306
-0.0291449
-0.0291449
0.00304839
0.00304839
-0.00824546
-0.00824546
-0.0117815
-0.0117815
-0.00931196
-0.00931196
-0.00937597
-0.00937597
-0.00887139
-0.00887139
-0.0122786
-0.0122786
-0.0178639
-0.0178639
-0.0213248
-0.0213248
-0.0249637
-0.0249637
-0.0283972
-0.0283972
-0.0308158
-0.0308158
-0.0314483
-0.0314483
-0.0306844
-0.0306844
-0.0291625
-0.0291625
-0.0268097
-0.0268097
-0.0239214
-0.0239214
-0.0206578
-0.0206578
-0.01763
-0.01763
-0.0147044
-0.0147044
-0.0124326
-0.0124326
-0.0114101
-0.0114101
-0.010413
-0.010413
-0.00597418
-0.00597418
-0.00554133
-0.00554133
-0.00480017
-0.00480017
-0.00366955
-0.00366955
-0.00305275
-0.00305275
-0.00263587
-0.00263587
-0.00176099
-0.00176099
-0.00137831
-0.00137831
-0.000750716
-0.000750716
-0.000395329
-0.000395329
-7.74241e-05
-7.74241e-05
0.00031993
0.00031993
0.000580853
0.000580853
0.000825972
0.000825972
0.000953365
0.000953365
0.00117578
0.00117578
0.00122701
0.00122701
0.0012701
0.0012701
0.00123616
0.00123616
0.00127586
0.00127586
0.0011605
0.0011605
0.000997457
0.000997457
0.000855173
0.000855173
0.000587024
0.000587024
0.000324483
0.000324483
-1.18235e-06
-1.18235e-06
-0.000393633
-0.000393633
-0.000794054
-0.000794054
-0.00128545
-0.00128545
-0.00181082
-0.00181082
-0.00242275
-0.00242275
-0.00301912
-0.00301912
-0.00371777
-0.00371777
-0.00446971
-0.00446971
-0.00546255
-0.00546255
-0.00709819
-0.00709819
-0.0102339
-0.0102339
-0.0114346
-0.0114346
-0.0124476
-0.0124476
-0.0147542
-0.0147542
-0.017629
-0.017629
-0.0208616
-0.0208616
-0.0242555
-0.0242555
-0.0271204
-0.0271204
-0.0295193
-0.0295193
-0.0310389
-0.0310389
-0.0315309
-0.0315309
-0.0308078
-0.0308078
-0.0288672
-0.0288672
-0.0246343
-0.0246343
-0.0202982
-0.0202982
-0.0158839
-0.0158839
-0.0126457
-0.0126457
-0.0107638
-0.0107638
-0.00819313
-0.00819313
-0.00847127
-0.00847127
-0.00930434
-0.00930434
-0.00777296
-0.00777296
-0.00281647
-0.00281647
-0.0243008
-0.0243008
-0.0557305
-0.0557305
-0.055185
-0.055185
-0.0405138
-0.0405138
-0.0287073
-0.0287073
-0.0244265
-0.0244265
-0.0183586
-0.0183586
-0.0159679
-0.0159679
-0.014404
-0.014404
-0.0114907
-0.0114907
-0.00966507
-0.00966507
-0.00904229
-0.00904229
-0.00761232
-0.00761232
      </DataArray> 
    </PointData>
    <CellData>
    </CellData>
  </Piece>
  </UnstructuredGrid>
</VTKFile>
