<?xml version="1.0"?>
<VTKFile type="UnstructuredGrid">
  <UnstructuredGrid>
  <Piece NumberOfPoints="3487"  NumberOfCells="1698">
    <Points>
      <DataArray type="Float64" NumberOfComponents="3" format="ascii">
39.9727 48.5573 0
60.0279 48.5562 0
40.6339 48.6882 0
41.2965 48.8104 0
41.9604 48.9234 0
42.6255 49.0275 0
43.2919 49.1225 0
43.9595 49.2084 0
44.6281 49.2854 0
45.2976 49.3533 0
45.9679 49.4121 0
46.639 49.4619 0
47.3106 49.5027 0
47.9827 49.5344 0
48.6551 49.557 0
49.3278 49.5705 0
50.0006 49.575 0
50.6734 49.5705 0
51.346 49.5568 0
52.0185 49.5341 0
52.6905 49.5024 0
53.3621 49.4615 0
54.0331 49.4117 0
54.7034 49.3527 0
55.3729 49.2848 0
56.0415 49.2078 0
56.709 49.1217 0
57.3753 49.0266 0
58.0405 48.9226 0
58.7042 48.8095 0
59.3667 48.6873 0
39.9923 49.5737 0
39.9921 49.3196 0
39.9887 49.0656 0
39.9822 48.8115 0
19.8768 69.4589 0
39.9892 49.8353 0
39.9827 50.0969 0
39.9672 50.4753 0
39.9445 50.8532 0
39.8989 51.3993 0
39.8384 51.9439 0
39.7244 52.7286 0
39.5792 53.5082 0
39.3146 54.6246 0
38.9862 55.7242 0
38.7095 56.507 0
38.4004 57.2777 0
38.0596 58.035 0
37.6875 58.7774 0
37.0953 59.8229 0
36.4414 60.831 0
35.728 61.798 0
-0.0635276 49.399 0
17.2674 69.2768 0
14.7038 68.7567 0
12.2298 67.9072 0
9.8874 66.7429 0
7.71668 65.2834 0
11.5779 31.5227 0
0.147017 46.5808 0
0.755054 43.8213 0
1.74883 41.1762 0
0 0 0
0.10943 3.70226 0
0.514208 7.39306 0
1.20515 11.0459 0
2.17675 14.6334 0
3.08738 17.2737 0
49.9996 -0.407584 0
5.1116 0 0
10.2232 0 0
15.3348 0 0
100 0 0
57.4122 -0.394914 0
64.8246 -0.348633 0
72.2282 -0.251371 0
88.423 31.5218 0
99.8907 3.70228 0
99.486 7.39285 0
98.7951 11.0456 0
97.8235 14.6331 0
96.9129 17.2733 0
100.064 49.3985 0
99.8532 46.5803 0
99.2452 43.8209 0
98.2514 41.1757 0
80.1231 69.4582 0
99.9012 52.0089 0
99.3983 54.5757 0
98.5641 57.0546 0
97.4129 59.4035 0
95.9651 61.5818 0
60.0081 49.5726 0
77.612 69.3114 0
75.139 68.8515 0
72.743 68.0856 0
70.4618 67.0256 0
68.9716 66.13 0
67.5645 65.1085 0
66.2514 63.9688 0
65.0421 62.7194 0
64.272 61.797 0
63.5587 60.83 0
62.9048 59.8219 0
62.3126 58.7764 0
61.5998 57.2768 0
61.014 55.7232 0
60.6856 54.6237 0
60.421 53.5071 0
60.2759 52.7276 0
60.0083 49.3185 0
60.0118 49.0645 0
60.0184 48.8104 0
52.8141 29.8344 0
26.551 36.6582 0
40.3501 23.9696 0
24.9657 22.2831 0
71.9046 22.2989 0
72.7007 43.6969 0
54.7942 23.7877 0
15.2808 47.1241 0
38.3567 49.1822 0
23.5368 64.9439 0
7.67704 7.70718 0
91.9643 7.68492 0
29.1305 56.6123 0
37.1713 51.65 0
28.0847 46.9363 0
29.7222 47.898 0
71.5175 46.4221 0
30.9789 48.7968 0
70.5205 47.8988 0
31.6386 45.3899 0
30.8855 46.8422 0
70.0653 46.4124 0
68.9796 44.7401 0
31.28 49.8909 0
30.8885 51.1116 0
28.1777 48.8897 0
45.3121 41.0346 0
53.8408 40.6555 0
56.0225 40.2045 0
73.1335 47.1736 0
70.124 49.138 0
68.3229 42.174 0
32.3202 42.5046 0
26.1354 45.4195 0
27.6797 44.4276 0
30.3118 43.0605 0
70.4045 42.3715 0
72.678 45.6882 0
44.8522 42.8267 0
51.4298 41.7332 0
55.4064 42.3193 0
32.4435 48.8349 0
68.5642 49.3761 0
39.4844 41.8174 0
35.4469 43.1307 0
32.8953 46.2882 0
33.5736 48.0349 0
67.1079 47.9785 0
67.9823 46.2171 0
65.0652 42.7934 0
60.4117 41.4546 0
32.3532 51.1505 0
28.1999 50.7454 0
41.7874 37.0423 0
46.827 37.4462 0
52.0473 39.6183 0
58.67 38.988 0
26.5844 51.638 0
24.2815 50.0709 0
74.2428 49.6805 0
71.1801 50.3861 0
69.1608 51.9675 0
67.9351 52.1031 0
59.7513 36.1095 0
66.4913 40.423 0
34.1188 40.7997 0
36.0414 35.5431 0
23.174 46.9064 0
21.6474 43.0184 0
28.3632 41.5455 0
74.3165 44.4489 0
76.6507 48.2863 0
43.058 43.4144 0
46.271 42.7004 0
49.9683 42.7482 0
48.4339 42.5312 0
51.7625 43.7855 0
54.0866 43.9012 0
52.905 44.1968 0
56.2696 43.4498 0
33.875 49.1295 0
33.771 50.6414 0
66.5515 51.4549 0
66.6038 49.4657 0
41.8361 43.6517 0
40.7077 43.389 0
38.467 42.9955 0
37.1482 43.5995 0
35.3497 45.3046 0
34.3265 46.5818 0
66.0225 46.3053 0
65.0149 45.0341 0
63.1835 43.2828 0
61.6979 42.8347 0
58.874 43.2491 0
57.5354 43.5655 0
33.3794 51.8629 0
29.1418 53.4639 0
40.8478 30.7696 0
50.8844 35.7604 0
55.6601 34.0435 0
23.5309 53.1767 0
76.9435 51.6467 0
70.2613 53.0716 0
66.4263 52.6954 0
65.4546 34.9284 0
30.9744 34.3495 0
19.431 47.021 0
26.1418 39.7856 0
71.9786 33.873 0
72.0424 41.1336 0
77.4893 45.0469 0
43.1698 44.8563 0
45.8113 44.4927 0
48.7655 44.5835 0
51.4431 45.2119 0
53.7678 45.3275 0
56.2159 45.1478 0
34.9014 49.8415 0
65.0948 50.0572 0
40.8189 44.8308 0
38.3714 45.1716 0
36.0289 47.0524 0
64.1396 46.7966 0
61.6459 45.0778 0
58.8213 44.9468 0
36.0523 52.1164 0
34.898 52.8765 0
33.4803 53.385 0
31.8725 55.1723 0
26.0479 58.6247 0
22.9539 57.024 0
32.4235 22.4952 0
47.042 26.4548 0
63.1168 22.8279 0
19.9504 54.73 0
80.2257 53.9959 0
75.8378 55.5107 0
71.9727 55.8705 0
69.1212 55.198 0
65.797 53.7046 0
64.1198 53.5528 0
68.1269 28.7828 0
26.8069 29.8767 0
17.2058 51.4615 0
14.5923 42.1801 0
22.4307 33.8467 0
84.9171 46.5863 0
84.7573 51.7276 0
75.1508 37.7018 0
81.2187 43.6809 0
42.4585 46.1866 0
41.4182 45.9947 0
44.9671 46.0322 0
43.681 45.9492 0
47.7371 45.9735 0
46.3868 45.906 0
50.6201 46.2866 0
49.2724 46.1906 0
53.0502 46.6816 0
51.763 46.6979 0
55.5121 46.2939 0
54.2325 46.3859 0
58.0599 46.2472 0
56.7787 46.4097 0
36.3703 48.3742 0
36.0204 49.3745 0
35.9163 50.8873 0
63.4002 51.8214 0
63.8404 50.8083 0
63.8929 48.8178 0
63.8393 47.9158 0
40.2893 45.7316 0
39.3736 45.9105 0
38.0539 46.5138 0
37.394 47.0968 0
62.8315 46.6444 0
62.015 46.3209 0
60.5286 45.8737 0
59.3992 45.9303 0
38.0434 52.3223 0
36.1528 53.6397 0
34.0388 56.4941 0
29.5482 59.5494 0
22.8134 61.0785 0
21.7565 15.2806 0
39.9798 16.0006 0
48.902 11.2713 0
56.9322 16.7246 0
76.6241 15.5078 0
15.5825 56.7639 0
84.5777 57.1978 0
73.4623 59.2064 0
66.5514 55.3618 0
62.4774 53.3278 0
82.9418 7.77963 0
79.7155 22.4427 0
16.3049 7.86369 0
18.3713 22.1673 0
10.6894 46.471 0
16.6035 35.7748 0
15.563 30.2079 0
89.4452 49.3402 0
83.2712 31.0458 0
81.5645 39.0563 0
41.9292 47.0879 0
44.2563 47.3627 0
46.8934 47.5132 0
49.5919 47.6767 0
52.2272 47.7565 0
54.7946 47.6481 0
57.3562 47.3936 0
37.3857 49.4199 0
37.9078 51.0922 0
62.1978 50.582 0
62.5843 48.6663 0
39.9726 47.075 0
38.3962 47.8364 0
38.5094 48.6062 0
61.7671 48.3038 0
61.714 47.4409 0
59.7676 47.1748 0
38.8786 50.8554 0
61.3586 50.7886 0
39.1796 52.6363 0
38.4432 53.1937 0
38.1468 54.3015 0
36.9927 55.061 0
36.4816 56.8321 0
34.8272 58.3486 0
33.3123 60.2 0
30.6873 62.3005 0
27.9188 64.4421 0
27.1826 7.68795 0
38.6611 8.14289 0
59.8719 8.36225 0
71.754 7.75773 0
19.1625 64.377 0
14.8687 62.6335 0
10.6736 59.8378 0
6.23043 56.7862 0
5.95159 50.8582 0
94.2847 51.9531 0
93.3792 57.0053 0
89.3999 60.3564 0
84.6512 62.8778 0
79.5465 64.5616 0
74.6431 63.6092 0
70.3292 62.3419 0
66.886 60.9004 0
65.2608 58.2349 0
62.7548 56.9175 0
62.1056 55.3911 0
61.8091 54.2832 0
61.0893 52.5512 0
93.5094 14.4886 0
89.7931 20.614 0
86.0872 24.9117 0
6.23677 14.4828 0
13.0285 24.3857 0
9.79109 20.6065 0
5.72818 45.2965 0
5.6403 40.359 0
12.3268 34.4969 0
94.2655 46.8403 0
88.1106 36.8245 0
93.3795 42.1228 0
41.0921 47.8532 0
40.431 47.7266 0
42.1332 48.045 0
43.4644 48.2439 0
42.7975 48.1535 0
44.7511 48.3271 0
46.0907 48.4538 0
45.4201 48.3995 0
47.4415 48.5213 0
48.7859 48.5756 0
48.1133 48.5575 0
50.1338 48.6716 0
51.4791 48.6534 0
50.8066 48.6716 0
52.7667 48.6371 0
54.1091 48.5464 0
53.4385 48.6008 0
55.3891 48.4543 0
56.725 48.2913 0
56.0581 48.3818 0
58.007 48.1288 0
59.3325 47.8937 0
58.6713 48.0202 0
39.3622 51.309 0
39.3092 51.8543 0
60.9598 51.7692 0
60.9068 51.2239 0
38.0063 50.1832 0
39.1301 49.3697 0
61.7987 49.7748 0
61.8209 49.2064 0
60.9814 49.4126 0
39.5145 47.9051 0
39.17 48.0233 0
60.9501 47.9808 0
60.4627 47.8367 0
39.4609 50.3994 0
60.5076 50.4165 0
39.4848 49.7597 0
39.4799 50.0213 0
60.4886 50.0384 0
60.4838 49.7768 0
39.6378 49.1833 0
39.6279 48.6754 0
39.636 48.9293 0
60.5057 49.208 0
60.5075 48.954 0
60.5158 48.7002 0
61.0036 48.844 0
39.2831 48.7935 0
60.9594 49.9812 0
38.9772 49.946 0
60.8975 47.1175 0
39.0563 47.2533 0
62.6382 49.5687 0
37.0353 50.4205 0
61.7578 51.5959 0
38.7799 51.7648 0
58.6379 47.2309 0
56.0746 47.5559 0
53.5147 47.7401 0
50.9398 47.7727 0
48.244 47.5807 0
45.5427 47.4457 0
42.9698 47.2795 0
40.8886 46.8958 0
89.1766 44.5065 0
10.9151 40.6473 0
13.28 16.086 0
85.8797 16.2889 0
63.1974 55.0595 0
68.9602 58.2101 0
78.9986 59.5802 0
89.3418 54.6147 0
11.7258 52.569 0
19.1785 59.4033 0
66.6913 15.5703 0
30.7814 15.3025 0
26.2982 61.8602 0
32.1219 57.7288 0
34.9985 54.3996 0
37.3069 52.8798 0
62.5309 47.764 0
37.7356 48.4192 0
75.9101 28.4893 0
20.5447 28.4044 0
47.9181 19.0744 0
60.1601 44.6297 0
63.1325 45.5249 0
37.0517 45.7747 0
39.6903 44.5676 0
65.1478 48.0676 0
65.0429 52.0474 0
34.7972 51.3539 0
35.0049 48.3294 0
57.4823 45.2635 0
54.9497 45.0319 0
52.5859 45.6231 0
50.3004 44.8006 0
47.2306 44.3664 0
44.392 44.6188 0
41.9476 45.0936 0
74.339 42.4588 0
80.2849 48.6186 0
17.9919 43.089 0
21.2879 50.5287 0
34.4644 29.4974 0
59.9702 30.0422 0
67.81 53.3433 0
73.4257 52.7706 0
54.4574 38.5408 0
46.5135 32.6997 0
26.2021 55.136 0
31.9614 52.3717 0
69.7481 39.8063 0
30.9929 40.176 0
57.5887 41.8679 0
63.2352 41.041 0
66.8976 44.5439 0
33.6476 44.8351 0
37.244 41.4245 0
41.7246 42.21 0
68.0605 50.8632 0
32.7447 49.9294 0
53.2239 42.7705 0
49.6364 40.696 0
74.2942 46.4395 0
25.7307 42.9126 0
71.9729 47.908 0
26.54 47.9277 0
69.0683 47.8896 0
32.1422 47.7408 0
71.0624 44.9361 0
29.6287 45.9442 0
29.8152 49.8524 0
88.1327 34.1813 0
96.8913 38.6998 0
91.2891 35.5034 0
92.232 38.3534 0
96.0819 37.5411 0
88.5038 40.5423 0
3.10895 38.7002 0
11.9025 32.9653 0
10.0195 34.799 0
3.91845 37.5416 0
8.32008 37.2783 0
11.6996 36.8179 0
11.4091 22.4976 0
11.005 26.3364 0
9.386 24.4527 0
11.8937 28.7963 0
4.148 19.8552 0
5.35523 22.3691 0
8.24486 22.7027 0
11.5343 18.3441 0
13.1519 20.237 0
8.01233 17.5483 0
6.96804 20.2319 0
5.19018 17.1662 0
6.70446 24.8067 0
7.80898 26.5823 0
4.206 14.5584 0
9.75655 15.2869 0
87.9409 22.764 0
90.4063 24.4553 0
88.553 26.5965 0
91.5475 22.7057 0
95.8522 19.8548 0
94.6449 22.3687 0
87.6859 29.1045 0
85.986 20.6016 0
87.8376 18.4493 0
91.6529 17.5551 0
94.6831 17.1687 0
92.8244 20.2355 0
95.6673 14.5612 0
93.2956 24.8061 0
92.1911 26.5816 0
89.6967 15.3915 0
65.8144 8.0433 0
62.3386 4.00321 0
68.2876 3.69699 0
54.9448 3.96917 0
79.5536 0 0
84.6652 0 0
75.6533 3.85137 0
69.2205 11.6591 0
63.281 11.9656 0
32.9208 7.89817 0
31.1806 3.66031 0
36.9266 3.89514 0
23.8152 3.8217 0
20.4464 0 0
27.7727 -0.250493 0
44.3201 3.85729 0
34.723 11.7221 0
28.9835 11.4919 0
81.6316 34.8879 0
85.4021 34.383 0
85.0451 37.9455 0
86.2564 31.4543 0
85.0331 42.0043 0
77.2673 33.8256 0
80.0024 31.0151 0
16.0928 32.713 0
14.1263 35.1036 0
13.9505 32.6642 0
14.1668 38.31 0
13.5681 30.8709 0
17.6499 29.8569 0
18.7779 32.8104 0
16.5514 27.1918 0
14.1348 28.1524 0
15.6999 23.2742 0
15.8254 19.1257 0
19.4606 25.2826 0
81.5881 27.1211 0
82.9011 23.6755 0
84.8223 28.5327 0
82.7966 19.3631 0
77.8093 25.462 0
79.7813 11.6394 0
74.1839 11.6429 0
77.3383 7.78426 0
71.6526 15.536 0
81.2518 3.88373 0
84.4122 12.0323 0
81.2499 15.8999 0
52.9188 13.995 0
54.3848 9.80875 0
58.399 12.5425 0
49.4498 5.43006 0
61.8107 16.141 0
52.4243 17.8953 0
48.41 15.1732 0
44.4395 13.6323 0
39.3231 12.0717 0
43.7838 9.69973 0
35.3819 15.6455 0
43.95 17.5338 0
19.0311 11.5702 0
21.7512 7.79414 0
24.4742 11.4951 0
18.3718 3.92527 0
26.2737 15.2906 0
17.5192 15.6846 0
14.791 11.9728 0
74.6228 33.8493 0
78.7444 37.2517 0
78.0919 40.8306 0
74.7447 40.0798 0
21.491 31.1242 0
19.3886 36.526 0
17.0737 39.327 0
19.7478 40.132 0
73.9426 31.1792 0
73.5634 35.7883 0
72.4494 38.7533 0
70.8628 36.8384 0
68.7161 34.4 0
66.7899 31.854 0
70.0512 31.3294 0
62.7111 32.4862 0
64.0476 29.4107 0
72.0175 28.6362 0
67.5996 37.3687 0
32.7205 31.9243 0
35.2535 32.5193 0
33.5081 34.9457 0
33.519 37.861 0
36.643 38.4831 0
30.9845 37.2626 0
59.8603 33.0755 0
62.6027 35.5184 0
64.3447 37.9835 0
61.4921 38.576 0
57.8152 32.0419 0
57.7053 35.0767 0
57.1046 37.3247 0
55.0588 36.2919 0
46.6703 35.0727 0
48.6986 34.2296 0
48.856 36.6033 0
50.2606 38.2281 0
52.6705 37.1505 0
48.2313 39.071 0
38.9145 36.2922 0
38.4457 33.157 0
41.3178 33.9054 0
37.6565 30.1323 0
43.6806 31.734 0
44.1513 34.8711 0
39.5169 39.2343 0
44.3072 37.2443 0
46.0698 39.2404 0
43.5186 41.6225 0
47.4743 40.8653 0
43.5494 39.0381 0
41.7563 39.6259 0
90.8748 3.8419 0
87.455 7.73703 0
86.3727 3.90208 0
88.9276 11.9945 0
89.7768 0 0
94.8884 0 0
95.9908 3.84768 0
96.5027 10.949 0
92.7394 11.0851 0
95.7256 7.5424 0
91.0112 28.3037 0
90.3914 29.1425 0
4.0952 7.55345 0
6.95427 11.0934 0
3.37059 10.9458 0
10.4732 11.9036 0
8.98896 28.3048 0
9.60871 29.144 0
3.82996 3.85837 0
13.2514 3.94252 0
11.9891 7.78952 0
8.94598 3.85277 0
35.1749 -0.348092 0
42.5873 -0.394515 0
58.9548 23.305 0
55.8623 20.256 0
60.024 19.7768 0
51.3564 21.4296 0
64.9027 19.197 0
61.5426 26.434 0
57.3814 26.9158 0
67.5086 22.5612 0
70.0137 25.5382 0
65.6207 25.8074 0
73.9069 25.3963 0
69.2966 18.9387 0
78.171 18.9769 0
75.8077 22.3704 0
74.2617 18.8976 0
23.3627 18.7776 0
21.6704 22.2243 0
20.0624 18.7253 0
22.7549 25.346 0
27.8746 18.7983 0
29.6165 26.1893 0
25.8891 26.0775 0
28.6965 22.3882 0
23.6767 29.1402 0
31.6033 18.8979 0
33.4452 25.9953 0
30.6365 29.6867 0
40.5996 27.3698 0
43.6964 25.2104 0
43.9457 28.6125 0
44.1343 21.5211 0
47.4802 22.7651 0
46.778 29.5777 0
37.4084 26.735 0
36.2029 19.2493 0
40.1661 19.9855 0
36.388 23.2294 0
26.6814 33.2672 0
24.4908 35.2516 0
24.6204 31.8633 0
22.6056 38.7993 0
28.8914 32.1112 0
28.7636 35.5046 0
28.7717 38.4159 0
51.8495 32.7971 0
54.2368 31.9389 0
53.2724 34.9016 0
56.3918 29.9373 0
49.6642 31.2665 0
50.918 25.1193 0
53.804 26.8111 0
49.9278 28.1441 0
6.56405 36.86 0
6.97954 38.8165 0
5.22273 38.4026 0
9.61594 38.9653 0
8.27615 40.5031 0
4.37419 39.5295 0
4.80879 36.4443 0
5.77609 35.4143 0
7.56543 35.8692 0
10.8583 35.8107 0
10.0087 37.0481 0
9.16886 36.0364 0
11.3062 38.7307 0
8.41669 34.6255 0
11.1719 34.6491 0
12.0124 35.6559 0
11.7342 30.1679 0
10.2469 29.966 0
11.068 29.3766 0
12.4593 26.5916 0
10.4399 28.5497 0
10.9015 30.7647 0
89.7533 29.9644 0
88.0549 30.3194 0
88.7223 29.5288 0
89.3504 28.7025 0
86.8885 27.0087 0
89.0996 30.7632 0
85.8282 32.918 0
87.189 32.8244 0
86.7665 34.2868 0
87.3395 31.4908 0
88.2804 32.8485 0
88.1224 35.5017 0
86.7564 35.6062 0
84.3321 32.7172 0
84.7642 31.2507 0
86.7753 39.2445 0
86.7687 41.2751 0
85.04 39.9737 0
88.8408 42.5234 0
87.1057 43.2554 0
83.2988 40.5316 0
83.3045 38.5021 0
86.5779 37.3877 0
88.3081 38.682 0
79.4487 34.3578 0
78.6343 32.4196 0
80.8143 32.9523 0
76.5865 31.1576 0
77.956 29.7531 0
81.637 31.0307 0
82.4496 32.9661 0
81.598 36.9718 0
80.1883 36.0693 0
14.1455 36.7056 0
12.933 37.5658 0
12.9126 35.9621 0
12.54 39.4786 0
13.2267 34.8018 0
15.3651 35.4401 0
15.3856 37.0439 0
12.9279 32.8187 0
12.7432 31.9246 0
13.7616 31.7673 0
11.7398 32.2433 0
12.5737 31.2003 0
14.5653 30.5399 0
14.7601 31.4375 0
13.1403 33.5837 0
12.1142 33.7304 0
16.8736 31.2857 0
18.2155 31.3331 0
17.4352 32.7619 0
19.0971 29.1312 0
19.6637 30.6078 0
17.6928 34.2942 0
16.3487 34.2438 0
15.8303 31.4601 0
16.6063 30.0326 0
13.8521 29.5121 0
12.734 29.8281 0
13.0145 28.4711 0
13.581 26.2693 0
14.8509 29.1783 0
16.0578 28.7001 0
17.1022 28.5234 0
18.5493 27.7969 0
17.4604 24.6803 0
86.2535 28.8151 0
86.9657 30.274 0
85.538 29.9944 0
84.0442 29.7876 0
85.4547 26.7212 0
82.4282 29.0838 0
80.7926 29.0669 0
80.6523 24.7824 0
78.7476 27.8041 0
80.1537 38.155 0
79.8282 39.9435 0
78.4182 39.0408 0
76.6204 39.2672 0
76.2154 41.6445 0
76.9474 37.4769 0
15.6204 38.8197 0
15.8327 40.7539 0
14.3787 40.2439 0
17.5323 41.2072 0
16.2922 42.6355 0
12.7533 41.4155 0
16.838 37.5502 0
19.568 38.3286 0
18.4109 39.7299 0
18.2318 37.9276 0
18.8698 41.6107 0
17.9961 36.1507 0
20.9111 35.1875 0
20.9969 37.6622 0
20.6974 41.5747 0
21.1772 39.4663 0
24.5793 37.7298 0
22.5192 36.3228 0
19.82 43.0544 0
22.1268 40.9089 0
24.1679 40.8549 0
23.6895 42.966 0
79.6549 42.2566 0
79.3538 44.3642 0
77.7908 42.9382 0
80.7521 46.1487 0
78.8871 46.833 0
75.9137 43.7535 0
81.3922 41.3676 0
90.3694 39.4504 0
92.8066 40.2373 0
90.9429 41.3313 0
94.5619 38.5236 0
95.1368 40.4119 0
91.279 43.3162 0
90.1728 37.5874 0
93.2403 35.9696 0
93.7127 37.3985 0
91.7615 36.9277 0
95.1914 36.444 0
89.7017 36.1671 0
92.2376 34.9798 0
94.2244 35.4138 0
89.527 33.4903 0
91.1037 34.146 0
89.7125 34.8397 0
93.1852 34.4571 0
92.0787 33.5792 0
93.8232 44.481 0
96.3129 42.9683 0
96.7563 45.3305 0
90.91 32.7871 0
89.6908 32.0937 0
97.1653 48.1166 0
91.722 45.6717 0
10.4919 32.8757 0
10.9587 33.8772 0
9.55079 33.7955 0
6.8149 34.4575 0
7.92142 33.5795 0
5.68296 42.828 0
3.24099 44.558 0
3.19699 42.0868 0
2.83134 47.344 0
9.08896 32.7871 0
10.3107 32.0931 0
8.31983 42.9673 0
66.0734 59.5677 0
65.2222 60.8649 0
64.4096 59.5321 0
65.9639 61.8096 0
60.1619 51.9428 0
60.1014 51.3982 0
63.7865 58.5053 0
67.1103 58.2223 0
67.9229 59.5548 0
68.6076 61.621 0
68.9466 63.7246 0
67.2253 63.0041 0
70.3955 64.6832 0
60.0559 50.8521 0
60.0332 50.4742 0
69.6448 60.2758 0
77.0949 64.0851 0
77.342 66.7056 0
74.8911 66.2297 0
79.8349 67.0092 0
60.0177 50.0958 0
60.0112 49.8342 0
72.5519 65.3165 0
76.8202 61.5939 0
79.2727 62.0702 0
82.0986 63.7194 0
84.9738 65.8159 0
82.4222 66.6577 0
87.3828 64.8087 0
94.2454 63.5528 0
92.2833 65.2828 0
81.8256 61.2283 0
91.3895 58.6808 0
93.8126 60.278 0
91.8233 61.9533 0
95.3965 58.2033 0
90.1126 66.7422 0
87.7702 67.9066 0
89.7564 63.5482 0
89.371 57.4847 0
91.361 55.8091 0
93.8321 54.479 0
96.8421 53.2625 0
96.3891 55.7899 0
97.1748 50.6753 0
85.2961 68.756 0
82.7326 69.2762 0
91.8135 53.2843 0
6.09071 53.8217 0
3.41577 55.6806 0
3.27586 52.7146 0
4.40838 58.0941 0
5.75466 63.5534 0
4.03492 61.5824 0
2.94336 50.1276 0
8.83818 51.7138 0
8.97704 54.6755 0
8.45208 58.312 0
8.21338 61.6941 0
5.9923 60.1688 0
10.2803 63.289 0
2.58713 59.404 0
1.43602 57.0551 0
11.1993 56.2017 0
17.0158 63.505 0
16.9324 66.5658 0
14.7862 65.6941 0
19.5198 66.9172 0
0.60182 54.5762 0
0.0989126 52.0093 0
12.3772 64.6869 0
17.0231 61.0178 0
19.1705 61.8894 0
29.303 63.3712 0
31.5616 63.7046 0
30.1774 64.7752 0
32.8229 62.51 0
34.9579 62.7204 0
33.7486 63.9697 0
28.7287 65.734 0
27.1087 63.1509 0
28.493 62.08 0
34.0697 59.2743 0
35.6344 59.5894 0
34.877 60.5151 0
36.2575 58.5627 0
32.4355 65.1094 0
31.0285 66.1309 0
34.1353 61.4598 0
32.7172 58.9641 0
33.4747 58.0384 0
29.5382 67.0265 0
37.0847 57.8045 0
37.4411 57.0547 0
37.734 56.2781 0
35.7402 55.6154 0
27.2569 68.0864 0
83.5165 34.6367 0
85.2248 36.1632 0
83.3365 36.4199 0
91.8657 50.6453 0
91.8559 48.0911 0
94.2755 49.3964 0
89.3113 46.9225 0
89.3937 51.9767 0
15.1119 33.9108 0
14.0382 33.8836 0
15.0216 32.6891 0
8.31941 48.6621 0
5.83921 48.0771 0
8.20802 45.8842 0
10.8013 43.5577 0
11.2073 49.5193 0
15.3432 27.6718 0
14.7912 25.7856 0
83.2054 27.8271 0
83.8351 26.0124 0
67.7558 56.786 0
65.9059 56.798 0
64.229 56.6473 0
64.8742 55.2104 0
74.0528 61.4074 0
72.4862 62.9753 0
71.8954 60.7735 0
71.2112 58.7082 0
76.2303 59.3932 0
86.9895 58.7762 0
87.0254 61.6169 0
84.6145 60.0369 0
81.7878 58.3889 0
86.9596 55.9065 0
15.2254 59.6976 0
12.7714 61.2355 0
13.1274 58.3 0
13.6544 54.6665 0
17.3807 58.0835 0
31.4305 59.8743 0
31.9998 61.2502 0
30.1179 60.9246 0
27.9231 60.7047 0
30.8351 58.6391 0
35.2603 56.6629 0
35.6544 57.5903 0
34.4331 57.4212 0
33.0804 57.1115 0
34.5187 55.4469 0
78.0047 35.5393 0
76.2089 35.763 0
84.8375 49.1559 0
87.1819 47.9627 0
87.1013 50.5346 0
87.047 45.5478 0
87.0502 53.1705 0
82.5215 50.1731 0
82.6008 47.6032 0
19.084 34.668 0
20.6041 33.3283 0
69.0406 56.7038 0
67.8362 55.2798 0
67.1806 54.3523 0
68.4656 54.2707 0
73.905 55.6905 0
74.6497 57.3579 0
72.7175 57.5383 0
77.4185 57.5451 0
70.4661 57.0398 0
72.699 54.3201 0
74.6318 54.1406 0
82.4913 52.862 0
84.6676 54.4617 0
82.4022 55.5965 0
79.612 56.787 0
80.2555 51.3062 0
18.5783 53.0955 0
17.7661 55.7468 0
16.3937 54.1116 0
19.5643 57.0659 0
14.4654 52.0154 0
19.2468 50.9954 0
20.619 52.6288 0
24.5011 57.8241 0
24.4305 59.8515 0
22.8836 59.0508 0
26.1731 60.2421 0
24.5559 61.4692 0
20.9961 60.2407 0
21.0659 58.2135 0
24.5779 56.08 0
26.125 56.88 0
31.9973 56.4503 0
32.9558 55.8329 0
33.4356 54.7859 0
31.9171 53.7718 0
84.9757 44.2942 0
83.0682 45.134 0
83.1257 42.8436 0
71.117 54.4711 0
70.5469 55.5342 0
69.6912 54.1346 0
69.0356 53.2074 0
71.8434 52.921 0
78.5847 52.8214 0
78.0315 54.7533 0
76.3905 53.5782 0
75.1844 52.2086 0
78.614 50.1324 0
23.2424 55.0999 0
21.4524 55.8768 0
21.7406 53.9535 0
22.4095 51.8524 0
24.8667 54.1561 0
78.4676 48.4528 0
77.0701 46.6662 0
75.8916 45.7431 0
75.4723 47.3631 0
22.4106 44.9617 0
21.3027 46.9642 0
20.5392 45.0198 0
22.2309 48.7175 0
20.3595 48.7744 0
18.7112 45.0543 0
24.4527 44.91 0
72.3028 51.5784 0
70.7206 51.7286 0
69.6202 50.6245 0
71.5765 49.1468 0
75.4467 48.9833 0
76.7971 49.9662 0
75.5931 50.6638 0
73.8342 51.2252 0
74.2685 48.0598 0
25.4331 50.8543 0
25.0577 52.4075 0
23.9062 51.6236 0
26.3933 53.3867 0
22.7848 50.3 0
25.4108 48.9995 0
26.5622 49.7826 0
27.672 54.3001 0
27.8632 52.5507 0
29.4786 51.658 0
30.5517 52.9179 0
23.7278 48.4883 0
24.8571 47.4171 0
72.7113 50.0332 0
73.1077 48.7944 0
27.5892 57.6185 0
29.3394 58.0805 0
27.7983 59.0868 0
30.6264 57.1702 0
27.6665 55.8739 0
30.5073 54.3177 0
30.5015 55.8923 0
29.1362 55.0379 0
23.1752 63.0108 0
21.3498 64.6602 0
20.9876 62.7274 0
21.7063 67.2007 0
24.9173 63.4018 0
26.3895 66.6468 0
24.199 66.8976 0
25.7278 64.6927 0
24.861 68.8523 0
22.388 69.3122 0
14.936 44.651 0
12.9849 46.7986 0
12.6396 44.3241 0
13.5023 49.8448 0
16.6358 45.1062 0
18.318 49.2407 0
16.2433 49.2923 0
17.356 47.0734 0
58.401 8.06069 0
60.001 9.98274 0
79.5209 20.1385 0
77.0231 20.3219 0
69.2313 13.8186 0
67.5776 15.6738 0
37.1994 13.1771 0
34.8541 12.3328 0
72.2283 44.3226 0
70.3903 42.6286 0
36.7244 21.9044 0
37.3223 24.3246 0
46.0457 8.0379 0
45.1606 10.3764 0
1.824 10.3914 0
4.03116 9.21041 0
16.1353 3.9738 0
14.356 2.24383 0
37.8166 13.2459 0
37.7793 10.7484 0
72.2969 1.04845 0
69.8311 1.4227 0
65.3509 24.8996 0
65.8077 22.4508 0
17.0809 0.162093 0
19.0966 1.61413 0
30.7323 0.249539 0
29.0061 2.06345 0
20.1918 28.8134 0
18.0648 27.5138 0
87.2161 22.785 0
89.6975 23.1654 0
80.4386 11.7983 0
79.0235 9.74495 0
53.4927 14.1831 0
52.9664 16.6266 0
79.856 20.5455 0
77.3507 20.4845 0
95.4355 2.46123 0
96.8493 4.51839 0
40.4171 38.2367 0
38.2102 39.4067 0
34.3914 26.9149 0
35.0512 29.3167 0
88.3396 30.3304 0
87.73 27.9434 0
42.4545 31.7669 0
44.3322 30.1218 0
26.0885 12.7623 0
26.9211 10.4099 0
40.5644 37.3126 0
42.7928 36.1864 0
65.9052 38.4845 0
67.4356 40.4586 0
21.6803 36.3669 0
24.1717 36.5661 0
87.2994 17.9211 0
88.9315 16.0513 0
31.3149 9.82761 0
28.8851 10.4225 0
60.2742 8.12461 0
61.5719 10.2631 0
62.4131 9.2052 0
60.9643 7.16573 0
18.7635 6.9323 0
18.1851 9.33941 0
63.0395 43.6357 0
62.3489 46.0344 0
84.267 25.7076 0
83.5733 28.081 0
47.3541 44.0831 0
49.2169 42.4179 0
30.7325 4.66188 0
33.1071 5.42522 0
37.1817 2.14227 0
36.8783 -0.337137 0
39.507 0.378396 0
37.8412 2.24424 0
66.8386 34.3465 0
64.5835 35.4092 0
25.2602 21.2078 0
23.6888 23.1453 0
89.1945 30.0838 0
86.9345 28.9946 0
74.2726 9.9623 0
76.6535 9.22721 0
80.3424 12.7213 0
81.7463 14.7809 0
81.0859 16.8442 0
80.1693 19.1421 0
78.4025 10.6691 0
79.7482 12.7676 0
67.6491 27.3206 0
65.156 27.2064 0
62.4147 24.7263 0
59.989 24.1409 0
61.7064 24.5498 0
62.4759 26.9254 0
69.4953 32.7034 0
67.0109 32.4526 0
82.5759 12.4289 0
85.0237 12.9969 0
51.4564 17.9852 0
53.5332 19.3693 0
66.971 15.8469 0
65.1501 14.1304 0
20.0429 22.2816 0
20.4944 19.8444 0
53.059 23.88 0
52.9511 21.383 0
62.0652 33.77 0
64.0296 35.3128 0
67.9252 28.0822 0
69.889 26.5525 0
27.3769 19.2418 0
25.4467 17.6742 0
43.3801 3.80251 0
43.9094 1.36011 0
90.2354 10.2509 0
88.4358 8.51957 0
67.9488 36.6145 0
68.6277 34.2192 0
9.51441 8.17319 0
11.9739 7.68425 0
49.9622 6.39386 0
52.337 7.17537 0
81.1134 29.0475 0
83.0578 27.4925 0
43.15 19.8427 0
45.5396 20.5511 0
72.9952 25.4007 0
75.219 24.2751 0
59.298 18.3993 0
57.0551 19.486 0
94.8424 14.8596 0
92.4202 14.2123 0
8.7446 19.4108 0
11.2081 18.9297 0
17.4711 22.6422 0
15.8048 20.8011 0
16.9587 36.3067 0
18.1739 34.135 0
59.7766 41.7987 0
57.586 42.9956 0
84.6032 20.3183 0
84.6473 22.79 0
9.9028 20.0178 0
7.80176 21.385 0
16.8678 29.9008 0
15.2429 31.7823 0
46.6502 3.27062 0
48.1051 5.30358 0
57.7794 40.2131 0
55.7433 41.6564 0
67.5049 36.9064 0
69.5789 38.3014 0
68.3562 7.42498 0
70.2465 5.80504 0
24.81 8.47334 0
27.2372 9.03849 0
16.1262 15.448 0
15.2235 17.7599 0
96.9935 4.6367 0
94.5215 5.02131 0
25.2474 33.713 0
26.067 31.3613 0
16.8184 15.6436 0
17.9483 17.8451 0
86.8957 15.6311 0
88.6077 13.8312 0
26.9939 36.2741 0
28.2659 38.4114 0
45.062 36.9341 0
42.7679 37.9186 0
26.0021 33.5636 0
28.4789 33.2324 0
70.5332 15.8625 0
72.5028 17.4082 0
49.8259 47.5366 0
50.9703 45.3148 0
82.7579 18.2847 0
81.0773 16.4388 0
12.4036 5.58462 0
9.97699 4.98389 0
18.2967 2.64907 0
20.5317 1.51435 0
98.913 4.25859 0
97.7204 6.44035 0
80.285 37.2871 0
80.871 34.8788 0
48.5354 3.46534 0
48.4418 0.968662 0
46.0828 5.13208 0
43.9278 6.40128 0
61.1002 37.9196 0
59.0154 39.2895 0
81.2008 11.0598 0
81.7877 8.66427 0
79.3018 30.34 0
76.9764 31.2378 0
52.3965 7.987 0
50.9321 5.96098 0
25.917 29.8582 0
23.7841 28.5719 0
94.5741 17.4198 0
96.857 16.4101 0
29.5875 31.9876 0
31.8931 32.935 0
65.8328 4.28602 0
65.8049 6.7845 0
53.2602 1.76991 0
51.4523 3.49852 0
14.5699 9.03504 0
15.099 6.61746 0
7.21342 18.8038 0
5.01446 17.6275 0
61.2084 40.2025 0
59.8923 42.323 0
74.2027 7.22986 0
73.7967 4.76805 0
23.5984 30.1808 0
23.839 27.7082 0
78.8004 6.86546 0
76.6414 5.5808 0
79.0352 11.2428 0
81.1543 12.5845 0
7.6308 2.52778 0
5.12998 2.5996 0
76.4388 15.891 0
74.4553 14.3592 0
47.9022 9.20315 0
49.6885 10.9501 0
80.0448 2.02703 0
82.5039 1.58018 0
29.1909 29.8215 0
27.2382 28.2779 0
70.9607 16.2691 0
71.515 13.849 0
4.50698 13.5423 0
6.46536 11.9855 0
40.5485 0.0739945 0
39.5145 2.34924 0
60.4046 12.2479 0
59.8321 14.6781 0
41.203 3.41311 0
39.1678 4.86824 0
33.6667 29.3255 0
36.1544 29.5071 0
33.2078 20.8478 0
32.9882 18.3663 0
79.5929 15.4858 0
80.1466 17.9029 0
72.6473 34.5796 0
70.512 33.281 0
56.7286 8.13453 0
54.322 7.46051 0
44.5377 8.76075 0
43.2102 10.8798 0
82.5652 16.4574 0
83.6814 14.2495 0
11.5871 0.311546 0
10.6874 2.62976 0
78.0067 16.0581 0
80.0402 17.52 0
59.4341 2.87483 0
60.7546 4.99842 0
72.3078 1.17636 0
72.2027 3.67057 0
66.8225 2.56952 0
68.1218 0.424881 0
13.3249 3.75381 0
15.1477 2.04953 0
71.9523 26.4237 0
74.408 26.8872 0
16.8481 17.4231 0
15.4374 19.4751 0
72.2029 38.1774 0
72.1244 35.69 0
43.4875 20.6284 0
41.2276 21.6882 0
57.252 19.0997 0
57.5169 21.5844 0
64.6694 28.649 0
67.1497 28.3841 0
24.6735 31.7601 0
27.0785 31.0813 0
50.1166 28.6289 0
49.1092 30.914 0
59.8017 37.0257 0
58.5367 34.8716 0
22.467 28.9436 0
24.8811 28.299 0
39.7062 35.7437 0
37.2578 36.2303 0
5.88824 10.0367 0
3.85793 11.499 0
54.7969 20.6291 0
56.8265 22.083 0
68.4975 19.517 0
68.8071 17.0474 0
42.0179 42.525 0
42.7809 44.9035 0
19.1019 24.4469 0
16.9525 25.721 0
69.2696 4.04166 0
66.9259 3.16291 0
18.7355 12.7626 0
19.4379 10.3857 0
97.8451 0.547259 0
97.0372 2.89357 0
21.3122 0.587464 0
21.7837 2.99035 0
13.4342 5.95272 0
14.5742 8.14936 0
94.835 5.78964 0
95.3597 3.36489 0
58.6676 11.455 0
59.4656 13.8246 0
26.7418 39.7795 0
25.2403 41.7742 0
62.4163 18.596 0
64.5218 17.2662 0
9.51227 7.72195 0
11.9291 7.0564 0
44.2872 17.9245 0
41.9038 18.6633 0
89.0324 10.7786 0
91.4996 10.3458 0
65.4877 41.4395 0
63.0632 40.8335 0
51.2694 34.2276 0
53.6772 33.5787 0
12.7415 8.54466 0
14.736 10.0346 0
75.0389 18.3192 0
72.5434 18.1189 0
69.1501 26.2749 0
69.6043 28.7247 0
19.5812 11.7372 0
21.8459 12.7841 0
36.9008 39.8654 0
34.4958 39.1968 0
29.3327 28.1312 0
30.9475 30.0237 0
12.3822 19.5053 0
13.5821 17.3254 0
42.0397 42.9695 0
39.6469 43.6883 0
34.2167 5.00633 0
33.7301 7.45927 0
94.9679 17.0168 0
93.8843 14.7719 0
53.7715 26.1024 0
54.3505 28.5325 0
68.2805 36.1297 0
67.509 38.4974 0
71.2335 36.8472 0
69.2947 38.4116 0
30.4823 15.4154 0
32.638 16.6577 0
62.749 7.90367 0
65.2309 8.19078 0
52.3916 17.149 0
51.1239 19.3012 0
68.8573 3.50568 0
68.9108 6.00492 0
24.0173 7.665 0
26.0567 9.07137 0
31.7869 14.5189 0
33.5036 16.3187 0
72.447 5.90623 0
74.7185 4.92576 0
47.2256 15.065 0
45.6859 17.0332 0
36.6703 41.6452 0
38.7026 40.1915 0
22.8237 10.3586 0
24.4641 8.46593 0
22.9785 37.5726 0
25.3615 36.8094 0
79.5405 20.3786 0
81.7949 21.4712 0
80.4348 16.0235 0
78.1563 14.9728 0
68.166 34.0368 0
68.4148 36.5165 0
32.7956 26.7942 0
35.023 27.91 0
49.0961 3.41696 0
47.4563 5.30467 0
34.1908 40.438 0
32.8265 42.5297 0
47.6814 12.3996 0
48.2022 14.8446 0
50.2581 18.6165 0
51.6294 16.5286 0
33.8422 30.4607 0
34.5281 28.0624 0
2.33868 13.7848 0
4.82676 14.0542 0
40.0917 40.045 0
40.8338 42.4289 0
10.1187 16.0971 0
9.50481 18.5027 0
32.9455 15.9482 0
31.9043 18.2195 0
43.2482 0.776202 0
45.6683 0.125955 0
37.1341 36.6507 0
39.3747 35.5477 0
81.2524 10.029 0
81.7504 7.6146 0
30.4391 3.51451 0
28.2951 4.81157 0
49.4056 1.17588 0
47.6073 2.91477 0
60.7609 31.0682 0
62.535 32.826 0
26.1866 37.0695 0
24.5148 35.2283 0
33.9172 3.05881 0
36.4067 3.28249 0
46.8711 28.8832 0
45.8492 31.1623 0
19.4939 35.9966 0
21.2138 37.7906 0
56.1124 28.0805 0
58.6053 28.1173 0
92.8418 9.43508 0
95.2618 10.0853 0
22.1027 28.8741 0
24.573 29.2358 0
48.2807 17.5207 0
50.7273 18.0009 0
28.8242 21.5266 0
27.7698 19.2781 0
88.6639 17.955 0
91.022 18.8141 0
85.3187 15.4428 0
82.8123 15.5694 0
59.5423 45.0107 0
60.8274 47.1547 0
89.5346 2.51547 0
89.7479 4.98603 0
95.4783 9.76997 0
93.382 8.40364 0
64.4542 41.2581 0
62.971 43.2642 0
56.0106 25.8724 0
58.3282 24.9561 0
71.0419 1.76849 0
71.0329 4.26697 0
51.4177 11.6228 0
50.5037 9.29582 0
58.3227 27.649 0
57.6488 25.2437 0
9.31455 7.82562 0
7.7684 5.88141 0
51.6885 13.2321 0
49.211 12.9364 0
49.7141 24.1669 0
50.1423 26.6285 0
72.5827 28.2235 0
70.1817 27.5317 0
81.2802 36.1582 0
78.9689 37.0972 0
80.7557 18.1745 0
81.4074 20.5666 0
63.0479 6.14287 0
60.7642 5.12413 0
49.6095 11.5991 0
47.1196 11.4298 0
44.4818 28.3055 0
42.0311 28.7665 0
88.6472 7.7834 0
88.1152 10.1993 0
72.3033 6.26132 0
71.0079 8.37809 0
87.6992 13.8554 0
88.6439 16.1528 0
36.5698 40.6811 0
38.2882 42.4904 0
62.5624 3.43909 0
63.7474 1.23902 0
39.9583 14.9188 0
40.1015 12.4238 0
19.3823 6.39229 0
21.5276 5.08826 0
36.364 45.6477 0
38.7269 46.4629 0
34.5904 31.1476 0
32.359 32.2701 0
58.9031 19.3625 0
60.6918 21.1073 0
78.2423 16.0875 0
75.8133 15.4571 0
15.8855 28.7815 0
17.2432 26.7046 0
80.5552 1.65522 0
78.1472 2.29635 0
37.65 41.4837 0
35.1684 41.7744 0
84.0638 21.2858 0
84.5515 23.7124 0
86.5734 7.29382 0
86.23 4.84311 0
44.7627 5.82915 0
46.5621 7.56333 0
84.1525 19.6434 0
84.0154 22.1114 0
71.943 17.4188 0
74.4279 17.1473 0
77.0976 24.8506 0
76.4885 22.4428 0
97.1653 15.2453 0
94.6998 14.8027 0
38.3565 23.4244 0
40.4381 22.0444 0
40.9092 1.55766 0
39.8497 3.82189 0
60.162 22.3188 0
57.832 21.4242 0
23.1199 0.899888 0
24.5941 2.87158 0
71.8906 32.0319 0
69.4275 32.4301 0
44.2102 38.0039 0
42.2651 39.571 0
34.1357 4.20977 0
35.5942 6.23428 0
19.9621 15.4793 0
21.7171 17.2358 0
1.46875 8.33879 0
3.15943 10.1697 0
85.5953 24.8666 0
87.7234 23.5695 0
82.6809 14.7841 0
80.2474 14.163 0
60.7719 3.06978 0
60.1674 5.49402 0
17.3083 24.1485 0
15.8098 22.1715 0
51.8041 38.6871 0
50.5932 36.5025 0
59.7296 46.6479 0
62.0307 45.6733 0
81.6835 19.0942 0
81.9757 21.5518 0
60.0498 14.9181 0
57.6431 14.2541 0
21.6191 24.3315 0
21.5129 26.8091 0
50.558 36.4689 0
51.5004 34.1559 0
68.8116 23.9589 0
66.7492 22.5469 0
85.3819 31.8686 0
83.0397 32.7134 0
10.0128 12.6708 0
7.94771 14.0864 0
90.6849 3.17537 0
88.5839 1.81997 0
85.5634 8.41943 0
87.7255 7.17628 0
32.9715 40.2554 0
33.1327 42.7427 0
16.5716 0.839816 0
18.9323 1.64641 0
80.3963 27.3883 0
82.3419 25.8337 0
21.4222 10.9727 0
19.7358 9.15852 0
93.5377 17.057 0
91.2382 16.0574 0
19.4221 35.4887 0
19.2849 33.0128 0
17.9994 35.1206 0
20.2533 34.0366 0
76.6148 11.9963 0
75.0433 13.9099 0
20.8986 4.68696 0
18.5476 3.85751 0
26.3455 33.6303 0
24.1925 32.3787 0
55.3269 6.85916 0
57.4768 5.58566 0
69.3523 3.69859 0
70.4243 5.9617 0
22.4277 16.9377 0
21.7305 14.5653 0
89.5057 6.13093 0
87.0003 6.10961 0
60.1616 4.05562 0
57.6725 3.8004 0
86.6851 11.2927 0
84.2742 10.5919 0
80.9083 22.4217 0
82.0892 20.2444 0
69.7598 32.2932 0
68.9591 29.9321 0
42.4539 48.7333 0
40.5305 47.1368 0
30.6716 29.2134 0
31.5945 31.5238 0
19.9499 37.3168 0
20.2647 34.8539 0
64.2212 5.45226 0
62.4841 7.24375 0
91.4411 1.96771 0
90.9882 4.405 0
85.7641 10.0837 0
87.245 12.0877 0
16.1082 1.26966 0
14.0656 2.70687 0
71.9306 36.4262 0
74.3527 35.823 0
14.9006 16.1778 0
17.3334 16.772 0
85.827 30.7068 0
87.5175 32.5229 0
8.1194 21.9783 0
10.6222 21.8279 0
49.9337 35.3725 0
52.4207 35.1858 0
9.11119 20.4645 0
10.8323 18.6511 0
62.5161 31.7404 0
60.252 32.7828 0
37.5418 6.61212 0
39.0246 4.59799 0
9.75218 9.16882 0
11.9333 7.93891 0
60.1321 25.7685 0
57.6403 25.8493 0
32.8632 17.009 0
33.8103 19.3103 0
92.6364 11.4384 0
92.9632 13.8993 0
50.0439 4.18527 0
52.1276 5.56848 0
21.7784 11.7425 0
23.2484 13.733 0
16.4383 4.8858 0
18.7575 3.93924 0
38.9612 33.5528 0
41.0946 32.256 0
2.02993 4.9737 0
2.94567 2.65835 0
17.4362 17.0096 0
16.4098 19.2714 0
81.4473 37.3565 0
82.4616 35.096 0
72.8908 12.4102 0
74.7276 10.7449 0
66.3064 41.2193 0
63.9169 41.9448 0
63.7245 26.2354 0
65.7079 24.7298 0
49.8631 5.83554 0
48.3251 7.80625 0
60.1721 40.4917 0
62.3939 41.6345 0
23.4026 10.7744 0
24.5095 12.9847 0
60.0723 31.0065 0
61.0184 33.3175 0
85.0406 22.2879 0
87.549 22.2353 0
74.5549 19.644 0
72.1277 19.0279 0
56.0432 12.1549 0
58.4823 12.6879 0
61.6872 4.02706 0
60.6473 1.75381 0
60.7159 47.2545 0
58.2177 47.3537 0
50.6454 16.5722 0
50.9609 19.0522 0
26.1676 32.9951 0
27.1589 30.7087 0
43.706 22.3609 0
41.6567 20.9424 0
70.2236 18.365 0
72.6965 18.7453 0
72.5664 1.40133 0
72.7266 3.8948 0
33.4342 16.857 0
35.0696 18.7326 0
55.2468 3.27889 0
57.6907 3.81771 0
62.7152 26.7444 0
60.2215 26.7636 0
59.5533 35.2532 0
59.6969 32.7613 0
41.7502 31.0951 0
39.3718 31.8498 0
65.6896 33.5967 0
63.6681 32.1293 0
41.2877 35.9125 0
39.9844 38.0436 0
73.2069 29.5273 0
72.7767 31.9755 0
50.7626 39.9073 0
51.8553 42.1542 0
59.8132 9.82037 0
58.3194 7.8146 0
82.5468 19.8492 0
84.8541 18.8887 0
66.2788 0.511379 0
68.7791 0.292515 0
72.7528 32.4187 0
74.626 30.7807 0
66.5047 33.2906 0
65.2314 35.4312 0
67.8017 45.9842 0
68.5201 43.5984 0
63.7061 22.7805 0
64.8033 20.5448 0
80.4243 11.1822 0
82.0341 13.0905 0
31.0186 20.2414 0
30.0681 17.9447 0
25.3312 20.5001 0
26.9054 22.422 0
53.9801 28.4438 0
56.4597 28.1891 0
85.6983 28.1232 0
85.1778 25.7093 0
37.8912 1.58398 0
40.3759 1.90076 0
42.1133 29.2897 0
43.0971 26.9937 0
19.9792 35.1397 0
22.465 35.3914 0
84.4674 11.4533 0
86.9768 11.4093 0
30.499 1.09344 0
32.966 0.658853 0
61.9852 42.2021 0
59.8207 40.954 0
40.0361 13.2154 0
38.0461 14.7285 0
71.8873 28.9307 0
70.0427 27.2473 0
60.347 30.0351 0
59.5859 27.6568 0
6.58256 10.6261 0
5.71307 12.9577 0
33.6224 6.63043 0
31.9999 4.73847 0
57.2809 24.5055 0
59.7119 23.9567 0
61.7308 27.8002 0
59.2493 28.0399 0
12.9811 2.02537 0
15.1361 3.27212 0
72.4134 4.82495 0
69.931 4.54991 0
30.5168 6.05831 0
28.1256 6.79685 0
80.7955 3.70802 0
78.2894 3.78463 0
54.3789 35.7176 0
52.3712 37.1992 0
30.6095 14.0992 0
33.0302 14.6936 0
80.5758 9.11679 0
82.8691 8.12903 0
12.0468 31.3622 0
13.0228 29.1089 0
46.3769 5.11421 0
48.8276 5.61481 0
2.71904 5.30544 0
5.22178 5.20646 0
10.2036 9.51615 0
11.2088 11.7798 0
4.33058 17.8094 0
6.57982 16.7054 0
29.3941 8.30931 0
26.8977 8.29434 0
43.6852 1.79492 0
45.9965 2.75595 0
77.3445 2.74704 0
75.5709 4.45153 0
55.2047 26.529 0
57.4499 27.6173 0
24.8293 19.1696 0
27.0165 17.9497 0
12.8286 30.6984 0
14.0709 28.5622 0
13.7583 17.7568 0
15.6239 19.4006 0
31.5607 35.8187 0
33.6613 37.1606 0
85.1059 18.8337 0
85.4395 16.3851 0
54.9575 42.1389 0
56.1307 39.9344 0
56.8576 42.7935 0
54.3707 42.5661 0
69.3466 40.8638 0
68.4291 43.1791 0
81.617 5.18255 0
81.1814 7.60364 0
67.2873 28.5367 0
69.3771 27.1826 0
23.4033 28.062 0
20.9105 28.2341 0
76.5459 32.8829 0
74.6513 31.2566 0
40.3903 1.60336 0
41.9373 -0.361442 0
21.4855 3.4323 0
19.2744 2.30857 0
32.7385 27.8105 0
34.5416 29.5271 0
39.7499 2.05224 0
37.9667 3.80679 0
68.583 6.08581 0
66.5169 7.47752 0
7.17956 2.10229 0
8.72561 0.142096 0
59.0674 33.1934 0
57.1127 31.64 0
22.6743 35.1839 0
24.202 37.1438 0
76.6804 24.751 0
76.1302 22.3291 0
8.86754 16.6511 0
9.7157 18.9781 0
27.0442 16.5087 0
28.4673 14.4537 0
31.9579 36.7455 0
32.7899 34.3935 0
22.225 34.7013 0
19.9889 33.6037 0
73.3096 36.8626 0
71.9809 34.7506 0
15.0291 2.07589 0
16.9723 0.512104 0
52.2268 11.9377 0
52.0952 9.44056 0
33.8317 8.56439 0
32.6897 6.34919 0
24.9791 41.5477 0
27.3725 40.8146 0
57.57 12.3143 0
59.7909 11.1788 0
84.1699 34.9368 0
82.3591 33.2195 0
40.3997 46.909 0
38.8903 44.9183 0
18.0797 12.0761 0
20.5436 12.5307 0
92.7202 8.14251 0
94.4029 6.31063 0
81.3388 32.7903 0
80.6217 30.4123 0
38.8426 14.6337 0
38.7086 17.1285 0
28.5984 11.4135 0
29.9861 13.4709 0
51.9093 39.2978 0
54.3962 39.5069 0
86.5282 27.9011 0
85.868 25.5198 0
22.1645 2.29307 0
23.5698 4.30239 0
49.3541 2.96728 0
47.2317 1.64073 0
18.8736 19.5596 0
21.3603 19.865 0
2.0846 9.00159 0
4.27031 7.7823 0
20.2608 3.5568 0
18.8556 5.61067 0
62.9365 44.1836 0
65.1581 45.3302 0
34.5096 20.9947 0
36.5938 19.6152 0
94.5977 1.03027 0
93.9644 3.42848 0
49.7448 42.1703 0
49.3592 39.7015 0
58.6709 10.5939 0
56.3222 9.74177 0
36.6196 10.5225 0
34.338 11.5463 0
56.822 43.6298 0
56.7497 46.1278 0
2.4206 12.5783 0
1.7575 10.1798 0
82.4273 4.93205 0
83.3209 2.63127 0
37.6751 47.0702 0
35.4189 45.9949 0
65.9625 39.3026 0
68.2921 40.2097 0
24.6759 33.8625 0
27.1504 34.1941 0
68.4509 39.2129 0
70.8507 38.5251 0
13.8473 30.4296 0
12.2206 28.5628 0
58.8588 44.1964 0
61.293 44.7609 0
24.3334 5.53615 0
24.2052 8.01468 0
81.1081 20.76 0
78.7224 21.5105 0
29.8856 39.5038 0
29.5187 41.9682 0
23.7291 16.8972 0
21.4665 15.847 0
2.72113 8.20286 0
4.94887 7.06115 0
48.0297 30.6319 0
49.9852 29.0821 0
87.044 23.0121 0
84.6539 23.7518 0
34.6749 10.7366 0
32.3432 11.6428 0
47.5618 25.8105 0
46.1073 23.7825 0
67.4066 24.0989 0
65.4176 22.5859 0
58.2015 29.933 0
56.8607 32.0359 0
32.342 34.6776 0
34.6309 35.6665 0
57.4032 36.1328 0
56.0433 34.0375 0
26.6779 3.25064 0
28.7763 1.88158 0
11.1943 26.5014 0
12.7274 24.533 0
63.4952 32.8825 0
61.9018 34.7987 0
28.505 11.2504 0
26.058 11.7875 0
44.5064 45.5677 0
42.0084 45.6341 0
30.8598 14.2977 0
31.9901 16.5118 0
13.2024 1.81837 0
15.3314 0.508877 0
76.1119 14.8732 0
73.8517 15.9203 0
12.6678 6.49717 0
13.3175 8.88301 0
35.4794 4.75919 0
36.3485 7.09949 0
53.9906 17.4811 0
51.5364 17.9206 0
31.3233 8.33111 0
29.0194 7.39159 0
24.2971 6.53858 0
21.8007 6.7793 0
48.6113 3.42106 0
51.0495 3.98692 0
32.1778 13.616 0
32.1084 11.1235 0
1.57178 3.44883 0
4.05291 3.77131 0
62.8095 44.0743 0
60.4911 43.1411 0
42.6499 24.2556 0
40.1624 24.096 0
48.3483 30.5664 0
50.5227 31.7875 0
58.8675 35.1096 0
56.3827 35.3253 0
50.0162 46.384 0
52.0701 44.9613 0
26.9547 5.57673 0
26.3323 7.99806 0
43.5222 35.8502 0
42.1062 33.7963 0
52.8723 27.7619 0
50.9795 29.3866 0
60.9433 39.7648 0
62.0809 41.9888 0
46.9388 23.4655 0
45.6748 21.3129 0
19.2526 2.92878 0
18.5398 0.573985 0
48.2306 41.7055 0
49.1922 39.3993 0
47.8209 39.2956 0
45.3718 38.8176 0
73.2017 11.4033 0
72.676 8.96539 0
52.5216 17.6442 0
50.7815 15.8528 0
25.018 41.5986 0
27.5042 41.3101 0
51.9665 23.9029 0
50.5561 25.9629 0
25.8704 30.1459 0
28.2948 30.7322 0
5.34626 7.9826 0
2.86291 7.67219 0
20.9014 35.0558 0
18.7782 36.3773 0
31.9149 19.0143 0
34.1876 20.0331 0
30.1256 19.1058 0
27.7762 18.272 0
78.7126 17.3939 0
79.4481 19.7646 0
41.927 31.9514 0
42.4732 29.5147 0
44.7964 12.3566 0
45.2536 9.89805 0
44.2067 19.895 0
46.0515 18.2112 0
36.116 2.28031 0
35.7773 4.75538 0
94.4887 4.84617 0
95.3042 7.19805 0
41.9238 21.607 0
40.3763 23.5688 0
57.7668 25.9764 0
55.7301 24.5331 0
62.6782 26.7751 0
65.0835 27.4432 0
8.54554 15.5835 0
8.46952 18.0621 0
70.7998 30.7601 0
68.358 30.2342 0
45.8874 35.4904 0
46.1338 33.0049 0
87.0817 2.73299 0
88.7754 4.5646 0
22.5282 38.2982 0
22.8907 40.7547 0
66.2351 42.9523 0
64.2016 41.499 0
77.3303 11.8648 0
77.8657 14.2874 0
50.845 46.8043 0
49.1605 48.6508 0
14.901 13.3143 0
15.4057 10.8908 0
75.5932 18.8133 0
75.3812 21.2839 0
59.0464 45.3913 0
61.0995 46.8177 0
83.7423 9.39301 0
86.1954 8.88532 0
6.96068 1.79546 0
4.46084 1.88942 0
80.7258 18.8497 0
82.5349 17.1459 0
13.6038 0.198297 0
11.106 0.105042 0
14.9414 31.973 0
17.3177 31.2113 0
14.2027 12.7794 0
15.5784 14.839 0
66.7368 0.773015 0
64.2656 1.19225 0
72.2318 24.2833 0
71.2753 26.5771 0
52.0162 31.2204 0
50.0645 29.6665 0
29.3446 28.9806 0
28.0787 26.8408 0
76.0325 25.1894 0
76.2696 22.7201 0
88.1053 17.1567 0
90.3487 18.2785 0
56.5865 8.84556 0
54.2976 9.84345 0
30.6103 42.0937 0
32.0923 44.0976 0
49.5616 38.0373 0
50.1525 35.6099 0
33.5976 30.4334 0
35.8297 31.541 0
51.2932 19.9725 0
50.1619 22.1997 0
48.0103 19.9787 0
46.7664 17.813 0
56.3026 36.5229 0
54.2137 37.8868 0
27.9498 27.8248 0
28.5293 30.2422 0
32.5909 34.2662 0
33.2209 36.676 0
91.751 14.6533 0
93.5844 16.3543 0
6.67524 6.14426 0
6.3483 8.60693 0
30.611 35.5844 0
31.2822 33.1832 0
65.1863 34.6874 0
64.2544 36.9987 0
70.9075 2.07567 0
72.5127 0.174898 0
72.1787 24.8806 0
72.6583 22.4428 0
12.9582 14.5491 0
14.9644 16.0247 0
48.3599 3.23707 0
50.793 3.8249 0
17.3652 5.82283 0
17.5677 8.27858 0
6.47717 18.5187 0
3.9877 18.2701 0
31.8576 33.6959 0
32.037 36.1804 0
59.3114 32.6607 0
59.0163 35.1391 0
80.5598 24.2918 0
80.9403 26.74 0
96.0455 18.3463 0
96.465 15.895 0
81.6345 13.0665 0
84.1082 12.6612 0
31.4331 34.223 0
30.3571 31.9792 0
95.074 8.62273 0
94.2021 10.9476 0
92.6819 17.8331 0
94.9043 16.6994 0
25.3377 37.6978 0
25.0523 35.229 0
11.1348 27.0526 0
12.9534 28.733 0
25.2237 16.9554 0
22.7608 17.4252 0
33.0726 22.0641 0
35.5608 22.243 0
75.0708 22.8928 0
72.5711 22.9279 0
50.0605 27.3797 0
49.6804 29.8488 0
21.0045 18.5483 0
20.4943 20.9746 0
93.0866 7.20079 0
92.2632 9.54035 0
49.1254 47.903 0
47.6829 45.8624 0
60.2903 38.8501 0
62.1658 37.206 0
68.4872 12.4498 0
66.4323 11.0195 0
74.7404 11.3688 0
72.5696 12.5798 0
59.6047 41.6852 0
61.2408 43.5742 0
83.0175 11.9546 0
83.7023 9.58404 0
12.3054 9.71609 0
11.2202 7.48994 0
46.2389 42.8241 0
44.2376 41.3318 0
78.0924 4.13955 0
75.6266 4.52897 0
79.2219 34.4216 0
79.6787 31.9836 0
50.3179 26.099 0
47.8593 25.6906 0
15.9024 14.8462 0
18.3819 14.4464 0
24.6455 1.74739 0
27.1236 1.91005 0
21.7886 5.86131 0
23.7465 4.28937 0
38.4579 26.5639 0
36.0174 27.085 0
39.61 37.7444 0
37.1184 37.5999 0
20.4639 23.1083 0
19.0612 21.0617 0
55.8199 8.47019 0
53.5423 9.49497 0
30.8115 38.5226 0
33.2585 38.0141 0
56.7774 41.5712 0
59.2456 41.1984 0
59.0487 12.1995 0
61.4966 11.7197 0
84.7918 1.93678 0
82.4333 2.75229 0
54.681 35.5026 0
52.9146 37.2654 0
27.9184 39.1546 0
30.4132 38.9907 0
56.9029 32.3879 0
56.6148 29.9075 0
77.5959 21.1216 0
75.7114 22.7463 0
36.6945 36.3454 0
36.0563 38.7586 0
70.646 32.1931 0
68.1813 32.5816 0
48.9444 32.215 0
50.2819 30.1068 0
64.3622 19.1923 0
65.3676 21.4795 0
36.9367 30.3626 0
39.4304 30.4056 0
52.1017 2.83203 0
54.2111 4.17786 0
16.1366 26.785 0
13.9232 25.6314 0
28.8436 37.4591 0
26.3742 37.8529 0
66.2934 34.6058 0
64.7042 32.679 0
86.8469 13.6985 0
85.7541 15.918 0
79.8876 37.253 0
77.5882 38.2221 0
1.06182 9.62403 0
2.74963 11.458 0
22.3192 6.9442 0
19.8264 6.70507 0
28.0379 24.0039 0
25.5636 23.6613 0
48.7815 5.26538 0
46.4097 4.47028 0
39.4168 8.18787 0
37.1223 7.20598 0
13.1962 16.1008 0
11.7576 14.0817 0
35.2109 37.6642 0
33.3951 39.3803 0
76.1235 7.91302 0
78.1956 6.54543 0
38.8953 43.651 0
38.0843 41.2902 0
46.1952 9.30146 0
48.2305 7.851 0
39.9132 30.7712 0
37.4934 31.3811 0
37.3397 29.0162 0
36.6729 31.421 0
36.731 26.7528 0
34.2592 27.0981 0
30.6663 4.34376 0
33.0162 5.17999 0
71.816 31.7493 0
73.9902 30.5333 0
24.179 12.273 0
26.57 11.5137 0
33.2238 43.4681 0
35.5123 42.4611 0
26.1057 22.32 0
24.0852 23.791 0
5.62745 2.55526 0
6.55579 0.243632 0
94.4005 5.87399 0
96.8127 6.55067 0
53.405 18.7552 0
51.7017 16.9286 0
53.8035 45.2415 0
52.3224 47.2538 0
94.7433 5.22042 0
93.3363 3.15986 0
30.2515 20.9947 0
27.8051 20.5006 0
57.5071 1.97091 0
58.1158 4.39498 0
94.6262 11.4463 0
92.9839 9.56543 0
43.7259 7.03741 0
46.1875 6.60119 0
49.3934 42.1801 0
47.4358 43.7323 0
42.4324 27.1296 0
44.8405 26.4808 0
24.2681 22.4765 0
21.7933 22.1145 0
69.9757 33.9798 0
70.1417 31.4966 0
18.3875 13.421 0
20.6127 14.5486 0
9.4183 28.6349 0
11.7011 27.5886 0
62.0171 24.3375 0
60.7875 22.1625 0
81.7156 25.0144 0
79.2132 24.94 0
22.8544 29.1129 0
20.7353 30.4326 0
14.2563 29.4701 0
14.3697 31.9368 0
12.6258 12.9519 0
13.6593 15.1997 0
67.3512 22.6366 0
67.7983 20.1881 0
79.3116 21.7154 0
81.7249 22.3933 0
15.2744 21.5783 0
14.2066 23.8198 0
21.2635 13.4786 0
18.9074 12.644 0
44.908 44.8311 0
42.4125 44.7165 0
62.226 37.8894 0
60.8081 35.8329 0
59.6099 47.0858 0
61.9402 46.1819 0
39.9809 37.6169 0
42.4759 37.5675 0
55.7216 30.114 0
53.3851 29.2411 0
67.6146 40.5874 0
65.129 40.8379 0
71.0748 5.55345 0
73.5656 5.61945 0
80.9157 3.26547 0
80.8441 0.805029 0
59.688 6.9397 0
57.9454 8.72815 0
32.3883 19.3931 0
31.5866 21.7564 0
43.9565 32.3078 0
44.0676 34.8023 0
97.8235 14.1019 0
97.9768 11.617 0
74.0972 18.4417 0
72.1463 16.8732 0
77.0545 31.3973 0
76.3451 33.7766 0
55.9598 48.4846 0
56.3191 46.0113 0
40.1713 1.07543 0
37.7537 1.73107 0
72.0256 19.9336 0
74.5018 19.5956 0
41.8377 44.5376 0
44.3162 44.8485 0
87.0972 2.74023 0
86.5261 5.14661 0
19.3855 21.8483 0
18.9396 19.4155 0
17.5372 36.1331 0
16.3064 33.9839 0
26.0843 37.8764 0
24.1985 39.517 0
61.6704 6.18547 0
59.7013 4.64332 0
39.7404 29.9491 0
40.0552 32.424 0
63.263 5.41157 0
60.7922 5.78534 0
60.5813 6.53458 0
61.4353 4.18687 0
79.3062 36.7781 0
76.8705 37.3325 0
46.8284 23.2615 0
47.7846 20.9527 0
81.9559 12.281 0
79.4728 12.6212 0
17.6974 12.91 0
18.5171 15.2414 0
48.2102 40.4826 0
46.3975 42.2017 0
65.3605 19.6806 0
64.1339 17.5024 0
42.9302 39.8942 0
41.7531 42.0986 0
54.5024 16.8358 0
53.4312 19.092 0
22.9354 29.2582 0
25.3252 28.5288 0
23.2504 14.8405 0
20.8063 14.3045 0
92.343 7.7761 0
90.8229 9.74062 0
32.1558 31.947 0
33.621 29.9256 0
68.7069 28.434 0
68.9424 30.9138 0
97.681 2.41083 0
96.1971 4.40122 0
67.349 14.9058 0
69.8101 14.5009 0
78.3379 23.2397 0
78.7998 20.8065 0
37.5811 15.9153 0
35.2024 15.1715 0
68.9021 9.22963 0
69.46 6.80025 0
32.9572 20.1349 0
34.3013 18.0277 0
33.2897 31.515 0
34.9389 29.6397 0
87.8811 25.8853 0
89.8536 27.4313 0
84.2567 23.5671 0
86.6827 24.2072 0
38.5243 11.1011 0
36.0986 11.6981 0
65.6773 40.2331 0
63.5075 38.9935 0
37.6988 1.47825 0
35.5248 2.71675 0
75.4685 39.8007 0
75.9001 42.2509 0
67.3556 2.11027 0
67.1295 4.59889 0
71.9732 15.1075 0
70.1301 13.4119 0
63.3582 31.7889 0
65.8489 31.9459 0
39.5816 3.07917 0
38.8495 5.46951 0
46.2288 18.5966 0
47.795 16.6502 0
37.5239 38.6213 0
36.3145 40.8066 0
90.1855 7.2953 0
90.9093 4.92567 0
92.5956 20.0013 0
90.1898 19.2897 0
55.8891 19.12 0
56.1418 16.6339 0
22.878 18.7142 0
21.4982 20.789 0
32.7477 15.9482 0
34.5296 17.6842 0
72.9626 38.2257 0
73.3184 35.7648 0
61.7373 40.5999 0
63.1692 42.647 0
27.4721 32.7526 0
29.7663 31.762 0
27.656 16.5264 0
25.812 14.8628 0
39.4898 2.28298 0
37.4628 3.75023 0
18.6367 28.3503 0
17.8053 26.016 0
73.4939 2.60101 0
75.2279 0.840612 0
75.7669 41.9044 0
73.2684 42.0413 0
57.3516 43.767 0
54.9313 43.1481 0
27.2583 8.96111 0
28.8895 10.8285 0
24.2112 7.74798 0
23.0488 9.95691 0
76.6093 41.3907 0
74.5002 42.7233 0
30.3882 38.4089 0
32.0714 40.2458 0
47.7322 27.3277 0
48.5138 29.6994 0
78.4298 6.93197 0
80.9139 6.6119 0
76.0028 10.3124 0
76.2676 12.7789 0
69.5178 33.9358 0
68.9044 31.5199 0
77.7162 16.9934 0
79.7014 18.5178 0
84.4658 32.3845 0
85.6372 34.5741 0
64.894 34.2801 0
64.2106 31.88 0
32.4166 10.0571 0
29.9208 10.017 0
29.5307 44.257 0
31.8242 45.2477 0
20.0803 28.9068 0
22.5413 28.475 0
45.1539 28.1706 0
47.3619 27.0098 0
19.3035 33.6735 0
20.5785 31.5346 0
66.1243 9.23349 0
66.1516 6.73555 0
61.7095 1.5315 0
64.0673 0.685102 0
80.9526 1.38484 0
79.8131 3.55679 0
40.5931 47.3326 0
38.0957 47.206 0
58.7937 25.8929 0
59.6114 28.2529 0
14.8193 23.2987 0
16.9218 24.6387 0
4.09343 14.3994 0
6.14189 12.9612 0
84.265 21.5571 0
82.6371 19.6683 0
8.18134 0.605299 0
5.72086 0.18068 0
75.4256 19.9538 0
73.0747 20.791 0
52.4317 9.69685 0
50.7794 7.82152 0
43.3122 5.59228 0
45.7105 4.8819 0
39.2668 2.62617 0
37.8573 4.69203 0
3.31471 8.62569 0
0.875914 8.06848 0
87.8972 12.0604 0
88.221 14.5155 0
39.7037 11.1587 0
37.4389 10.1152 0
57.9427 7.14501 0
56.0208 5.5447 0
16.2745 26.6862 0
13.7854 26.9782 0
52.5476 5.16273 0
55.0211 5.53452 0
89.8417 6.94228 0
92.2261 7.71332 0
93.5093 4.63138 0
91.8584 2.75786 0
95.0977 0.408555 0
96.8654 2.17845 0
16.0685 29.1889 0
18.4354 28.3932 0
62.4833 9.38347 0
61.7741 11.7774 0
18.5819 7.12334 0
17.9405 4.74892 0
70.184 44.8884 0
67.8033 44.1179 0
79.6792 8.29517 0
80.5719 5.9963 0
91.9036 15.6061 0
89.7443 14.3349 0
59.5354 8.56341 0
59.3381 6.07082 0
21.4137 28.338 0
23.7167 29.2947 0
24.8683 41.8008 0
26.3725 39.8082 0
22.3836 13.1551 0
24.5845 14.3179 0
9.8525 12.033 0
11.033 9.8431 0
33.5184 45.163 0
34.4795 42.8594 0
67.6104 35.6339 0
69.8741 36.6937 0
25.3473 10.5706 0
26.8599 8.57244 0
84.0102 24.3624 0
82.6712 22.268 0
87.5782 2.03219 0
89.3621 3.77854 0
51.1087 40.7185 0
53.4432 41.6043 0
82.2002 9.35617 0
80.1104 7.96858 0
65.1045 14.3555 0
66.1077 16.6456 0
42.9473 6.52822 0
42.7618 4.03589 0
53.5125 5.24507 0
55.4275 3.63779 0
44.3478 38.6346 0
42.8805 40.657 0
90.5917 10.7942 0
92.5678 9.27749 0
23.2714 16.7406 0
24.8071 18.6891 0
23.7777 9.96 0
23.8168 7.48227 0
60.7073 35.4607 0
60.9467 37.9459 0
44.6444 0.954562 0
42.288 1.80333 0
78.2798 24.0887 0
79.0159 21.7229 0
68.8548 37.6357 0
68.7488 35.1466 0
27.5564 6.31732 0
29.4596 4.68349 0
58.9251 13.0017 0
59.0164 15.499 0
57.7167 9.27497 0
59.645 10.8663 0
51.758 19.2606 0
54.1674 19.9041 0
50.6766 37.9117 0
48.1816 37.9104 0
47.4675 22.5707 0
46.4183 24.8383 0
22.641 20.9357 0
22.8494 23.4056 0
81.027 2.0969 0
78.5671 1.58334 0
95.2791 4.85366 0
95.4295 7.33386 0
48.38 40.8663 0
46.785 42.7896 0
26.3828 16.4837 0
25.2438 18.7019 0
89.3191 21.3739 0
88.3511 23.6484 0
43.8427 3.33133 0
46.1144 4.37785 0
53.2801 27.5836 0
55.5135 28.695 0
78.2786 8.24982 0
79.947 6.42116 0
13.6822 13.9281 0
16.1831 14.1325 0
54.0793 47.2277 0
53.9831 44.7302 0
52.4098 5.74064 0
49.9861 5.12268 0
54.106 40.2817 0
51.8106 41.2623 0
8.32852 21.825 0
6.37634 23.3951 0
11.1363 27.4908 0
8.64275 27.3164 0
49.7344 46.9117 0
47.2356 46.9399 0
43.5676 18.1081 0
45.911 18.9581 0
28.4305 43.1722 0
27.747 40.7797 0
87.1114 31.2512 0
86.3992 28.8926 0
85.7879 22.3019 0
86.6553 19.9873 0
85.978 0.78623 0
88.414 1.36298 0
83.4977 35.408 0
84.5222 33.1568 0
24.1713 32.4052 0
25.7373 30.4631 0
45.6029 41.9877 0
47.1186 43.9726 0
21.4175 34.6784 0
23.6964 33.6497 0
6.26175 12.0426 0
4.34678 10.4485 0
34.5528 14.4592 0
36.1643 12.5453 0
31.2797 45.6396 0
33.0086 43.8352 0
18.2986 22.7937 0
20.7186 23.428 0
10.2924 22.4061 0
11.9933 20.5752 0
50.2245 7.33633 0
47.8895 6.44314 0
47.5004 30.5106 0
45.1716 29.6217 0
38.8779 20.7323 0
41.2852 20.0745 0
43.5992 9.68314 0
41.3953 10.8614 0
77.475 36.6603 0
79.2439 34.914 0
39.9134 8.66155 0
39.0864 11.0215 0
74.8578 40.0827 0
73.6012 37.9277 0
60.7792 11.5797 0
58.9088 13.229 0
96.2677 12.4778 0
94.0425 11.3284 0
43.7759 25.0726 0
41.2831 25.0888 0
54.2764 42.5818 0
56.7487 42.2336 0
84.5633 23.3573 0
82.06 23.4954 0
2.49608 9.57155 0
4.563 8.16192 0
82.1256 4.89807 0
84.6164 5.179 0
36.5748 16.182 0
38.694 17.4919 0
44.0139 9.11904 0
42.0287 10.638 0
21.2243 26.2607 0
22.2277 28.5308 0
43.0668 26.9423 0
45.3781 26.0039 0
15.0576 19.4797 0
14.887 21.947 0
20.1626 8.49448 0
21.0272 6.16431 0
12.2493 24.6565 0
10.9821 22.5326 0
49.8772 41.2314 0
48.6869 39.0353 0
9.60534 24.2934 0
9.41714 26.7676 0
35.1005 43.7478 0
32.8875 44.9123 0
13.4102 18.1832 0
11.2173 16.9928 0
12.2767 23.6381 0
12.7087 21.1996 0
84.2114 17.2894 0
84.0542 14.8213 0
97.1222 15.3931 0
94.9169 14.2072 0
76.1643 36.4571 0
77.5561 38.5274 0
4.71359 2.93068 0
2.25584 3.41445 0
13.924 26.6083 0
11.4311 26.3484 0
9.89678 5.15608 0
8.62645 7.29785 0
87.0161 9.91444 0
86.7082 7.45872 0
50.8081 18.6809 0
49.8851 16.3584 0
22.8307 2.89505 0
23.4982 0.483536 0
24.0684 40.1423 0
21.5873 39.8226 0
4.2903 10.4779 0
1.87917 11.1565 0
73.9773 27.8746 0
72.4092 29.8046 0
51.6068 16.3292 0
49.4406 17.5674 0
94.6994 5.49477 0
96.5783 7.14475 0
92.4087 0.895933 0
90.0109 1.58568 0
54.6752 27.7829 0
56.9987 28.6907 0
3.92421 2.10195 0
2.79662 4.32558 0
25.6257 41.7879 0
28.1114 41.4974 0
24.3281 32.962 0
25.7938 34.969 0
64.8499 37.6011 0
63.0361 35.8831 0
45.7878 38.7303 0
46.334 36.2923 0
59.134 39.1666 0
58.3324 41.5311 0
42.8496 19.2023 0
41.65 17.0145 0
48.5273 16.6766 0
47.4695 14.413 0
92.8833 4.84072 0
91.3617 6.80383 0
17.6589 6.55744 0
16.0817 4.64762 0
31.5808 30.4862 0
33.0956 28.5018 0
49.5585 44.9193 0
50.5156 47.228 0
51.6915 13.6 0
49.2487 14.1069 0
35.2068 5.36565 0
34.5592 7.78143 0
90.7036 7.71761 0
90.2701 10.1554 0
55.2531 45.5433 0
54.0029 43.3787 0
16.7318 18.0791 0
18.9214 16.8587 0
14.6106 7.02175 0
14.2713 4.57431 0
24.3207 34.1448 0
21.8288 34.3387 0
62.6037 33.3869 0
60.6392 34.9211 0
11.5586 19.575 0
13.6688 20.9003 0
76.8346 0.345072 0
74.3563 0.210467 0
59.9009 25.8587 0
57.6514 24.7774 0
70.435 26.8614 0
67.9508 27.0993 0
46.2359 22.6179 0
46.9804 20.232 0
76.5733 3.78721 0
74.178 4.42784 0
47.8527 14.9298 0
50.1328 15.9423 0
88.1826 13.5081 0
89.9608 11.7705 0
71.0378 -0.0167402 0
73.3403 0.9586 0
56.2758 45.4765 0
57.2044 43.1575 0
68.1787 3.14989 0
65.9585 1.9956 0
22.8715 17.541 0
24.7907 15.9336 0
81.1703 38.4887 0
83.1461 36.973 0
49.412 2.78765 0
51.1131 4.62058 0
66.0266 3.20575 0
63.6964 2.29797 0
53.2956 11.9779 0
53.0632 9.48822 0
12.6013 15.3438 0
10.7816 17.0583 0
43.1736 4.49567 0
43.6217 6.95429 0
56.1496 20.4046 0
58.5946 20.8978 0
60.8191 22.211 0
58.3442 21.9004 0
28.8542 27.0272 0
27.0382 25.3266 0
40.7082 6.77499 0
38.2336 7.11701 0
17.3979 2.33569 0
19.8815 2.00549 0
42.8548 25.6686 0
40.3833 26.0006 0
7.01468 17.6391 0
8.34783 19.7318 0
20.3102 11.9058 0
22.1556 10.213 0
67.3792 39.8482 0
65.473 41.4562 0
45.1317 41.3358 0
45.9858 43.6832 0
70.7769 17.1074 0
73.1598 16.3701 0
88.2941 4.85298 0
90.0368 6.63956 0
49.8863 20.0018 0
48.1666 21.8117 0
56.3455 37.5266 0
56.3478 40.0248 0
82.3335 25.8841 0
80.809 27.8458 0
39.5743 4.27749 0
41.5649 5.78651 0
55.1601 43.394 0
56.9998 41.7062 0
55.3735 43.2789 0
57.0526 41.4311 0
25.0765 15.2729 0
23.2549 13.5893 0
14.394 27.6709 0
13.5665 29.9964 0
52.9955 16.8745 0
51.1943 18.6024 0
32.5431 42.6478 0
34.8933 43.494 0
19.7212 10.7923 0
21.4827 12.5379 0
61.5058 40.9585 0
63.7391 39.8451 0
32.9922 27.2987 0
31.0466 28.8653 0
31.0413 21.0584 0
32.0132 23.3476 0
72.0247 27.2961 0
71.1943 29.6393 0
38.1019 12.9484 0
40.5725 13.2902 0
47.3038 47.7912 0
45.4847 46.0783 0
70.5915 11.4112 0
70.4528 13.8963 0
98.6838 10.1711 0
96.6195 8.75759 0
96.4837 15.8817 0
93.9806 15.9375 0
58.9403 10.0701 0
59.6729 12.4607 0
54.9853 18.2185 0
56.4637 20.2331 0
53.9036 41.4759 0
56.3649 41.0607 0
5.03152 4.41796 0
7.51417 4.09354 0
84.4934 18.7206 0
86.8215 19.6583 0
19.3262 30.0894 0
19.5518 32.5589 0
64.3884 35.6545 0
63.1406 33.4914 0
66.4498 23.3612 0
68.9447 23.2846 0
60.3655 25.31 0
62.6572 24.3326 0
55.9037 21.0065 0
57.5934 19.1723 0
21.6053 36.1967 0
19.1106 36.3921 0
55.937 32.1676 0
58.3652 31.6034 0
67.9566 1.57517 0
70.1397 2.80105 0
16.2158 6.23366 0
17.6134 4.18067 0
91.8045 24.1549 0
91.1237 26.5361 0
89.1998 19.0773 0
86.7254 18.6495 0
88.0954 12.5419 0
86.5311 14.4679 0
76.3838 18.7657 0
77.5804 16.5967 0
70.9755 20.8707 0
70.0636 23.1823 0
26.6611 25.3719 0
25.4439 27.5465 0
55.7899 26.192 0
55.5433 28.6768 0
59.1578 42.9279 0
57.5177 44.8108 0
66.1932 18.6343 0
68.2363 17.2135 0
81.2277 33.4269 0
79.69 31.4658 0
50.4279 8.85874 0
49.7704 11.271 0
26.103 27.3726 0
24.0714 28.825 0
49.6503 27.1522 0
49.8899 24.6649 0
89.2858 25.3925 0
91.7876 25.3316 0
78.9377 31.9653 0
76.6085 32.8528 0
76.1728 37.2718 0
76.6087 34.8269 0
22.6814 1.43747 0
23.5205 3.75567 0
17.2439 11.8961 0
15.7606 9.91342 0
76.5043 35.6274 0
78.3649 33.9777 0
25.5446 42.6281 0
23.7632 40.8873 0
24.9573 3.49122 0
23.1361 1.83909 0
86.8786 24.3561 0
85.0233 22.6833 0
84.0348 33.3437 0
83.1459 31.0259 0
67.9893 9.04088 0
65.8918 7.6729 0
6.41536 3.77878 0
4.64071 5.53881 0
88.4923 7.24033 0
89.3752 4.92688 0
68.0652 40.6837 0
69.8989 38.9961 0
33.6135 18.7343 0
33.5154 21.2255 0
18.4126 18.2781 0
20.018 20.1706 0
51.0043 20.5138 0
51.9915 18.2186 0
81.1679 27.1112 0
78.9708 25.9236 0
33.6768 33.5391 0
31.4974 34.7607 0
42.091 36.5126 0
44.2777 35.3081 0
9.4769 8.07002 0
8.10383 6.00232 0
46.3971 8.90746 0
43.9227 9.24834 0
38.9259 45.6532 0
36.7443 44.4359 0
56.6676 44.6326 0
57.0787 42.1683 0
50.8192 7.64338 0
52.1402 9.76544 0
69.2929 9.48208 0
68.1789 11.7051 0
52.7844 10.526 0
53.9919 8.33784 0
87.9582 0.588711 0
87.4436 3.01006 0
87.5403 29.5623 0
88.4743 27.2872 0
27.8105 27.6939 0
29.3644 25.7408 0
41.1388 3.06859 0
43.5617 2.43877 0
47.3886 29.133 0
44.8972 29.0556 0
44.9109 23.027 0
42.4407 22.6954 0
57.5417 36.0518 0
55.6815 34.3858 0
79.9235 4.74119 0
81.3135 6.80688 0
32.9771 1.38658 0
31.3228 3.26356 0
37.9918 49.565 0
37.9151 51.1322 0
37.9151 51.1322 0
37.7015 52.687 0
37.7015 52.687 0
37.3527 54.2174 0
37.3527 54.2174 0
36.8717 55.7115 0
36.8717 55.7115 0
36.2619 57.1581 0
36.2619 57.1581 0
35.5283 58.546 0
35.5283 58.546 0
34.6764 59.8648 0
34.6764 59.8648 0
33.7127 61.1044 0
33.7127 61.1044 0
32.6447 62.2554 0
32.6447 62.2554 0
31.4805 63.3091 0
31.4805 63.3091 0
30.2289 64.2575 0
30.2289 64.2575 0
28.8996 65.0935 0
28.8996 65.0935 0
27.5025 65.8107 0
27.5025 65.8107 0
26.0483 66.4037 0
26.0483 66.4037 0
24.548 66.8681 0
24.548 66.8681 0
23.013 67.2003 0
23.013 67.2003 0
21.455 67.3979 0
21.455 67.3979 0
19.8856 67.4593 0
19.8856 67.4593 0
18.3169 67.3841 0
18.3169 67.3841 0
16.7606 67.1728 0
16.7606 67.1728 0
15.2286 66.8271 0
15.2286 66.8271 0
13.7325 66.3495 0
13.7325 66.3495 0
12.2836 65.7438 0
12.2836 65.7438 0
10.8929 65.0143 0
10.8929 65.0143 0
9.57095 64.1667 0
9.57095 64.1667 0
8.3278 63.2073 0
8.3278 63.2073 0
7.17288 62.1434 0
7.17288 62.1434 0
6.11503 60.9831 0
6.11503 60.9831 0
5.16233 59.7351 0
5.16233 59.7351 0
4.322 58.4089 0
4.322 58.4089 0
3.60052 57.0147 0
3.60052 57.0147 0
3.00349 55.5629 0
3.00349 55.5629 0
2.53545 54.0646 0
2.53545 54.0646 0
2.20003 52.5314 0
2.20003 52.5314 0
1.99995 50.9749 0
1.99995 50.9749 0
1.93678 49.4069 0
1.93678 49.4069 0
2.01105 47.8396 0
2.01105 47.8396 0
2.22233 46.2852 0
2.22233 46.2852 0
2.56909 44.7555 0
2.56909 44.7555 0
3.04873 43.2622 0
3.04873 43.2622 0
3.65769 41.8175 0
3.65769 41.8175 0
4.39133 40.4323 0
4.39133 40.4323 0
5.24408 39.1177 0
5.24408 39.1177 0
6.20961 37.8845 0
6.20961 37.8845 0
7.28018 36.743 0
7.28018 36.743 0
8.44788 35.7029 0
8.44788 35.7029 0
9.70369 34.7754 0
9.70369 34.7754 0
11.0385 33.9687 0
11.0385 33.9687 0
12.4459 33.284 0
12.4459 33.284 0
13.9053 32.7027 0
13.9053 32.7027 0
15.4035 32.2374 0
15.4035 32.2374 0
16.9348 31.9002 0
16.9348 31.9002 0
18.4898 31.6953 0
18.4898 31.6953 0
20.0567 31.6251 0
20.0567 31.6251 0
21.6239 31.6907 0
21.6239 31.6907 0
23.179 31.8917 0
23.179 31.8917 0
24.7097 32.2268 0
24.7097 32.2268 0
26.2049 32.6936 0
26.2049 32.6936 0
27.653 33.2889 0
27.653 33.2889 0
29.0429 34.0086 0
29.0429 34.0086 0
30.3638 34.8474 0
30.3638 34.8474 0
31.6059 35.7988 0
31.6059 35.7988 0
32.7598 36.8556 0
32.7598 36.8556 0
33.8168 38.0098 0
33.8168 38.0098 0
34.7688 39.2526 0
34.7688 39.2526 0
35.6086 40.5744 0
35.6086 40.5744 0
36.3297 41.9652 0
36.3297 41.9652 0
36.9267 43.4142 0
36.9267 43.4142 0
37.3948 44.9104 0
37.3948 44.9104 0
37.7304 46.4422 0
37.7304 46.4422 0
37.9302 47.9977 0
37.9302 47.9977 0
37.9918 49.565 0
98.0634 49.4064 0
98.0002 50.9743 0
98.0002 50.9743 0
97.8001 52.5309 0
97.8001 52.5309 0
97.4647 54.0641 0
97.4647 54.0641 0
96.9966 55.5623 0
96.9966 55.5623 0
96.3996 57.0141 0
96.3996 57.0141 0
95.6781 58.4084 0
95.6781 58.4084 0
94.8377 59.7345 0
94.8377 59.7345 0
93.885 60.9825 0
93.885 60.9825 0
92.8272 62.1428 0
92.8272 62.1428 0
91.6722 63.2067 0
91.6722 63.2067 0
90.4291 64.1661 0
90.4291 64.1661 0
89.1071 65.0137 0
89.1071 65.0137 0
87.7164 65.7431 0
87.7164 65.7431 0
86.2675 66.3489 0
86.2675 66.3489 0
84.7713 66.8264 0
84.7713 66.8264 0
83.2393 67.1721 0
83.2393 67.1721 0
81.6831 67.3833 0
81.6831 67.3833 0
80.1143 67.4585 0
80.1143 67.4585 0
78.545 67.3971 0
78.545 67.3971 0
76.9869 67.1995 0
76.9869 67.1995 0
75.452 66.8673 0
75.452 66.8673 0
73.9517 66.4029 0
73.9517 66.4029 0
72.4975 65.8098 0
72.4975 65.8098 0
71.1005 65.0926 0
71.1005 65.0926 0
69.7711 64.2566 0
69.7711 64.2566 0
68.5196 63.3082 0
68.5196 63.3082 0
67.3554 62.2544 0
67.3554 62.2544 0
66.2874 61.1034 0
66.2874 61.1034 0
65.3237 59.8638 0
65.3237 59.8638 0
64.4719 58.545 0
64.4719 58.545 0
63.7382 57.1571 0
63.7382 57.1571 0
63.1286 55.7105 0
63.1286 55.7105 0
62.6475 54.2163 0
62.6475 54.2163 0
62.2988 52.686 0
62.2988 52.686 0
62.0853 51.1312 0
62.0853 51.1312 0
62.0087 49.564 0
62.0087 49.564 0
62.0703 47.9967 0
62.0703 47.9967 0
62.2701 46.4412 0
62.2701 46.4412 0
62.6057 44.9094 0
62.6057 44.9094 0
63.0738 43.4132 0
63.0738 43.4132 0
63.6706 41.9641 0
63.6706 41.9641 0
64.3917 40.5734 0
64.3917 40.5734 0
65.2314 39.2516 0
65.2314 39.2516 0
66.1834 38.0088 0
66.1834 38.0088 0
67.2403 36.8547 0
67.2403 36.8547 0
68.3943 35.798 0
68.3943 35.798 0
69.6365 34.8467 0
69.6365 34.8467 0
70.9575 34.0081 0
70.9575 34.0081 0
72.3472 33.2884 0
72.3472 33.2884 0
73.7952 32.6926 0
73.7952 32.6926 0
75.2905 32.2254 0
75.2905 32.2254 0
76.8216 31.8901 0
76.8216 31.8901 0
78.3765 31.6892 0
78.3765 31.6892 0
79.9434 31.6239 0
79.9434 31.6239 0
81.5105 31.6942 0
81.5105 31.6942 0
83.0657 31.8993 0
83.0657 31.8993 0
84.5975 32.2365 0
84.5975 32.2365 0
86.0957 32.702 0
86.0957 32.702 0
87.5537 33.2839 0
87.5537 33.2839 0
88.9622 33.9684 0
88.9622 33.9684 0
90.2973 34.7759 0
90.2973 34.7759 0
91.5525 35.703 0
91.5525 35.703 0
92.72 36.7424 0
92.72 36.7424 0
93.7908 37.8841 0
93.7908 37.8841 0
94.7561 39.1172 0
94.7561 39.1172 0
95.6089 40.4319 0
95.6089 40.4319 0
96.3426 41.8171 0
96.3426 41.8171 0
96.9515 43.2618 0
96.9515 43.2618 0
97.4311 44.7549 0
97.4311 44.7549 0
97.7779 46.2847 0
97.7779 46.2847 0
97.9891 47.8392 0
97.9891 47.8392 0
98.0634 49.4064 0
      </DataArray>
    </Points>
    <Cells>
      <DataArray type="Int32" Name="connectivity" format="ascii">
247 120 114 753 754 755 
213 114 214 748 749 750 
487 220 257 647 745 730 
257 115 260 741 742 743 
246 300 116 738 739 740 
212 116 247 731 732 733 
246 257 117 724 725 726 
299 117 312 719 720 721 
303 310 118 716 717 718 
248 118 256 711 712 713 
513 495 483 150 224 119 
507 513 483 151 119 184 
248 120 302 704 705 706 
221 258 121 1196 1197 1198 
259 121 313 1191 1192 1193 
464 430 432 332 409 122 
436 464 432 326 122 408 
346 1189 123 1186 1187 1188 
298 123 351 1181 1182 1183 
71 311 124 699 700 701 
65 124 372 692 693 694 
79 369 125 687 688 689 
684 125 309 680 681 682 
211 243 126 1178 1179 1180 
244 126 297 1173 1174 1175 
462 474 436 240 281 127 
438 462 436 294 127 327 
512 515 514 131 129 134 
513 509 511 130 132 135 
514 515 510 129 139 128 
508 514 510 148 128 147 
496 500 514 146 133 149 
513 499 495 136 145 150 
507 509 513 143 130 151 
505 491 497 141 142 154 
504 515 512 137 131 155 
174 503 511 1151 156 144 
512 514 500 134 133 159 
499 513 511 136 135 162 
494 515 504 138 137 165 
171 510 515 1164 139 166 
140 167 168 678 674 675 
167 492 168 672 661 674 
491 505 506 141 153 169 
177 498 497 656 164 170 
173 490 174 1156 1149 1171 
217 489 503 1126 176 175 
495 499 498 145 163 178 
501 500 496 158 146 179 
172 486 181 1162 1145 1169 
496 514 508 149 148 183 
480 481 140 227 152 187 
479 506 505 188 153 190 
477 505 497 191 154 193 
504 512 475 155 160 194 
472 511 503 161 156 197 
501 502 471 157 199 200 
500 501 470 158 201 202 
475 512 500 160 159 203 
499 511 472 162 161 204 
498 499 469 163 205 206 
497 498 468 164 207 208 
494 504 474 165 195 210 
211 493 171 1165 1161 1166 
167 180 212 667 668 669 
168 492 213 661 662 663 
214 488 177 657 653 658 
172 171 215 1158 1159 1160 
173 185 216 1153 1154 1155 
174 490 217 1149 1127 1150 
473 503 489 196 176 218 
177 488 219 653 643 654 
220 487 180 647 648 649 
182 181 221 1142 1143 1144 
496 508 115 183 222 747 
225 484 185 886 1138 1139 
482 502 481 198 186 226 
506 480 140 189 187 677 
480 506 479 189 188 228 
479 505 478 190 192 229 
478 505 477 192 191 230 
477 497 476 193 209 231 
474 504 475 195 194 232 
472 503 473 197 196 233 
471 502 482 199 198 234 
470 501 471 201 200 235 
475 500 470 203 202 236 
469 499 472 205 204 237 
468 498 469 207 206 238 
476 497 468 209 208 239 
494 474 461 210 241 242 
215 245 249 1133 1134 1135 
216 250 251 1128 1129 1130 
217 252 253 1123 1124 1125 
307 451 473 1047 255 254 
223 219 256 640 641 642 
583 263 223 1074 637 628 
582 261 264 1120 1121 1122 
445 482 481 265 226 268 
444 481 480 267 227 270 
443 480 479 269 228 272 
442 479 478 271 229 274 
441 478 477 273 230 276 
440 477 476 275 231 278 
474 475 436 232 280 281 
472 473 435 233 283 284 
471 482 446 234 266 286 
470 471 434 235 287 288 
464 475 470 279 236 289 
469 472 463 237 285 290 
468 469 433 238 291 292 
439 476 468 277 239 293 
461 474 462 241 240 295 
296 460 243 1071 1116 1117 
245 244 298 1107 1108 1109 
258 249 304 1100 1101 1102 
250 262 305 1095 1096 1097 
252 251 306 1088 1089 1090 
253 452 307 1084 1044 1085 
437 473 451 282 255 308 
633 314 591 871 832 1082 
262 261 316 1075 1076 1077 
318 629 578 854 810 809 
446 482 445 266 265 319 
445 481 444 268 267 320 
444 480 443 270 269 321 
443 479 442 272 271 322 
442 478 441 274 273 323 
441 477 440 276 275 324 
440 476 439 278 277 325 
436 475 464 280 279 326 
435 473 437 283 282 328 
463 472 435 285 284 329 
434 471 446 287 286 330 
464 470 434 289 288 331 
433 469 463 291 290 334 
439 468 433 293 292 335 
462 438 43 294 338 339 
461 462 45 295 340 341 
296 342 343 1068 1069 1070 
297 344 345 1063 1064 1065 
299 311 347 621 622 623 
301 300 348 616 617 618 
302 301 349 609 610 611 
309 303 350 602 603 604 
304 352 353 1058 1059 1060 
305 358 359 1053 1054 1055 
306 361 362 1048 1049 1050 
307 452 364 1044 934 1045 
437 451 109 308 367 368 
599 317 597 848 850 1042 
592 315 593 841 840 1040 
313 355 375 1035 1036 1037 
585 586 587 1032 1033 1034 
356 316 378 1027 1028 1029 
578 579 580 1024 1025 1026 
3 446 445 381 319 383 
7 445 444 384 320 386 
11 444 443 387 321 389 
15 443 442 390 322 392 
19 442 441 393 323 395 
23 441 440 396 324 398 
27 440 439 399 325 401 
432 438 436 336 327 408 
435 437 431 328 337 410 
429 463 435 333 329 411 
434 446 0 330 382 413 
430 464 434 332 331 414 
433 463 429 334 333 415 
1 439 433 402 335 416 
39 438 432 404 336 417 
431 437 940 337 407 418 
43 438 41 338 405 42 
45 462 43 340 339 44 
47 49 342 48 1019 1020 
344 343 51 1009 1010 1011 
346 345 1013 1000 1001 1002 
348 347 702 569 570 571 
350 349 75 560 561 562 
352 351 55 991 992 993 
354 353 979 984 985 986 
355 354 995 975 976 977 
357 356 89 968 969 970 
358 357 956 959 960 961 
360 359 972 952 953 954 
361 360 95 943 944 945 
363 362 99 936 937 938 
364 363 103 927 928 929 
107 451 105 366 365 106 
109 451 107 367 366 108 
931 437 109 406 368 110 
370 369 548 553 554 555 
371 370 690 544 545 546 
372 374 532 537 538 539 
374 373 696 528 529 530 
376 375 61 920 921 922 
924 523 524 915 916 917 
378 380 85 908 909 910 
516 911 518 903 904 905 
0 446 3 382 381 2 
3 445 5 383 385 4 
5 445 7 385 384 6 
7 444 9 386 388 8 
9 444 11 388 387 10 
11 443 13 389 391 12 
13 443 15 391 390 14 
15 442 17 392 394 16 
17 442 19 394 393 18 
19 441 21 395 397 20 
21 441 23 397 396 22 
23 440 25 398 400 24 
25 440 27 400 399 26 
27 439 29 401 403 28 
29 439 1 403 402 30 
41 438 39 405 404 40 
940 437 931 407 406 932 
432 430 31 409 423 419 
429 435 431 411 410 412 
93 429 431 426 412 422 
430 434 0 414 413 424 
1 433 429 416 415 428 
39 432 37 417 420 38 
947 431 940 421 418 941 
37 432 31 420 419 36 
93 431 947 422 421 948 
31 430 33 423 425 32 
33 430 0 425 424 34 
112 429 93 427 426 111 
1 429 112 428 427 113 
220 115 257 746 741 745 
518 899 519 896 897 898 
521 519 380 889 890 891 
630 264 225 882 883 884 
491 177 497 659 170 142 
481 502 140 186 676 152 
744 182 635 879 874 875 
120 247 467 753 735 707 
247 114 492 755 752 736 
114 120 488 754 710 751 
114 213 492 748 662 752 
213 214 491 750 660 665 
214 114 488 749 751 657 
115 220 496 746 652 747 
257 260 466 743 632 727 
182 485 635 878 870 874 
300 246 458 738 728 619 
246 116 487 740 737 729 
116 300 467 739 620 734 
116 212 487 731 670 737 
212 247 492 733 736 671 
247 116 467 732 734 735 
257 246 487 724 729 730 
246 117 458 726 723 728 
117 257 466 725 727 722 
117 299 458 719 625 723 
299 312 449 721 595 626 
312 117 466 720 722 596 
310 303 450 716 608 600 
303 118 457 718 715 605 
118 310 465 717 601 714 
118 248 457 711 708 715 
248 256 488 713 644 709 
256 118 465 712 714 645 
120 248 488 704 709 710 
248 302 457 706 613 708 
302 120 467 705 707 614 
311 71 573 699 72 624 
71 124 63 701 698 70 
124 311 449 700 627 695 
124 65 63 692 64 698 
65 372 67 694 542 66 
372 124 449 693 695 543 
369 79 81 687 80 556 
79 125 73 689 686 78 
125 369 450 688 559 683 
125 684 73 680 685 686 
684 309 564 682 606 565 
309 125 450 681 683 607 
167 140 502 678 676 679 
501 167 502 673 679 157 
140 168 506 675 666 677 
180 167 501 667 673 651 
167 212 492 669 671 672 
212 180 487 668 648 670 
506 168 213 666 663 664 
491 506 213 169 664 665 
491 214 177 660 658 659 
498 177 219 656 654 655 
495 498 219 178 655 646 
496 220 180 652 649 650 
501 496 180 179 650 651 
219 223 495 640 639 646 
223 256 465 642 645 636 
256 219 488 641 643 644 
495 223 263 639 637 638 
483 495 263 224 638 631 
633 635 634 867 868 869 
588 634 259 860 861 862 
629 318 630 854 855 856 
311 299 449 621 626 627 
299 347 458 623 577 625 
347 311 573 622 624 572 
300 301 467 616 615 620 
301 348 69 618 575 612 
348 300 458 617 619 576 
301 302 467 609 614 615 
302 349 457 611 568 613 
349 301 69 610 612 563 
303 309 450 602 607 608 
309 350 564 604 566 606 
350 303 457 603 605 567 
597 317 584 850 807 851 
599 550 581 845 846 847 
371 310 450 598 600 551 
590 315 592 835 841 842 
312 373 449 594 536 595 
593 589 531 836 837 838 
585 590 591 827 828 829 
587 523 589 818 819 820 
586 588 527 811 812 813 
578 583 584 802 803 804 
580 521 582 793 794 795 
579 581 516 784 785 786 
347 348 458 569 576 577 
348 702 69 571 703 575 
702 347 573 570 572 574 
349 350 457 560 567 568 
350 75 564 562 76 566 
75 349 69 561 563 74 
369 370 450 553 552 559 
370 548 557 555 549 547 
548 369 81 554 556 82 
370 371 450 544 551 552 
778 77 550 783 779 780 
690 370 557 545 547 558 
374 372 449 537 543 535 
372 532 67 539 68 542 
532 374 540 538 534 533 
373 374 449 528 535 536 
374 696 540 530 541 534 
531 59 773 772 777 774 
524 527 526 765 766 767 
762 526 376 756 757 758 
744 635 633 875 867 873 
260 744 633 877 873 872 
211 171 515 1166 166 1167 
494 211 515 1168 1167 138 
509 174 511 1152 144 132 
174 217 503 1150 175 1151 
629 583 578 1073 802 810 
465 583 223 805 628 636 
489 307 473 1086 254 218 
258 221 486 1196 1146 1105 
221 121 485 1198 1195 1147 
121 258 455 1197 1104 1194 
121 259 485 1191 864 1195 
259 313 448 1193 1038 865 
313 121 455 1192 1194 1039 
1189 346 1018 1186 1006 1023 
346 123 459 1188 1185 1007 
123 1189 35 1187 1190 1184 
123 298 459 1181 1111 1185 
298 351 456 1183 999 1112 
351 123 35 1182 1184 994 
243 211 494 1178 1168 1119 
211 126 493 1180 1177 1165 
126 243 460 1179 1116 1176 
126 244 493 1173 1115 1177 
244 297 459 1175 1066 1110 
297 126 460 1174 1176 1067 
173 174 509 1171 1152 1172 
507 173 509 1157 1172 143 
510 172 181 1163 1169 1170 
508 510 181 147 1170 1148 
171 172 510 1158 1163 1164 
172 215 486 1160 1136 1162 
215 171 493 1159 1161 1137 
185 173 507 1153 1157 1141 
173 216 490 1155 1131 1156 
216 185 484 1154 1138 1132 
181 182 508 1142 881 1148 
182 221 485 1144 1147 878 
221 181 486 1143 1145 1146 
225 185 507 1139 1141 1140 
483 225 507 887 1140 184 
245 215 493 1133 1137 1114 
215 249 486 1135 1106 1136 
249 245 456 1134 1113 1103 
250 216 484 1128 1132 1099 
216 251 490 1130 1094 1131 
251 250 453 1129 1098 1091 
252 217 490 1123 1127 1093 
217 253 489 1125 1087 1126 
253 252 452 1124 1092 1084 
261 582 447 1120 797 1078 
582 264 318 1122 888 798 
264 261 484 1121 1081 885 
461 296 243 1072 1117 1118 
494 461 243 242 1118 1119 
244 245 493 1107 1114 1115 
245 298 456 1109 1112 1113 
298 244 459 1108 1110 1111 
249 258 486 1100 1105 1106 
258 304 455 1102 1061 1104 
304 249 456 1101 1103 1062 
262 250 484 1095 1099 1080 
250 305 453 1097 1056 1098 
305 262 454 1096 1079 1057 
251 252 490 1088 1093 1094 
252 306 452 1090 1051 1092 
306 251 453 1089 1091 1052 
489 253 307 1087 1085 1086 
260 633 591 872 1082 1083 
466 260 591 632 1083 831 
261 262 484 1075 1080 1081 
262 316 454 1077 1031 1079 
316 261 447 1076 1078 1030 
583 629 263 1073 859 1074 
342 296 461 1068 1072 1022 
296 343 460 1070 1017 1071 
343 342 49 1069 1019 1012 
344 297 460 1063 1067 1016 
297 345 459 1065 1008 1066 
345 344 1004 1064 1015 1003 
352 304 456 1058 1062 998 
304 353 455 1060 990 1061 
353 352 57 1059 997 987 
358 305 454 1053 1057 966 
305 359 453 1055 958 1056 
359 358 963 1054 965 955 
361 306 453 1048 1052 950 
306 362 452 1050 942 1051 
362 361 97 1049 949 939 
451 307 364 1047 1045 1046 
105 451 364 365 1046 933 
371 599 597 849 1042 1043 
310 371 597 598 1043 852 
592 593 373 1040 839 1041 
312 592 373 844 1041 594 
355 313 455 1035 1039 982 
313 375 448 1037 926 1038 
375 355 53 1036 981 923 
586 585 314 1032 833 816 
585 587 315 1034 824 834 
587 586 377 1033 815 825 
316 356 454 1027 974 1031 
356 378 83 1029 913 971 
378 316 447 1028 1030 914 
579 578 317 1024 808 791 
578 580 318 1026 799 809 
580 579 379 1025 790 800 
45 47 342 46 1020 1021 
461 45 342 341 1021 1022 
343 344 460 1009 1016 1017 
344 51 1004 1011 52 1015 
51 343 49 1010 1012 50 
345 346 459 1000 1007 1008 
346 1013 1018 1002 1014 1006 
1013 345 1004 1001 1003 1005 
351 352 456 991 998 999 
352 55 57 993 56 997 
55 351 35 992 994 54 
353 354 455 984 983 990 
354 979 988 986 980 978 
979 353 57 985 987 58 
354 355 455 975 982 983 
355 995 53 977 996 981 
995 354 988 976 978 989 
356 357 454 968 967 974 
357 89 91 970 90 962 
89 356 83 969 971 88 
357 358 454 959 966 967 
358 956 963 961 957 965 
956 357 91 960 962 92 
359 360 453 952 951 958 
360 972 87 954 973 946 
972 359 963 953 955 964 
360 361 453 943 950 951 
361 95 97 945 96 949 
95 360 87 944 946 94 
362 363 452 936 935 942 
363 99 101 938 100 930 
99 362 97 937 939 98 
363 364 452 927 934 935 
364 103 105 929 104 933 
103 363 101 928 930 102 
375 376 448 920 760 926 
376 61 522 922 62 761 
61 375 53 921 923 60 
523 924 59 915 925 821 
924 524 918 917 769 919 
524 523 377 916 826 770 
380 378 447 908 914 894 
378 85 83 910 84 913 
85 380 517 909 893 86 
911 516 77 903 788 912 
516 518 379 905 900 789 
518 911 906 904 907 901 
899 518 906 896 901 902 
518 519 379 898 895 900 
519 899 517 897 520 892 
519 521 379 889 801 895 
521 380 447 891 894 796 
380 519 517 890 892 893 
264 630 318 882 855 888 
630 225 483 884 887 858 
225 264 484 883 885 886 
508 182 744 881 879 880 
115 508 744 222 880 876 
115 744 260 876 877 742 
633 634 314 869 866 871 
634 635 485 868 870 863 
634 588 314 860 817 866 
588 259 448 862 865 814 
259 634 485 861 863 864 
263 629 630 859 856 857 
483 263 630 631 857 858 
597 584 465 851 806 853 
310 597 465 852 853 601 
550 599 371 845 849 782 
599 581 317 847 792 848 
581 550 77 846 779 787 
466 590 592 830 842 843 
312 466 592 596 843 844 
589 593 315 836 840 823 
593 531 373 838 775 839 
531 589 59 837 822 772 
590 585 315 827 834 835 
585 591 314 829 832 833 
591 590 466 828 830 831 
523 587 377 818 825 826 
587 589 315 820 823 824 
589 523 59 819 821 822 
588 586 314 811 816 817 
586 527 377 813 771 815 
527 588 448 812 814 768 
578 584 317 804 807 808 
584 583 465 803 805 806 
521 580 379 793 800 801 
580 582 318 795 798 799 
582 521 447 794 796 797 
581 579 317 784 791 792 
579 516 379 786 789 790 
516 581 77 785 787 788 
690 778 550 691 780 781 
371 690 550 546 781 782 
531 773 696 774 697 776 
373 531 696 775 776 529 
527 524 377 765 770 771 
524 526 918 767 764 769 
526 527 448 766 768 759 
526 762 918 756 763 764 
762 376 522 758 761 525 
376 526 448 757 759 760 
1199 1200
1201 1202
1203 1204
1205 1206
1207 1208
1209 1210
1211 1212
1213 1214
1215 1216
1217 1218
1219 1220
1221 1222
1223 1224
1225 1226
1227 1228
1229 1230
1231 1232
1233 1234
1235 1236
1237 1238
1239 1240
1241 1242
1243 1244
1245 1246
1247 1248
1249 1250
1251 1252
1253 1254
1255 1256
1257 1258
1259 1260
1261 1262
1263 1264
1265 1266
1267 1268
1269 1270
1271 1272
1273 1274
1275 1276
1277 1278
1279 1280
1281 1282
1283 1284
1285 1286
1287 1288
1289 1290
1291 1292
1293 1294
1295 1296
1297 1298
1299 1300
1301 1302
1303 1304
1305 1306
1307 1308
1309 1310
1311 1312
1313 1314
1315 1316
1317 1318
1319 1320
1321 1322
1323 1324
1325 1326
1327 1328
1329 1330
1331 1332
1333 1334
1335 1336
1337 1338
1339 1340
1341 1342
1343 1344
1345 1346
1347 1348
1349 1350
1351 1352
1353 1354
1355 1356
1357 1358
1359 1360
1361 1362
1363 1364
1365 1366
1367 1368
1369 1370
1371 1372
1373 1374
1375 1376
1377 1378
1379 1380
1381 1382
1383 1384
1385 1386
1387 1388
1389 1390
1391 1392
1393 1394
1395 1396
1397 1398
1399 1400
1401 1402
1403 1404
1405 1406
1407 1408
1409 1410
1411 1412
1413 1414
1415 1416
1417 1418
1419 1420
1421 1422
1423 1424
1425 1426
1427 1428
1429 1430
1431 1432
1433 1434
1435 1436
1437 1438
1439 1440
1441 1442
1443 1444
1445 1446
1447 1448
1449 1450
1451 1452
1453 1454
1455 1456
1457 1458
1459 1460
1461 1462
1463 1464
1465 1466
1467 1468
1469 1470
1471 1472
1473 1474
1475 1476
1477 1478
1479 1480
1481 1482
1483 1484
1485 1486
1487 1488
1489 1490
1491 1492
1493 1494
1495 1496
1497 1498
1499 1500
1501 1502
1503 1504
1505 1506
1507 1508
1509 1510
1511 1512
1513 1514
1515 1516
1517 1518
1519 1520
1521 1522
1523 1524
1525 1526
1527 1528
1529 1530
1531 1532
1533 1534
1535 1536
1537 1538
1539 1540
1541 1542
1543 1544
1545 1546
1547 1548
1549 1550
1551 1552
1553 1554
1555 1556
1557 1558
1559 1560
1561 1562
1563 1564
1565 1566
1567 1568
1569 1570
1571 1572
1573 1574
1575 1576
1577 1578
1579 1580
1581 1582
1583 1584
1585 1586
1587 1588
1589 1590
1591 1592
1593 1594
1595 1596
1597 1598
1599 1600
1601 1602
1603 1604
1605 1606
1607 1608
1609 1610
1611 1612
1613 1614
1615 1616
1617 1618
1619 1620
1621 1622
1623 1624
1625 1626
1627 1628
1629 1630
1631 1632
1633 1634
1635 1636
1637 1638
1639 1640
1641 1642
1643 1644
1645 1646
1647 1648
1649 1650
1651 1652
1653 1654
1655 1656
1657 1658
1659 1660
1661 1662
1663 1664
1665 1666
1667 1668
1669 1670
1671 1672
1673 1674
1675 1676
1677 1678
1679 1680
1681 1682
1683 1684
1685 1686
1687 1688
1689 1690
1691 1692
1693 1694
1695 1696
1697 1698
1699 1700
1701 1702
1703 1704
1705 1706
1707 1708
1709 1710
1711 1712
1713 1714
1715 1716
1717 1718
1719 1720
1721 1722
1723 1724
1725 1726
1727 1728
1729 1730
1731 1732
1733 1734
1735 1736
1737 1738
1739 1740
1741 1742
1743 1744
1745 1746
1747 1748
1749 1750
1751 1752
1753 1754
1755 1756
1757 1758
1759 1760
1761 1762
1763 1764
1765 1766
1767 1768
1769 1770
1771 1772
1773 1774
1775 1776
1777 1778
1779 1780
1781 1782
1783 1784
1785 1786
1787 1788
1789 1790
1791 1792
1793 1794
1795 1796
1797 1798
1799 1800
1801 1802
1803 1804
1805 1806
1807 1808
1809 1810
1811 1812
1813 1814
1815 1816
1817 1818
1819 1820
1821 1822
1823 1824
1825 1826
1827 1828
1829 1830
1831 1832
1833 1834
1835 1836
1837 1838
1839 1840
1841 1842
1843 1844
1845 1846
1847 1848
1849 1850
1851 1852
1853 1854
1855 1856
1857 1858
1859 1860
1861 1862
1863 1864
1865 1866
1867 1868
1869 1870
1871 1872
1873 1874
1875 1876
1877 1878
1879 1880
1881 1882
1883 1884
1885 1886
1887 1888
1889 1890
1891 1892
1893 1894
1895 1896
1897 1898
1899 1900
1901 1902
1903 1904
1905 1906
1907 1908
1909 1910
1911 1912
1913 1914
1915 1916
1917 1918
1919 1920
1921 1922
1923 1924
1925 1926
1927 1928
1929 1930
1931 1932
1933 1934
1935 1936
1937 1938
1939 1940
1941 1942
1943 1944
1945 1946
1947 1948
1949 1950
1951 1952
1953 1954
1955 1956
1957 1958
1959 1960
1961 1962
1963 1964
1965 1966
1967 1968
1969 1970
1971 1972
1973 1974
1975 1976
1977 1978
1979 1980
1981 1982
1983 1984
1985 1986
1987 1988
1989 1990
1991 1992
1993 1994
1995 1996
1997 1998
1999 2000
2001 2002
2003 2004
2005 2006
2007 2008
2009 2010
2011 2012
2013 2014
2015 2016
2017 2018
2019 2020
2021 2022
2023 2024
2025 2026
2027 2028
2029 2030
2031 2032
2033 2034
2035 2036
2037 2038
2039 2040
2041 2042
2043 2044
2045 2046
2047 2048
2049 2050
2051 2052
2053 2054
2055 2056
2057 2058
2059 2060
2061 2062
2063 2064
2065 2066
2067 2068
2069 2070
2071 2072
2073 2074
2075 2076
2077 2078
2079 2080
2081 2082
2083 2084
2085 2086
2087 2088
2089 2090
2091 2092
2093 2094
2095 2096
2097 2098
2099 2100
2101 2102
2103 2104
2105 2106
2107 2108
2109 2110
2111 2112
2113 2114
2115 2116
2117 2118
2119 2120
2121 2122
2123 2124
2125 2126
2127 2128
2129 2130
2131 2132
2133 2134
2135 2136
2137 2138
2139 2140
2141 2142
2143 2144
2145 2146
2147 2148
2149 2150
2151 2152
2153 2154
2155 2156
2157 2158
2159 2160
2161 2162
2163 2164
2165 2166
2167 2168
2169 2170
2171 2172
2173 2174
2175 2176
2177 2178
2179 2180
2181 2182
2183 2184
2185 2186
2187 2188
2189 2190
2191 2192
2193 2194
2195 2196
2197 2198
2199 2200
2201 2202
2203 2204
2205 2206
2207 2208
2209 2210
2211 2212
2213 2214
2215 2216
2217 2218
2219 2220
2221 2222
2223 2224
2225 2226
2227 2228
2229 2230
2231 2232
2233 2234
2235 2236
2237 2238
2239 2240
2241 2242
2243 2244
2245 2246
2247 2248
2249 2250
2251 2252
2253 2254
2255 2256
2257 2258
2259 2260
2261 2262
2263 2264
2265 2266
2267 2268
2269 2270
2271 2272
2273 2274
2275 2276
2277 2278
2279 2280
2281 2282
2283 2284
2285 2286
2287 2288
2289 2290
2291 2292
2293 2294
2295 2296
2297 2298
2299 2300
2301 2302
2303 2304
2305 2306
2307 2308
2309 2310
2311 2312
2313 2314
2315 2316
2317 2318
2319 2320
2321 2322
2323 2324
2325 2326
2327 2328
2329 2330
2331 2332
2333 2334
2335 2336
2337 2338
2339 2340
2341 2342
2343 2344
2345 2346
2347 2348
2349 2350
2351 2352
2353 2354
2355 2356
2357 2358
2359 2360
2361 2362
2363 2364
2365 2366
2367 2368
2369 2370
2371 2372
2373 2374
2375 2376
2377 2378
2379 2380
2381 2382
2383 2384
2385 2386
2387 2388
2389 2390
2391 2392
2393 2394
2395 2396
2397 2398
2399 2400
2401 2402
2403 2404
2405 2406
2407 2408
2409 2410
2411 2412
2413 2414
2415 2416
2417 2418
2419 2420
2421 2422
2423 2424
2425 2426
2427 2428
2429 2430
2431 2432
2433 2434
2435 2436
2437 2438
2439 2440
2441 2442
2443 2444
2445 2446
2447 2448
2449 2450
2451 2452
2453 2454
2455 2456
2457 2458
2459 2460
2461 2462
2463 2464
2465 2466
2467 2468
2469 2470
2471 2472
2473 2474
2475 2476
2477 2478
2479 2480
2481 2482
2483 2484
2485 2486
2487 2488
2489 2490
2491 2492
2493 2494
2495 2496
2497 2498
2499 2500
2501 2502
2503 2504
2505 2506
2507 2508
2509 2510
2511 2512
2513 2514
2515 2516
2517 2518
2519 2520
2521 2522
2523 2524
2525 2526
2527 2528
2529 2530
2531 2532
2533 2534
2535 2536
2537 2538
2539 2540
2541 2542
2543 2544
2545 2546
2547 2548
2549 2550
2551 2552
2553 2554
2555 2556
2557 2558
2559 2560
2561 2562
2563 2564
2565 2566
2567 2568
2569 2570
2571 2572
2573 2574
2575 2576
2577 2578
2579 2580
2581 2582
2583 2584
2585 2586
2587 2588
2589 2590
2591 2592
2593 2594
2595 2596
2597 2598
2599 2600
2601 2602
2603 2604
2605 2606
2607 2608
2609 2610
2611 2612
2613 2614
2615 2616
2617 2618
2619 2620
2621 2622
2623 2624
2625 2626
2627 2628
2629 2630
2631 2632
2633 2634
2635 2636
2637 2638
2639 2640
2641 2642
2643 2644
2645 2646
2647 2648
2649 2650
2651 2652
2653 2654
2655 2656
2657 2658
2659 2660
2661 2662
2663 2664
2665 2666
2667 2668
2669 2670
2671 2672
2673 2674
2675 2676
2677 2678
2679 2680
2681 2682
2683 2684
2685 2686
2687 2688
2689 2690
2691 2692
2693 2694
2695 2696
2697 2698
2699 2700
2701 2702
2703 2704
2705 2706
2707 2708
2709 2710
2711 2712
2713 2714
2715 2716
2717 2718
2719 2720
2721 2722
2723 2724
2725 2726
2727 2728
2729 2730
2731 2732
2733 2734
2735 2736
2737 2738
2739 2740
2741 2742
2743 2744
2745 2746
2747 2748
2749 2750
2751 2752
2753 2754
2755 2756
2757 2758
2759 2760
2761 2762
2763 2764
2765 2766
2767 2768
2769 2770
2771 2772
2773 2774
2775 2776
2777 2778
2779 2780
2781 2782
2783 2784
2785 2786
2787 2788
2789 2790
2791 2792
2793 2794
2795 2796
2797 2798
2799 2800
2801 2802
2803 2804
2805 2806
2807 2808
2809 2810
2811 2812
2813 2814
2815 2816
2817 2818
2819 2820
2821 2822
2823 2824
2825 2826
2827 2828
2829 2830
2831 2832
2833 2834
2835 2836
2837 2838
2839 2840
2841 2842
2843 2844
2845 2846
2847 2848
2849 2850
2851 2852
2853 2854
2855 2856
2857 2858
2859 2860
2861 2862
2863 2864
2865 2866
2867 2868
2869 2870
2871 2872
2873 2874
2875 2876
2877 2878
2879 2880
2881 2882
2883 2884
2885 2886
2887 2888
2889 2890
2891 2892
2893 2894
2895 2896
2897 2898
2899 2900
2901 2902
2903 2904
2905 2906
2907 2908
2909 2910
2911 2912
2913 2914
2915 2916
2917 2918
2919 2920
2921 2922
2923 2924
2925 2926
2927 2928
2929 2930
2931 2932
2933 2934
2935 2936
2937 2938
2939 2940
2941 2942
2943 2944
2945 2946
2947 2948
2949 2950
2951 2952
2953 2954
2955 2956
2957 2958
2959 2960
2961 2962
2963 2964
2965 2966
2967 2968
2969 2970
2971 2972
2973 2974
2975 2976
2977 2978
2979 2980
2981 2982
2983 2984
2985 2986
2987 2988
2989 2990
2991 2992
2993 2994
2995 2996
2997 2998
2999 3000
3001 3002
3003 3004
3005 3006
3007 3008
3009 3010
3011 3012
3013 3014
3015 3016
3017 3018
3019 3020
3021 3022
3023 3024
3025 3026
3027 3028
3029 3030
3031 3032
3033 3034
3035 3036
3037 3038
3039 3040
3041 3042
3043 3044
3045 3046
3047 3048
3049 3050
3051 3052
3053 3054
3055 3056
3057 3058
3059 3060
3061 3062
3063 3064
3065 3066
3067 3068
3069 3070
3071 3072
3073 3074
3075 3076
3077 3078
3079 3080
3081 3082
3083 3084
3085 3086
3087 3088
3089 3090
3091 3092
3093 3094
3095 3096
3097 3098
3099 3100
3101 3102
3103 3104
3105 3106
3107 3108
3109 3110
3111 3112
3113 3114
3115 3116
3117 3118
3119 3120
3121 3122
3123 3124
3125 3126
3127 3128
3129 3130
3131 3132
3133 3134
3135 3136
3137 3138
3139 3140
3141 3142
3143 3144
3145 3146
3147 3148
3149 3150
3151 3152
3153 3154
3155 3156
3157 3158
3159 3160
3161 3162
3163 3164
3165 3166
3167 3168
3169 3170
3171 3172
3173 3174
3175 3176
3177 3178
3179 3180
3181 3182
3183 3184
3185 3186
3187 3188
3189 3190
3191 3192
3193 3194
3195 3196
3197 3198
3199 3200
3201 3202
3203 3204
3205 3206
3207 3208
3209 3210
3211 3212
3213 3214
3215 3216
3217 3218
3219 3220
3221 3222
3223 3224
3225 3226
3227 3228
3229 3230
3231 3232
3233 3234
3235 3236
3237 3238
3239 3240
3241 3242
3243 3244
3245 3246
3247 3248
3249 3250
3251 3252
3253 3254
3255 3256
3257 3258
3259 3260
3261 3262
3263 3264
3265 3266
3267 3268
3269 3270
3271 3272
3273 3274
3275 3276
3277 3278
3279 3280
3281 3282
3283 3284
3285 3286
3287 3288
3289 3290
3291 3292
3293 3294
3295 3296
3297 3298
3299 3300
3301 3302
3303 3304
3305 3306
3307 3308
3309 3310
3311 3312
3313 3314
3315 3316
3317 3318
3319 3320
3321 3322
3323 3324
3325 3326
3327 3328
3329 3330
3331 3332
3333 3334
3335 3336
3337 3338
3339 3340
3341 3342
3343 3344
3345 3346
3347 3348
3349 3350
3351 3352
3353 3354
3355 3356
3357 3358
3359 3360
3361 3362
3363 3364
3365 3366
3367 3368
3369 3370
3371 3372
3373 3374
3375 3376
3377 3378
3379 3380
3381 3382
3383 3384
3385 3386
3387 3388
3389 3390
3391 3392
3393 3394
3395 3396
3397 3398
3399 3400
3401 3402
3403 3404
3405 3406
3407 3408
3409 3410
3411 3412
3413 3414
3415 3416
3417 3418
3419 3420
3421 3422
3423 3424
3425 3426
3427 3428
3429 3430
3431 3432
3433 3434
3435 3436
3437 3438
3439 3440
3441 3442
3443 3444
3445 3446
3447 3448
3449 3450
3451 3452
3453 3454
3455 3456
3457 3458
3459 3460
3461 3462
3463 3464
3465 3466
3467 3468
3469 3470
3471 3472
3473 3474
3475 3476
3477 3478
3479 3480
3481 3482
3483 3484
3485 3486
      </DataArray>
      <DataArray type="Int32" Name="offsets" format="ascii">
6
12
18
24
30
36
42
48
54
60
66
72
78
84
90
96
102
108
114
120
126
132
138
144
150
156
162
168
174
180
186
192
198
204
210
216
222
228
234
240
246
252
258
264
270
276
282
288
294
300
306
312
318
324
330
336
342
348
354
360
366
372
378
384
390
396
402
408
414
420
426
432
438
444
450
456
462
468
474
480
486
492
498
504
510
516
522
528
534
540
546
552
558
564
570
576
582
588
594
600
606
612
618
624
630
636
642
648
654
660
666
672
678
684
690
696
702
708
714
720
726
732
738
744
750
756
762
768
774
780
786
792
798
804
810
816
822
828
834
840
846
852
858
864
870
876
882
888
894
900
906
912
918
924
930
936
942
948
954
960
966
972
978
984
990
996
1002
1008
1014
1020
1026
1032
1038
1044
1050
1056
1062
1068
1074
1080
1086
1092
1098
1104
1110
1116
1122
1128
1134
1140
1146
1152
1158
1164
1170
1176
1182
1188
1194
1200
1206
1212
1218
1224
1230
1236
1242
1248
1254
1260
1266
1272
1278
1284
1290
1296
1302
1308
1314
1320
1326
1332
1338
1344
1350
1356
1362
1368
1374
1380
1386
1392
1398
1404
1410
1416
1422
1428
1434
1440
1446
1452
1458
1464
1470
1476
1482
1488
1494
1500
1506
1512
1518
1524
1530
1536
1542
1548
1554
1560
1566
1572
1578
1584
1590
1596
1602
1608
1614
1620
1626
1632
1638
1644
1650
1656
1662
1668
1674
1680
1686
1692
1698
1704
1710
1716
1722
1728
1734
1740
1746
1752
1758
1764
1770
1776
1782
1788
1794
1800
1806
1812
1818
1824
1830
1836
1842
1848
1854
1860
1866
1872
1878
1884
1890
1896
1902
1908
1914
1920
1926
1932
1938
1944
1950
1956
1962
1968
1974
1980
1986
1992
1998
2004
2010
2016
2022
2028
2034
2040
2046
2052
2058
2064
2070
2076
2082
2088
2094
2100
2106
2112
2118
2124
2130
2136
2142
2148
2154
2160
2166
2172
2178
2184
2190
2196
2202
2208
2214
2220
2226
2232
2238
2244
2250
2256
2262
2268
2274
2280
2286
2292
2298
2304
2310
2316
2322
2328
2334
2340
2346
2352
2358
2364
2370
2376
2382
2388
2394
2400
2406
2412
2418
2424
2430
2436
2442
2448
2454
2460
2466
2472
2478
2484
2490
2496
2502
2508
2514
2520
2526
2532
2538
2544
2550
2556
2562
2568
2574
2580
2586
2592
2598
2604
2610
2616
2622
2628
2634
2640
2646
2652
2658
2664
2670
2676
2682
2688
2694
2700
2706
2712
2718
2724
2730
2736
2742
2748
2754
2760
2766
2772
2778
2784
2790
2796
2802
2808
2814
2820
2826
2832
2838
2844
2850
2856
2862
2868
2874
2880
2886
2892
2898
2904
2910
2916
2922
2928
2934
2940
2946
2952
2958
2964
2970
2976
2982
2988
2994
3000
3006
3012
3018
3024
3030
3036
3042
3048
3054
3060
3066
3072
3078
3084
3090
3096
3102
3108
3114
3120
3126
3132
3138
3144
3150
3156
3162
3168
3174
3180
3186
3192
3198
3204
3210
3216
3222
3228
3234
3240
3246
3252
3258
3264
3270
3276
3282
3288
3294
3300
3306
3312
3318
3324
3326
3328
3330
3332
3334
3336
3338
3340
3342
3344
3346
3348
3350
3352
3354
3356
3358
3360
3362
3364
3366
3368
3370
3372
3374
3376
3378
3380
3382
3384
3386
3388
3390
3392
3394
3396
3398
3400
3402
3404
3406
3408
3410
3412
3414
3416
3418
3420
3422
3424
3426
3428
3430
3432
3434
3436
3438
3440
3442
3444
3446
3448
3450
3452
3454
3456
3458
3460
3462
3464
3466
3468
3470
3472
3474
3476
3478
3480
3482
3484
3486
3488
3490
3492
3494
3496
3498
3500
3502
3504
3506
3508
3510
3512
3514
3516
3518
3520
3522
3524
3526
3528
3530
3532
3534
3536
3538
3540
3542
3544
3546
3548
3550
3552
3554
3556
3558
3560
3562
3564
3566
3568
3570
3572
3574
3576
3578
3580
3582
3584
3586
3588
3590
3592
3594
3596
3598
3600
3602
3604
3606
3608
3610
3612
3614
3616
3618
3620
3622
3624
3626
3628
3630
3632
3634
3636
3638
3640
3642
3644
3646
3648
3650
3652
3654
3656
3658
3660
3662
3664
3666
3668
3670
3672
3674
3676
3678
3680
3682
3684
3686
3688
3690
3692
3694
3696
3698
3700
3702
3704
3706
3708
3710
3712
3714
3716
3718
3720
3722
3724
3726
3728
3730
3732
3734
3736
3738
3740
3742
3744
3746
3748
3750
3752
3754
3756
3758
3760
3762
3764
3766
3768
3770
3772
3774
3776
3778
3780
3782
3784
3786
3788
3790
3792
3794
3796
3798
3800
3802
3804
3806
3808
3810
3812
3814
3816
3818
3820
3822
3824
3826
3828
3830
3832
3834
3836
3838
3840
3842
3844
3846
3848
3850
3852
3854
3856
3858
3860
3862
3864
3866
3868
3870
3872
3874
3876
3878
3880
3882
3884
3886
3888
3890
3892
3894
3896
3898
3900
3902
3904
3906
3908
3910
3912
3914
3916
3918
3920
3922
3924
3926
3928
3930
3932
3934
3936
3938
3940
3942
3944
3946
3948
3950
3952
3954
3956
3958
3960
3962
3964
3966
3968
3970
3972
3974
3976
3978
3980
3982
3984
3986
3988
3990
3992
3994
3996
3998
4000
4002
4004
4006
4008
4010
4012
4014
4016
4018
4020
4022
4024
4026
4028
4030
4032
4034
4036
4038
4040
4042
4044
4046
4048
4050
4052
4054
4056
4058
4060
4062
4064
4066
4068
4070
4072
4074
4076
4078
4080
4082
4084
4086
4088
4090
4092
4094
4096
4098
4100
4102
4104
4106
4108
4110
4112
4114
4116
4118
4120
4122
4124
4126
4128
4130
4132
4134
4136
4138
4140
4142
4144
4146
4148
4150
4152
4154
4156
4158
4160
4162
4164
4166
4168
4170
4172
4174
4176
4178
4180
4182
4184
4186
4188
4190
4192
4194
4196
4198
4200
4202
4204
4206
4208
4210
4212
4214
4216
4218
4220
4222
4224
4226
4228
4230
4232
4234
4236
4238
4240
4242
4244
4246
4248
4250
4252
4254
4256
4258
4260
4262
4264
4266
4268
4270
4272
4274
4276
4278
4280
4282
4284
4286
4288
4290
4292
4294
4296
4298
4300
4302
4304
4306
4308
4310
4312
4314
4316
4318
4320
4322
4324
4326
4328
4330
4332
4334
4336
4338
4340
4342
4344
4346
4348
4350
4352
4354
4356
4358
4360
4362
4364
4366
4368
4370
4372
4374
4376
4378
4380
4382
4384
4386
4388
4390
4392
4394
4396
4398
4400
4402
4404
4406
4408
4410
4412
4414
4416
4418
4420
4422
4424
4426
4428
4430
4432
4434
4436
4438
4440
4442
4444
4446
4448
4450
4452
4454
4456
4458
4460
4462
4464
4466
4468
4470
4472
4474
4476
4478
4480
4482
4484
4486
4488
4490
4492
4494
4496
4498
4500
4502
4504
4506
4508
4510
4512
4514
4516
4518
4520
4522
4524
4526
4528
4530
4532
4534
4536
4538
4540
4542
4544
4546
4548
4550
4552
4554
4556
4558
4560
4562
4564
4566
4568
4570
4572
4574
4576
4578
4580
4582
4584
4586
4588
4590
4592
4594
4596
4598
4600
4602
4604
4606
4608
4610
4612
4614
4616
4618
4620
4622
4624
4626
4628
4630
4632
4634
4636
4638
4640
4642
4644
4646
4648
4650
4652
4654
4656
4658
4660
4662
4664
4666
4668
4670
4672
4674
4676
4678
4680
4682
4684
4686
4688
4690
4692
4694
4696
4698
4700
4702
4704
4706
4708
4710
4712
4714
4716
4718
4720
4722
4724
4726
4728
4730
4732
4734
4736
4738
4740
4742
4744
4746
4748
4750
4752
4754
4756
4758
4760
4762
4764
4766
4768
4770
4772
4774
4776
4778
4780
4782
4784
4786
4788
4790
4792
4794
4796
4798
4800
4802
4804
4806
4808
4810
4812
4814
4816
4818
4820
4822
4824
4826
4828
4830
4832
4834
4836
4838
4840
4842
4844
4846
4848
4850
4852
4854
4856
4858
4860
4862
4864
4866
4868
4870
4872
4874
4876
4878
4880
4882
4884
4886
4888
4890
4892
4894
4896
4898
4900
4902
4904
4906
4908
4910
4912
4914
4916
4918
4920
4922
4924
4926
4928
4930
4932
4934
4936
4938
4940
4942
4944
4946
4948
4950
4952
4954
4956
4958
4960
4962
4964
4966
4968
4970
4972
4974
4976
4978
4980
4982
4984
4986
4988
4990
4992
4994
4996
4998
5000
5002
5004
5006
5008
5010
5012
5014
5016
5018
5020
5022
5024
5026
5028
5030
5032
5034
5036
5038
5040
5042
5044
5046
5048
5050
5052
5054
5056
5058
5060
5062
5064
5066
5068
5070
5072
5074
5076
5078
5080
5082
5084
5086
5088
5090
5092
5094
5096
5098
5100
5102
5104
5106
5108
5110
5112
5114
5116
5118
5120
5122
5124
5126
5128
5130
5132
5134
5136
5138
5140
5142
5144
5146
5148
5150
5152
5154
5156
5158
5160
5162
5164
5166
5168
5170
5172
5174
5176
5178
5180
5182
5184
5186
5188
5190
5192
5194
5196
5198
5200
5202
5204
5206
5208
5210
5212
5214
5216
5218
5220
5222
5224
5226
5228
5230
5232
5234
5236
5238
5240
5242
5244
5246
5248
5250
5252
5254
5256
5258
5260
5262
5264
5266
5268
5270
5272
5274
5276
5278
5280
5282
5284
5286
5288
5290
5292
5294
5296
5298
5300
5302
5304
5306
5308
5310
5312
5314
5316
5318
5320
5322
5324
5326
5328
5330
5332
5334
5336
5338
5340
5342
5344
5346
5348
5350
5352
5354
5356
5358
5360
5362
5364
5366
5368
5370
5372
5374
5376
5378
5380
5382
5384
5386
5388
5390
5392
5394
5396
5398
5400
5402
5404
5406
5408
5410
5412
5414
5416
5418
5420
5422
5424
5426
5428
5430
5432
5434
5436
5438
5440
5442
5444
5446
5448
5450
5452
5454
5456
5458
5460
5462
5464
5466
5468
5470
5472
5474
5476
5478
5480
5482
5484
5486
5488
5490
5492
5494
5496
5498
5500
5502
5504
5506
5508
5510
5512
5514
5516
5518
5520
5522
5524
5526
5528
5530
5532
5534
5536
5538
5540
5542
5544
5546
5548
5550
5552
5554
5556
5558
5560
5562
5564
5566
5568
5570
5572
5574
5576
5578
5580
5582
5584
5586
5588
5590
5592
5594
5596
5598
5600
5602
5604
5606
5608
5610
5612
      </DataArray>
      <DataArray type="UInt8" Name="types" format="ascii">
69
69
69
69
69
69
69
69
69
69
69
69
69
69
69
69
69
69
69
69
69
69
69
69
69
69
69
69
69
69
69
69
69
69
69
69
69
69
69
69
69
69
69
69
69
69
69
69
69
69
69
69
69
69
69
69
69
69
69
69
69
69
69
69
69
69
69
69
69
69
69
69
69
69
69
69
69
69
69
69
69
69
69
69
69
69
69
69
69
69
69
69
69
69
69
69
69
69
69
69
69
69
69
69
69
69
69
69
69
69
69
69
69
69
69
69
69
69
69
69
69
69
69
69
69
69
69
69
69
69
69
69
69
69
69
69
69
69
69
69
69
69
69
69
69
69
69
69
69
69
69
69
69
69
69
69
69
69
69
69
69
69
69
69
69
69
69
69
69
69
69
69
69
69
69
69
69
69
69
69
69
69
69
69
69
69
69
69
69
69
69
69
69
69
69
69
69
69
69
69
69
69
69
69
69
69
69
69
69
69
69
69
69
69
69
69
69
69
69
69
69
69
69
69
69
69
69
69
69
69
69
69
69
69
69
69
69
69
69
69
69
69
69
69
69
69
69
69
69
69
69
69
69
69
69
69
69
69
69
69
69
69
69
69
69
69
69
69
69
69
69
69
69
69
69
69
69
69
69
69
69
69
69
69
69
69
69
69
69
69
69
69
69
69
69
69
69
69
69
69
69
69
69
69
69
69
69
69
69
69
69
69
69
69
69
69
69
69
69
69
69
69
69
69
69
69
69
69
69
69
69
69
69
69
69
69
69
69
69
69
69
69
69
69
69
69
69
69
69
69
69
69
69
69
69
69
69
69
69
69
69
69
69
69
69
69
69
69
69
69
69
69
69
69
69
69
69
69
69
69
69
69
69
69
69
69
69
69
69
69
69
69
69
69
69
69
69
69
69
69
69
69
69
69
69
69
69
69
69
69
69
69
69
69
69
69
69
69
69
69
69
69
69
69
69
69
69
69
69
69
69
69
69
69
69
69
69
69
69
69
69
69
69
69
69
69
69
69
69
69
69
69
69
69
69
69
69
69
69
69
69
69
69
69
69
69
69
69
69
69
69
69
69
69
69
69
69
69
69
69
69
69
69
69
69
69
69
69
69
69
69
69
69
69
69
69
69
69
69
69
69
69
69
69
69
69
69
69
69
69
69
69
69
69
69
69
69
69
69
69
69
69
69
69
69
69
69
69
69
69
69
69
69
69
69
69
69
69
69
69
69
69
69
69
69
69
69
69
69
69
69
69
69
69
3
3
3
3
3
3
3
3
3
3
3
3
3
3
3
3
3
3
3
3
3
3
3
3
3
3
3
3
3
3
3
3
3
3
3
3
3
3
3
3
3
3
3
3
3
3
3
3
3
3
3
3
3
3
3
3
3
3
3
3
3
3
3
3
3
3
3
3
3
3
3
3
3
3
3
3
3
3
3
3
3
3
3
3
3
3
3
3
3
3
3
3
3
3
3
3
3
3
3
3
3
3
3
3
3
3
3
3
3
3
3
3
3
3
3
3
3
3
3
3
3
3
3
3
3
3
3
3
3
3
3
3
3
3
3
3
3
3
3
3
3
3
3
3
3
3
3
3
3
3
3
3
3
3
3
3
3
3
3
3
3
3
3
3
3
3
3
3
3
3
3
3
3
3
3
3
3
3
3
3
3
3
3
3
3
3
3
3
3
3
3
3
3
3
3
3
3
3
3
3
3
3
3
3
3
3
3
3
3
3
3
3
3
3
3
3
3
3
3
3
3
3
3
3
3
3
3
3
3
3
3
3
3
3
3
3
3
3
3
3
3
3
3
3
3
3
3
3
3
3
3
3
3
3
3
3
3
3
3
3
3
3
3
3
3
3
3
3
3
3
3
3
3
3
3
3
3
3
3
3
3
3
3
3
3
3
3
3
3
3
3
3
3
3
3
3
3
3
3
3
3
3
3
3
3
3
3
3
3
3
3
3
3
3
3
3
3
3
3
3
3
3
3
3
3
3
3
3
3
3
3
3
3
3
3
3
3
3
3
3
3
3
3
3
3
3
3
3
3
3
3
3
3
3
3
3
3
3
3
3
3
3
3
3
3
3
3
3
3
3
3
3
3
3
3
3
3
3
3
3
3
3
3
3
3
3
3
3
3
3
3
3
3
3
3
3
3
3
3
3
3
3
3
3
3
3
3
3
3
3
3
3
3
3
3
3
3
3
3
3
3
3
3
3
3
3
3
3
3
3
3
3
3
3
3
3
3
3
3
3
3
3
3
3
3
3
3
3
3
3
3
3
3
3
3
3
3
3
3
3
3
3
3
3
3
3
3
3
3
3
3
3
3
3
3
3
3
3
3
3
3
3
3
3
3
3
3
3
3
3
3
3
3
3
3
3
3
3
3
3
3
3
3
3
3
3
3
3
3
3
3
3
3
3
3
3
3
3
3
3
3
3
3
3
3
3
3
3
3
3
3
3
3
3
3
3
3
3
3
3
3
3
3
3
3
3
3
3
3
3
3
3
3
3
3
3
3
3
3
3
3
3
3
3
3
3
3
3
3
3
3
3
3
3
3
3
3
3
3
3
3
3
3
3
3
3
3
3
3
3
3
3
3
3
3
3
3
3
3
3
3
3
3
3
3
3
3
3
3
3
3
3
3
3
3
3
3
3
3
3
3
3
3
3
3
3
3
3
3
3
3
3
3
3
3
3
3
3
3
3
3
3
3
3
3
3
3
3
3
3
3
3
3
3
3
3
3
3
3
3
3
3
3
3
3
3
3
3
3
3
3
3
3
3
3
3
3
3
3
3
3
3
3
3
3
3
3
3
3
3
3
3
3
3
3
3
3
3
3
3
3
3
3
3
3
3
3
3
3
3
3
3
3
3
3
3
3
3
3
3
3
3
3
3
3
3
3
3
3
3
3
3
3
3
3
3
3
3
3
3
3
3
3
3
3
3
3
3
3
3
3
3
3
3
3
3
3
3
3
3
3
3
3
3
3
3
3
3
3
3
3
3
3
3
3
3
3
3
3
3
3
3
3
3
3
3
3
3
3
3
3
3
3
3
3
3
3
3
3
3
3
3
3
3
3
3
3
3
3
3
3
3
3
3
3
3
3
3
3
3
3
3
3
3
3
3
3
3
3
3
3
3
3
3
3
3
3
3
3
3
3
3
3
3
3
3
3
3
3
3
3
3
3
3
3
3
3
3
3
3
3
3
3
3
3
3
3
3
3
3
3
3
3
3
3
3
3
3
3
3
3
3
3
3
3
3
3
3
3
3
3
3
3
3
3
3
3
3
3
3
3
3
3
3
3
3
3
3
3
3
3
3
3
3
3
3
3
3
3
3
3
3
3
3
3
3
3
3
3
3
3
3
3
3
3
3
3
3
3
3
3
3
3
3
3
3
3
3
3
3
3
3
3
3
3
3
3
3
3
3
3
3
3
3
3
3
3
3
3
3
3
3
3
3
3
3
3
3
3
3
3
3
3
3
3
3
3
3
3
3
3
3
3
3
3
3
3
3
3
3
3
3
3
3
3
3
3
3
3
3
3
3
3
3
3
3
3
3
3
3
3
3
3
3
3
3
3
3
3
3
3
3
3
3
3
3
3
3
3
3
3
3
3
3
3
3
3
3
3
3
3
3
3
3
3
3
3
3
3
3
3
3
3
3
3
3
3
3
3
3
3
3
3
3
3
3
3
3
3
3
3
3
3
3
3
3
3
3
3
3
3
3
3
3
3
3
3
3
3
3
3
3
3
3
3
3
3
3
3
3
3
3
3
3
3
3
3
3
3
3
3
3
3
3
3
3
3
3
3
3
3
3
3
3
3
3
3
3
3
3
3
3
3
3
      </DataArray>
    </Cells>
    <PointData>
      <DataArray type="Float64" NumberOfComponents="2" Name="Displacement" format="ascii">
-0.00147265 -0.427228
0.00213158 -0.428284
-0.000422901 -0.42677
0.000309517 -0.426246
0.000696279 -0.425885
0.000964727 -0.425579
0.00113018 -0.425353
0.00123684 -0.425198
0.00128035 -0.425064
0.00128446 -0.424971
0.00124992 -0.424916
0.00118779 -0.424893
0.00109763 -0.424872
0.000988787 -0.424872
0.000863084 -0.42489
0.000727648 -0.424924
0.00058358 -0.424954
0.000437723 -0.424996
0.000293642 -0.425052
0.000156258 -0.425122
3.08666e-05 -0.425191
-7.94555e-05 -0.425279
-0.000168961 -0.425389
-0.000233247 -0.425526
-0.00026073 -0.425673
-0.000252356 -0.425864
-0.000195961 -0.426103
-8.58913e-05 -0.4264
0.000145976 -0.426718
0.000477255 -0.427148
0.00109856 -0.42774
-0.00768711 -0.426334
-0.00624921 -0.4264
-0.00481953 -0.426518
-0.00333504 -0.426778
-0.123159 -0.541093
-0.00907756 -0.426333
-0.0104709 -0.426363
-0.0125025 -0.426446
-0.0145525 -0.42658
-0.0175255 -0.426858
-0.0205352 -0.427233
-0.0249505 -0.427946
-0.0294212 -0.428859
-0.0359563 -0.430542
-0.0425339 -0.432641
-0.0472767 -0.434412
-0.051997 -0.436398
-0.0566694 -0.438612
-0.0612746 -0.441028
-0.0677763 -0.444873
-0.074062 -0.449108
-0.0800674 -0.453711
-0.0635276 -0.601003
-0.122111 -0.552047
-0.119823 -0.561839
-0.116591 -0.570364
-0.112603 -0.577637
-0.108128 -0.583748
0.0815079 -0.375131
-0.0527433 -0.599545
-0.039995 -0.595659
-0.0251468 -0.588954
0 0
-0.0298394 -0.0270154
-0.0420934 -0.0447238
-0.0436192 -0.0589886
-0.0360415 -0.0765105
-0.0257495 -0.0935793
-0.000355939 -0.407584
0 0
0 0
0 0
0 0
0.0237539 -0.394914
0.0478414 -0.348633
0.0629819 -0.251371
-0.0806359 -0.376056
0.0299595 -0.0269759
0.0422807 -0.0448833
0.0438384 -0.0592363
0.036285 -0.076835
0.0259937 -0.0939134
0.0637156 -0.601472
0.0529297 -0.600003
0.0402533 -0.596103
0.0253622 -0.589483
0.123099 -0.541835
0.0723157 -0.601652
0.0797754 -0.600674
0.0864427 -0.599012
0.0924301 -0.596507
0.0980229 -0.593378
0.00813197 -0.427419
0.122708 -0.530347
0.120703 -0.518127
0.116905 -0.505431
0.111244 -0.49261
0.106195 -0.483872
0.100258 -0.475366
0.0934419 -0.467245
0.0858404 -0.459607
0.0801473 -0.454692
0.0741592 -0.450107
0.0678917 -0.445885
0.0614085 -0.44205
0.0521708 -0.437455
0.0427409 -0.433675
0.0361888 -0.4316
0.0296964 -0.429939
0.0252436 -0.429027
0.00673706 -0.427502
0.00534745 -0.427633
0.00387275 -0.427895
-0.00828689 -0.414722
0.0367257 -0.413
0.0286974 -0.398494
0.0486805 -0.323362
-0.0490778 -0.342509
-0.00752458 -0.447112
-0.014832 -0.408572
-0.0344611 -0.50682
-0.00612647 -0.433323
-0.101492 -0.522392
-0.0316419 -0.0575453
0.0311009 -0.0586537
-0.0534999 -0.483598
-0.0195545 -0.440304
-0.005968 -0.458055
-0.00829064 -0.457185
0.00338602 -0.455965
-0.0109508 -0.456456
0.00892445 -0.458791
0.00457192 -0.444155
-0.0022022 -0.450582
0.00165268 -0.452412
-0.00636984 -0.444282
-0.015817 -0.4587
-0.0223486 -0.46339
-0.0150955 -0.465175
0.00723179 -0.422242
-0.00567645 -0.422702
-0.00955811 -0.422635
0.00915042 -0.46317
0.0142478 -0.461779
-0.0162977 -0.434739
0.0155624 -0.433997
-0.00164588 -0.456438
0.00498183 -0.448675
0.0129237 -0.438681
-0.0149265 -0.438036
0.00152112 -0.455752
0.0061803 -0.423147
-0.00160664 -0.423041
-0.00640739 -0.423676
-0.00950869 -0.452143
0.013486 -0.457687
0.0137793 -0.424504
0.0134142 -0.431169
0.0019051 -0.443949
-0.00481972 -0.446724
0.00556357 -0.449503
-0.00113572 -0.446816
-0.0141369 -0.432211
-0.0139477 -0.425112
-0.0208531 -0.458296
-0.0241732 -0.471559
0.0174193 -0.418844
0.00691231 -0.420196
-0.00325974 -0.422082
-0.0154912 -0.422002
-0.0311694 -0.480266
-0.0274956 -0.482561
0.0231301 -0.476766
0.0217591 -0.469191
0.0270537 -0.466746
0.0263577 -0.462511
-0.0213499 -0.418566
-0.0215577 -0.427742
0.0204768 -0.427281
0.030121 -0.414505
-0.0141554 -0.471817
0.00248479 -0.454509
0.0179603 -0.435191
-0.00200603 -0.45381
0.0208305 -0.478799
0.00737188 -0.423698
0.00468074 -0.423091
0.000386167 -0.423354
0.0022252 -0.423144
-0.00133535 -0.423892
-0.00347753 -0.424135
-0.00220198 -0.424131
-0.00607286 -0.424367
-0.00944831 -0.448417
-0.0168343 -0.452091
0.0216008 -0.455905
0.0118436 -0.451689
0.00816919 -0.424278
0.00965338 -0.424874
0.0123188 -0.42674
0.0116333 -0.429369
0.0067738 -0.435873
0.00173428 -0.441154
-0.00216574 -0.44235
-0.0071587 -0.43709
-0.0121661 -0.430424
-0.0123697 -0.42779
-0.00900411 -0.42547
-0.00715914 -0.424855
-0.0234727 -0.456054
-0.0367177 -0.476205
0.0254155 -0.409442
-0.00178818 -0.419715
-0.0140967 -0.417825
-0.044084 -0.497313
0.0377528 -0.494321
0.0341342 -0.473756
0.0279988 -0.457822
-0.0334868 -0.412986
0.0398036 -0.40662
-0.0232253 -0.486017
0.0241808 -0.428883
-0.0437688 -0.401325
-0.0190885 -0.434745
0.00643556 -0.464902
0.0053033 -0.424258
0.00377708 -0.42381
0.00138407 -0.423964
-0.0006143 -0.424358
-0.00213279 -0.424598
-0.00387221 -0.424985
-0.0118645 -0.446515
0.0132861 -0.447878
0.0068818 -0.425581
0.00728144 -0.429313
0.00100358 -0.437639
-0.00139034 -0.438619
-0.00702526 -0.430296
-0.00585794 -0.426281
-0.0226988 -0.445668
-0.0276176 -0.451644
-0.0315262 -0.458495
-0.0428206 -0.468636
-0.0676045 -0.501594
-0.0636463 -0.511569
0.0455403 -0.365689
0.00902242 -0.411036
-0.0370956 -0.38701
-0.0579134 -0.517714
0.0550681 -0.516749
0.0546034 -0.503037
0.0510092 -0.487684
0.0441533 -0.473956
0.0329633 -0.456849
0.0310199 -0.449084
-0.0458344 -0.387982
0.0521076 -0.378228
-0.0490089 -0.517776
-0.0118061 -0.479557
0.0483351 -0.393321
0.0326628 -0.505682
0.0544601 -0.529191
-0.0323265 -0.419208
0.0079707 -0.469168
0.00375881 -0.424934
0.00440591 -0.425472
0.00303281 -0.424366
0.00364298 -0.424501
0.00169637 -0.424352
0.00244403 -0.424291
0.000100591 -0.424612
0.000820055 -0.424497
-0.000950975 -0.424908
-0.000377412 -0.424797
-0.00222962 -0.425162
-0.00162917 -0.424971
-0.00315648 -0.426103
-0.00254013 -0.425546
-0.00395676 -0.438982
-0.00871817 -0.441822
-0.0162647 -0.444572
0.0211055 -0.443955
0.0160432 -0.444498
0.0065251 -0.441573
0.00266561 -0.439829
0.00535702 -0.426527
0.0052578 -0.428029
0.00369198 -0.431421
0.00159139 -0.433925
-0.00250557 -0.434903
-0.00372037 -0.432403
-0.00476154 -0.42887
-0.00422729 -0.427208
-0.0229277 -0.436743
-0.0310934 -0.446918
-0.0486638 -0.460337
-0.0692188 -0.486627
-0.0832862 -0.520956
0.0286355 -0.237394
0.0241685 -0.389241
0.00155853 -0.411476
-0.0177776 -0.401205
-0.0335518 -0.256227
-0.073781 -0.543365
0.0758307 -0.545896
0.0702237 -0.501309
0.0427802 -0.462702
0.0290324 -0.440965
0.0035953 -0.10451
-0.0428587 -0.297462
-0.00608925 -0.0999481
0.0371145 -0.281219
-0.0426462 -0.532928
0.0373057 -0.410484
0.0644535 -0.35521
0.0544344 -0.5458
-0.0623146 -0.366161
-0.0181273 -0.435951
0.00248551 -0.425422
0.00213196 -0.424823
0.00151833 -0.424706
0.000626355 -0.424835
-0.000248353 -0.425043
-0.000951942 -0.42536
-0.00138293 -0.426039
-0.00790766 -0.437099
-0.0162265 -0.436591
0.0139382 -0.437655
0.0049086 -0.437033
0.00243243 -0.427381
-0.000387761 -0.431877
-0.00331592 -0.432272
0.0028037 -0.433904
-0.000376108 -0.432819
-0.00160928 -0.427986
-0.0146609 -0.432022
0.0147303 -0.434139
-0.0244716 -0.430977
-0.0277536 -0.435115
-0.0342061 -0.437168
-0.0389421 -0.443812
-0.0495956 -0.447659
-0.0592092 -0.457842
-0.070802 -0.467568
-0.0840896 -0.483577
-0.0971093 -0.499936
0.0212094 -0.251784
0.00791513 -0.378158
-0.00744798 -0.38719
-0.0202186 -0.271059
-0.101206 -0.541786
-0.0970159 -0.557634
-0.0904308 -0.570357
-0.0841637 -0.583289
-0.065824 -0.575542
0.069817 -0.579218
0.0846609 -0.582643
0.0922306 -0.571934
0.0976452 -0.556697
0.101298 -0.537053
0.0939085 -0.513157
0.0848345 -0.489975
0.0751362 -0.470073
0.0587222 -0.459219
0.0501202 -0.444334
0.0408885 -0.440032
0.0343334 -0.437947
0.0243323 -0.433457
0.0293419 -0.104223
-0.00160388 -0.18917
-0.0342699 -0.278547
-0.0297379 -0.102089
0.0284223 -0.261842
0.000479914 -0.183681
-0.044928 -0.565379
-0.0194242 -0.555955
0.0369551 -0.423968
0.0515871 -0.569291
-0.0136369 -0.458764
0.0292905 -0.55086
0.00110323 -0.426119
0.00095916 -0.426641
0.00135243 -0.425595
0.00152425 -0.425181
0.00146309 -0.425364
0.00155235 -0.42496
0.00140283 -0.424864
0.00149126 -0.424904
0.00115925 -0.424853
0.000843317 -0.424893
0.00100751 -0.424872
0.000498786 -0.424972
0.00014966 -0.425069
0.000323537 -0.42502
-0.000151783 -0.425195
-0.000418117 -0.425375
-0.000293332 -0.425281
-0.000569377 -0.425621
-0.000611371 -0.426004
-0.00060885 -0.425799
-0.000434281 -0.426542
-7.39151e-05 -0.427388
-0.00028534 -0.426926
-0.0170679 -0.42972
-0.0200769 -0.430107
0.0199767 -0.432548
0.0169898 -0.432124
-0.0113624 -0.435491
-0.00663888 -0.430465
0.00961012 -0.435398
0.00681387 -0.435005
0.00739336 -0.431944
0.000147785 -0.428497
-0.000494836 -0.429621
0.00100097 -0.430994
0.000220647 -0.429437
-0.0121157 -0.429077
0.0126146 -0.429982
-0.00868033 -0.428918
-0.0100916 -0.428949
0.0106111 -0.429854
0.00921785 -0.42982
-0.00548875 -0.42825
-0.00256593 -0.428413
-0.00408418 -0.428311
0.00616509 -0.429936
0.0047952 -0.429941
0.0034028 -0.429967
0.00455381 -0.431762
-0.00355478 -0.429671
0.0103611 -0.432044
-0.00975243 -0.431273
-0.00163975 -0.430329
0.00181883 -0.429493
0.00908366 -0.43836
-0.0131113 -0.439605
0.0191936 -0.436401
-0.0196547 -0.432816
-0.00152445 -0.426731
-0.00119041 -0.425633
-0.000625683 -0.425181
0.000175623 -0.424939
0.00109211 -0.424753
0.00188115 -0.424719
0.00226889 -0.425075
0.00281074 -0.426129
0.0339759 -0.523341
-0.0141879 -0.500034
-0.00220061 -0.172278
-0.00184112 -0.18227
0.03923 -0.445824
0.0607128 -0.478318
0.0783543 -0.527009
0.073151 -0.561118
-0.0642178 -0.549522
-0.0797129 -0.533896
-0.0368358 -0.350441
0.0392353 -0.327803
-0.0841895 -0.505733
-0.0570256 -0.471414
-0.0360518 -0.453215
-0.0262924 -0.440704
0.00122209 -0.435649
-0.00312067 -0.43466
-0.0553015 -0.363375
0.0574908 -0.351007
0.00580894 -0.4096
-0.00738805 -0.427587
-0.00592592 -0.433932
0.00567128 -0.43287
0.00812401 -0.426703
0.00426692 -0.444037
0.0233946 -0.451104
-0.0195599 -0.449643
-0.00485828 -0.443147
-0.00449237 -0.425505
-0.0031568 -0.424657
-0.0012143 -0.424569
0.000155382 -0.424141
0.00271354 -0.423795
0.00473023 -0.423929
0.00572438 -0.424849
-0.0113728 -0.443984
0.0304323 -0.494075
-0.00668145 -0.467575
-0.0358053 -0.495818
0.0409535 -0.396133
-0.0278071 -0.408707
0.0327743 -0.464696
0.0371072 -0.484942
-0.00828996 -0.421542
0.00951841 -0.415883
-0.0494797 -0.492618
-0.0275908 -0.462582
-0.0245287 -0.427621
0.0234716 -0.427647
-0.009762 -0.423971
-0.0177317 -0.426651
-0.00825537 -0.439655
0.00779691 -0.43837
0.016786 -0.425794
0.0105841 -0.423477
0.0201664 -0.459998
-0.0143629 -0.453993
-0.00339808 -0.423617
0.000889171 -0.422421
0.00747264 -0.463095
0.00963782 -0.445209
0.0109245 -0.462873
-0.0129791 -0.466321
0.00716801 -0.454741
-0.00488356 -0.449994
-0.0037532 -0.449139
0.000394707 -0.450503
-0.0174725 -0.463318
-0.0382928 -0.427559
0.00824341 -0.578126
-0.0196737 -0.502772
0.0052352 -0.526965
-0.00122256 -0.570534
0.0122565 -0.494019
-0.00803589 -0.577711
0.0553102 -0.404441
0.0277978 -0.472914
0.00154037 -0.570028
0.00350941 -0.515183
0.0133543 -0.460706
0.0137993 -0.221252
0.0323666 -0.257152
0.0180796 -0.212167
0.0520521 -0.306202
-0.0130596 -0.114605
0.00191537 -0.140281
0.00647425 -0.181518
-0.00210647 -0.180106
0.0107709 -0.215861
-0.0162257 -0.139226
-0.00779912 -0.148078
-0.0235977 -0.111081
0.0182968 -0.171563
0.030916 -0.200264
-0.0336463 -0.0889643
-0.017814 -0.134723
-0.0172436 -0.232667
-0.018427 -0.216062
-0.0351056 -0.268408
-0.00675169 -0.184981
0.0132555 -0.114952
-0.00181965 -0.140734
-0.0561453 -0.319688
-0.0155043 -0.229089
-0.000526391 -0.187828
0.0155185 -0.142883
0.0236245 -0.112583
0.00758372 -0.150989
0.0336624 -0.090136
-0.018238 -0.172159
-0.030798 -0.201031
0.0158851 -0.140466
-0.0124087 -0.345811
0.0104788 -0.371517
0.0120872 -0.317401
0.00514709 -0.405554
0 0
0 0
-0.0105817 -0.163022
-0.0306735 -0.315682
-0.0227231 -0.369459
0.0134568 -0.332218
-0.011711 -0.309552
-0.0116305 -0.365386
0.0113264 -0.148163
0 0
-0.0621737 -0.250493
-0.00647122 -0.403236
0.0252748 -0.35358
0.0316752 -0.293137
-0.0446448 -0.400687
-0.045617 -0.402647
-0.0162168 -0.441042
-0.0697468 -0.367772
0.00982642 -0.476492
-0.048106 -0.395018
-0.0575902 -0.371385
0.0585483 -0.380558
0.0375568 -0.413674
0.0620444 -0.382249
0.010984 -0.449568
0.070658 -0.359631
0.0611099 -0.356083
0.0550239 -0.382481
0.0531735 -0.32543
0.0543213 -0.323329
0.0327457 -0.273831
0.017257 -0.227673
0.0499387 -0.319292
-0.0543639 -0.333553
-0.0387827 -0.289722
-0.0580976 -0.335299
-0.0233016 -0.242601
-0.0525745 -0.334391
-0.0166264 -0.184693
-0.0320197 -0.253475
-0.0179379 -0.172206
-0.0402908 -0.306379
0.00584529 -0.0583391
0.00230046 -0.1453
-0.0196403 -0.217643
-0.00643441 -0.409346
-0.00515594 -0.407362
-0.0156491 -0.39514
-0.000452719 -0.411331
-0.0283643 -0.382243
-0.00674536 -0.409571
0.00366128 -0.410227
0.0115247 -0.403986
0.0186841 -0.383743
0.00692614 -0.402178
0.0330578 -0.36458
0.0160666 -0.403168
0.0116431 -0.170627
0.0150063 -0.157544
0.0295905 -0.233814
-0.00694883 -0.0565485
0.0386626 -0.283549
0.0141632 -0.20356
-0.00563989 -0.138125
-0.0460866 -0.398135
-0.0327895 -0.41759
-0.0143547 -0.440969
-0.0219858 -0.432078
0.0561782 -0.373511
0.0356284 -0.412438
0.0131686 -0.442193
0.0145811 -0.439856
-0.0512787 -0.384298
-0.0393477 -0.409374
-0.0284683 -0.424157
-0.0346928 -0.415762
-0.0391244 -0.407897
-0.0405686 -0.402106
-0.0463438 -0.393198
-0.0319698 -0.409968
-0.0377653 -0.400151
-0.0515745 -0.375494
-0.0307829 -0.418896
0.0414961 -0.400543
0.0361537 -0.406276
0.035175 -0.411144
0.0286745 -0.419594
0.0237242 -0.420827
0.0324526 -0.417301
-0.0250485 -0.41403
-0.0276431 -0.416354
-0.0257945 -0.420964
-0.0206896 -0.421859
-0.0209492 -0.414279
-0.0181374 -0.418071
-0.0146 -0.420497
-0.0111638 -0.419939
0.00828982 -0.418267
0.00356603 -0.418213
0.00284344 -0.420007
-0.000204133 -0.421199
-0.00543378 -0.420699
0.00355288 -0.421431
0.0238823 -0.417151
0.0288753 -0.411326
0.0216692 -0.414708
0.0336094 -0.403917
0.0174402 -0.413304
0.0142949 -0.417231
0.0183398 -0.421439
0.012168 -0.419537
0.00735864 -0.421259
0.00914285 -0.422657
0.00414475 -0.422303
0.0119831 -0.420901
0.0142953 -0.42143
0.0198156 -0.0298832
0.0193284 -0.0768265
0.0151679 -0.0399943
0.0202227 -0.11282
0 0
0 0
0.0242311 -0.0241025
0.0408144 -0.0662557
0.0327595 -0.0830569
0.0371319 -0.0482528
-0.0435452 -0.235824
-0.0524189 -0.256455
-0.0372868 -0.0478041
-0.033319 -0.0813872
-0.0408088 -0.0655094
-0.0222261 -0.107889
0.0437321 -0.234795
0.0524621 -0.255073
-0.0243789 -0.0239929
-0.0157369 -0.0392957
-0.0207269 -0.0746577
-0.0199601 -0.0295857
-0.048306 -0.348092
-0.0243652 -0.394515
-0.0266586 -0.400618
-0.0171376 -0.405076
-0.0279578 -0.393634
-0.0042376 -0.410513
-0.0383439 -0.370792
-0.0333928 -0.398936
-0.0221569 -0.407803
-0.0452035 -0.366986
-0.049496 -0.367834
-0.0426047 -0.385449
-0.0526852 -0.350716
-0.0442998 -0.342337
-0.0369465 -0.275205
-0.0483371 -0.320377
-0.0438953 -0.305077
0.0402368 -0.284619
0.0447906 -0.303125
0.0314435 -0.257936
0.0527813 -0.334881
0.0450481 -0.320085
0.0501817 -0.368561
0.0531952 -0.353149
0.0490265 -0.345403
0.0556769 -0.36495
0.0432394 -0.347678
0.0445036 -0.381919
0.0474218 -0.387462
0.0277511 -0.403701
0.0192432 -0.406537
0.0180244 -0.409908
0.017449 -0.404956
0.0076335 -0.409772
0.00950808 -0.413022
0.0360054 -0.395808
0.0361234 -0.376033
0.0276075 -0.393458
0.0382864 -0.38509
0.0468584 -0.395868
0.0425121 -0.404025
0.0518141 -0.384162
0.0261777 -0.425818
0.0467127 -0.394279
0.0391703 -0.409072
0.0299155 -0.421566
-0.00475898 -0.417522
-0.0115465 -0.416327
-0.00776339 -0.419109
-0.018355 -0.412728
0.00104633 -0.415866
-0.00299163 -0.411747
-0.0117375 -0.411553
9.56645e-05 -0.413405
0.0071398 -0.539164
-0.00860872 -0.537707
-0.00576212 -0.557236
-0.0069635 -0.505069
-0.0183346 -0.528059
-0.0141683 -0.566956
0.0115411 -0.560475
0.0224833 -0.548564
0.0165448 -0.523133
0.0192844 -0.464504
0.00725294 -0.487974
0.0147234 -0.496286
-0.0015617 -0.482225
0.0302327 -0.506014
0.0311744 -0.44728
0.0243041 -0.443792
0.0651644 -0.332322
0.0615403 -0.279576
0.0544374 -0.297476
0.0383978 -0.283422
0.0464072 -0.271301
0.0693405 -0.313882
-0.0614203 -0.281164
-0.0679519 -0.341588
-0.0560689 -0.306025
-0.047988 -0.279292
-0.0432255 -0.298473
-0.0682138 -0.315375
-0.0586943 -0.38584
-0.0595651 -0.391092
-0.0428066 -0.41044
-0.0754349 -0.369131
-0.0568585 -0.404854
-0.02518 -0.444369
-0.0295854 -0.428252
-0.0585293 -0.381649
-0.0656261 -0.366321
-0.00114305 -0.46695
0.0112111 -0.483533
-0.00228945 -0.459989
0.0237058 -0.509752
0.0227219 -0.499952
-0.00423477 -0.454926
-0.0174541 -0.437332
-0.0148931 -0.447161
0.000231051 -0.477814
-0.0471123 -0.396842
-0.0534035 -0.383938
-0.0538152 -0.385245
-0.0538834 -0.379098
-0.0566603 -0.36651
-0.0597328 -0.368538
-0.0552908 -0.384191
-0.031402 -0.418652
-0.0383588 -0.409651
0.0232246 -0.432789
0.0119337 -0.453303
0.0250534 -0.435792
-0.0025566 -0.474863
0.0374296 -0.417264
0.0376384 -0.411173
0.0245109 -0.428506
0.0601358 -0.389398
0.0708638 -0.375498
0.0686102 -0.371189
0.0679903 -0.39053
0.0767851 -0.363875
0.0673104 -0.356946
0.0666184 -0.367318
0.0511416 -0.399941
0.0457254 -0.41495
0.0620654 -0.367631
0.0597206 -0.36982
0.0566703 -0.381286
0.0591427 -0.353007
0.0586999 -0.366354
0.0482422 -0.394904
0.0484287 -0.395669
0.0638703 -0.368263
0.062642 -0.35542
0.0630776 -0.340978
0.0644685 -0.338423
0.0534127 -0.318
0.0406692 -0.292309
0.0613692 -0.341128
0.0593767 -0.340073
0.0586812 -0.34167
0.0566446 -0.339416
0.044226 -0.30255
-0.0577529 -0.330954
-0.0683644 -0.349133
-0.0652865 -0.350672
-0.0627206 -0.352341
-0.0462415 -0.30792
-0.0598286 -0.349528
-0.0586827 -0.353739
-0.0480978 -0.31504
-0.0563068 -0.349588
-0.0262192 -0.425732
-0.016287 -0.438436
-0.0235419 -0.429623
-0.0242749 -0.42911
-0.0129439 -0.442649
-0.032739 -0.41825
0.0122388 -0.444728
0.000384792 -0.460533
-0.00121232 -0.465639
0.00271129 -0.455678
-0.0091105 -0.472603
-0.0133069 -0.487936
0.0246196 -0.427045
0.0249409 -0.42654
0.0140165 -0.440615
0.0250663 -0.426192
0.00391288 -0.4535
0.0365357 -0.41117
0.0434038 -0.401715
0.0306753 -0.419569
0.00832954 -0.447647
0.0208735 -0.432112
0.0324706 -0.418372
0.0383201 -0.40974
-0.00178647 -0.460285
0.0145652 -0.440092
0.0176357 -0.436582
0.00648619 -0.449377
-0.00355883 -0.454184
0.00700275 -0.466728
-0.00374612 -0.453516
0.0195636 -0.482637
0.0184893 -0.479274
-0.00292477 -0.453776
-0.00444143 -0.45352
0.0102063 -0.507942
0.0180978 -0.539697
0.0220121 -0.523757
0.00704186 -0.555513
0.0202087 -0.563894
0.0325916 -0.535579
-0.00268688 -0.494438
-0.0154827 -0.535911
-0.00211517 -0.544067
-0.00623257 -0.515567
-0.011414 -0.560805
-0.0147273 -0.477641
-0.0261587 -0.518905
-0.0220963 -0.549188
-0.0438494 -0.452926
-0.0360236 -0.495805
-0.027325 -0.467772
-0.0336177 -0.534134
-0.0465118 -0.515464
0.04116 -0.56069
0.0353451 -0.577002
0.0468192 -0.582845
-0.0608264 -0.490443
-0.0708053 -0.450372
0.0583649 -0.588247
0.0437683 -0.547989
0.053739 -0.447906
0.0393153 -0.443614
0.0403289 -0.479193
0.0336979 -0.533703
0.0465188 -0.515112
-0.033461 -0.560444
-0.0430878 -0.58145
-0.0304033 -0.579221
-0.0552122 -0.586949
0.0597362 -0.490439
0.0722906 -0.45097
-0.0313475 -0.537324
0.0669439 -0.464652
0.0745119 -0.460381
0.0662713 -0.455064
0.0803531 -0.465131
0.0208547 -0.428314
0.017867 -0.427946
0.0599133 -0.450981
0.0595345 -0.469045
0.0677055 -0.474665
0.0799784 -0.480137
0.0922456 -0.483243
0.0877053 -0.473
0.0980218 -0.491792
0.0149261 -0.427676
0.0129004 -0.427538
0.0728364 -0.484377
0.097691 -0.525399
0.110319 -0.528517
0.107374 -0.516318
0.112309 -0.540105
0.0108919 -0.427451
0.00951155 -0.42742
0.102007 -0.503782
0.0855004 -0.520916
0.089936 -0.532737
0.0992418 -0.547195
0.108853 -0.560565
0.111438 -0.55092
0.105989 -0.568808
0.103225 -0.589313
0.108127 -0.58434
0.0886847 -0.542513
0.0883549 -0.577288
0.0942351 -0.587078
0.098412 -0.581909
0.0889865 -0.590678
0.11259 -0.578263
0.116564 -0.571008
0.102598 -0.5762
0.0828108 -0.567381
0.0793879 -0.572762
0.0773787 -0.581123
0.0754269 -0.591845
0.0826076 -0.592224
0.0673831 -0.590859
0.119784 -0.562524
0.122059 -0.552743
0.0717255 -0.569848
-0.0752956 -0.579917
-0.0822616 -0.592259
-0.0735812 -0.59039
-0.0886673 -0.590662
-0.103208 -0.588741
-0.0979857 -0.592834
-0.0653458 -0.589283
-0.0655319 -0.562263
-0.0752646 -0.568475
-0.0872614 -0.576802
-0.0975916 -0.581023
-0.0939326 -0.587042
-0.101745 -0.575291
-0.092364 -0.59599
-0.0863544 -0.598497
-0.0777616 -0.561682
-0.0989204 -0.549941
-0.111237 -0.552795
-0.108473 -0.560724
-0.112064 -0.54213
-0.0796498 -0.600168
-0.0721868 -0.601163
-0.105639 -0.568939
-0.0889027 -0.546358
-0.0904831 -0.538552
-0.0906947 -0.49184
-0.091981 -0.479404
-0.098404 -0.487707
-0.0846863 -0.471605
-0.0857743 -0.458645
-0.0933953 -0.466289
-0.104027 -0.496151
-0.0904937 -0.503138
-0.0839197 -0.495005
-0.0650152 -0.4627
-0.066485 -0.453838
-0.0722656 -0.458696
-0.060107 -0.449749
-0.100238 -0.474436
-0.106191 -0.482952
-0.0781354 -0.46346
-0.0637993 -0.469773
-0.0579835 -0.464873
-0.111265 -0.491723
-0.0553454 -0.444563
-0.0507304 -0.442206
-0.0459936 -0.440228
-0.0426628 -0.450809
-0.116932 -0.50458
-0.045492 -0.400371
-0.0297462 -0.422933
-0.0322481 -0.417701
0.0628807 -0.563899
0.0535959 -0.556727
0.0611348 -0.574571
0.0446337 -0.535435
0.0640076 -0.554192
0.0504253 -0.394617
0.0496351 -0.398209
0.0602864 -0.380941
-0.055335 -0.556737
-0.0560551 -0.570666
-0.0445768 -0.548719
-0.0293885 -0.517952
-0.0537463 -0.541903
0.053832 -0.324687
0.0420817 -0.296698
-0.0560343 -0.334218
-0.04687 -0.31005
0.0517446 -0.470454
0.0505843 -0.461347
0.0489173 -0.452441
0.0408432 -0.454492
0.082187 -0.507657
0.0893941 -0.501771
0.0771439 -0.496303
0.0653716 -0.48991
0.0741818 -0.514291
0.0847136 -0.559822
0.0947484 -0.564486
0.0867939 -0.552231
0.0767411 -0.536576
0.0743946 -0.55331
-0.0856085 -0.55158
-0.0935203 -0.564118
-0.0828065 -0.557739
-0.0687775 -0.546368
-0.0765066 -0.538746
-0.0697884 -0.477462
-0.0774908 -0.475607
-0.0765375 -0.485405
-0.0768137 -0.496238
-0.0631416 -0.479014
-0.049024 -0.454209
-0.0543874 -0.452738
-0.0538724 -0.459243
-0.0528311 -0.465864
-0.0423296 -0.456763
-0.0415325 -0.405678
-0.0403602 -0.407796
0.0438724 -0.518454
0.0443078 -0.526241
0.054513 -0.536754
0.0335169 -0.513161
0.0644687 -0.545851
0.0428855 -0.511586
0.0313491 -0.499135
0.046137 -0.397678
0.0515259 -0.388146
0.052355 -0.476364
0.0433701 -0.46845
0.0376611 -0.463948
0.0384397 -0.469295
0.0526385 -0.495414
0.0621168 -0.502784
0.0606766 -0.494642
0.0668112 -0.51534
0.0555687 -0.483499
0.0439075 -0.48673
0.0459106 -0.493974
0.0545506 -0.522711
0.0652652 -0.538496
0.0659581 -0.531695
0.0665727 -0.522871
0.0429576 -0.506428
-0.0532578 -0.51798
-0.0661812 -0.530668
-0.061817 -0.531669
-0.0689689 -0.526498
-0.0570444 -0.533505
-0.0424211 -0.506449
-0.0470413 -0.507265
-0.0654236 -0.506788
-0.0756218 -0.51137
-0.0734859 -0.516738
-0.0758584 -0.503965
-0.083591 -0.51352
-0.0812877 -0.527601
-0.0719331 -0.522866
-0.056631 -0.502046
-0.0585234 -0.497426
-0.049859 -0.470199
-0.0456072 -0.464757
-0.0393283 -0.460971
-0.0351042 -0.465765
0.0218164 -0.492177
0.020606 -0.487027
0.00872918 -0.471873
0.0425584 -0.480717
0.0475149 -0.480809
0.0390452 -0.474085
0.0333677 -0.469305
0.0354924 -0.479394
0.0465464 -0.505469
0.0545838 -0.509919
0.0460883 -0.499216
0.0372475 -0.489698
0.0338902 -0.494487
-0.0539152 -0.504843
-0.0605603 -0.514838
-0.051064 -0.507394
-0.0398049 -0.49685
-0.0466042 -0.495199
0.0254638 -0.486042
0.0137168 -0.472248
0.0068492 -0.464071
0.014026 -0.470704
-0.00597686 -0.463824
-0.0184678 -0.478428
-0.0104239 -0.47018
-0.0250271 -0.48389
-0.0294828 -0.49138
-0.015177 -0.477461
-0.00186664 -0.458027
0.0293626 -0.476947
0.0278383 -0.471753
0.0208403 -0.4647
0.0162731 -0.466251
0.0218976 -0.477888
0.029316 -0.486849
0.0303963 -0.485375
0.03005 -0.481192
0.0152683 -0.470173
-0.0292367 -0.481568
-0.0375898 -0.48863
-0.0358091 -0.49013
-0.0402889 -0.486718
-0.0315591 -0.488986
-0.0201453 -0.474256
-0.0219982 -0.473615
-0.0430721 -0.484309
-0.0337881 -0.478517
-0.0269393 -0.46993
-0.032072 -0.469312
-0.0208218 -0.477579
-0.0134159 -0.469062
0.0223195 -0.473041
0.0169029 -0.469645
-0.0606018 -0.492572
-0.0612915 -0.485373
-0.0682113 -0.494357
-0.0550745 -0.477795
-0.0512976 -0.48836
-0.0395684 -0.472775
-0.0481303 -0.476069
-0.0450366 -0.480145
-0.0922966 -0.522119
-0.10124 -0.53236
-0.0926377 -0.531763
-0.112865 -0.532413
-0.0930708 -0.514278
-0.109292 -0.509048
-0.110935 -0.520338
-0.0992674 -0.511438
-0.120743 -0.517314
-0.122746 -0.529561
-0.0236472 -0.49427
-0.0388157 -0.518886
-0.0284456 -0.50773
-0.0503441 -0.529915
-0.0211032 -0.487567
-0.0364982 -0.502477
-0.0417159 -0.512748
-0.0287677 -0.495642
-0.0050477 -0.394297
-0.0124141 -0.387041
-0.0362941 -0.27586
-0.0424534 -0.295987
-0.0363769 -0.321927
-0.03835 -0.34337
0.0251344 -0.372639
0.0267936 -0.355512
-0.0052249 -0.448966
-0.0139183 -0.43901
0.0369673 -0.383584
0.0364342 -0.39063
0.0015883 -0.408324
0.00632463 -0.406072
-0.0431779 -0.0581538
-0.0391566 -0.0575578
-0.0108211 -0.0495281
-0.00971707 -0.0243978
0.024174 -0.376371
0.0178938 -0.373992
0.0431337 -0.25013
0.0413231 -0.298422
-0.0421931 -0.383737
-0.0424548 -0.374606
-0.000673541 -0.00213574
-0.00415461 -0.0241713
-0.0569887 -0.307128
-0.0317141 -0.277086
0.0581643 -0.353266
0.0555822 -0.334892
-0.0199465 -0.24105
-0.0131885 -0.215342
-0.0143587 -0.180105
-0.0170176 -0.1707
-0.00776667 -0.408572
-0.00761831 -0.409017
-0.0365074 -0.277398
-0.0422424 -0.295075
0.0163964 -0.0156623
0.0294058 -0.029159
0.0184561 -0.42005
0.0198639 -0.422085
0.0425103 -0.388019
0.039892 -0.39688
-0.0661914 -0.332268
-0.0466295 -0.29979
0.0206006 -0.412454
0.0163693 -0.41186
0.0341214 -0.263522
0.0291914 -0.260376
0.0194534 -0.418959
0.0162291 -0.418195
-0.0263613 -0.422253
-0.0218524 -0.428485
0.0379104 -0.410071
0.0374552 -0.411577
-0.000861338 -0.187413
0.0113131 -0.153119
0.0229718 -0.317482
0.0284253 -0.287969
-0.00715736 -0.385349
-0.0155101 -0.378575
-0.0128341 -0.373635
-0.00467486 -0.381558
0.00218653 -0.110696
0.00489041 -0.135108
-0.0111828 -0.430766
-0.00450595 -0.432857
-0.0443969 -0.303519
-0.0568976 -0.335465
0.00274945 -0.423697
0.00130418 -0.423157
-0.00359182 -0.304342
-9.7396e-05 -0.333169
-0.0229486 -0.366168
-0.042607 -0.361737
-0.0293597 -0.379995
-0.0211047 -0.370892
-0.0366984 -0.409899
-0.0312073 -0.414876
0.0473084 -0.317375
0.0493821 -0.322599
-0.0612004 -0.299224
-0.0576102 -0.327243
-0.0277355 -0.239286
-0.0226634 -0.196322
-0.0164118 -0.191625
-0.0152594 -0.201368
-0.0224764 -0.229144
-0.0315218 -0.260702
-0.0206975 -0.188165
-0.0187185 -0.197852
-0.0458896 -0.383898
-0.0412461 -0.390998
-0.0356853 -0.393157
-0.029525 -0.399134
-0.0339402 -0.395009
-0.0355036 -0.397538
-0.043392 -0.400104
-0.0401315 -0.403621
-0.00680586 -0.167114
0.00285701 -0.151693
-0.00413087 -0.410277
-0.0102822 -0.408565
-0.0376588 -0.348926
-0.0310385 -0.359464
0.041765 -0.293375
0.0358326 -0.272696
-0.00950261 -0.410288
-0.00902082 -0.409635
-0.0290484 -0.413309
-0.030468 -0.415022
-0.0459629 -0.385891
-0.0493711 -0.372872
0.0456102 -0.318946
0.0417626 -0.293082
-0.00727418 -0.400252
-0.0135706 -0.400693
0.0262182 -0.0886565
0.0218806 -0.0801788
-0.0330699 -0.416316
-0.0393902 -0.40733
-0.027457 -0.0678062
-0.0208447 -0.0734801
-8.66729e-05 -0.411828
-0.000275531 -0.410932
-0.0588457 -0.352677
-0.0546452 -0.331146
0.0196496 -0.402079
0.0131584 -0.406882
-0.0521041 -0.354526
-0.0518607 -0.337458
-0.0251251 -0.394854
-0.0200495 -0.402011
0.0313384 -0.097441
0.0271738 -0.109763
-0.00739647 -0.161632
-0.00123824 -0.182697
0.0360425 -0.280363
0.0230598 -0.246275
0.0338719 -0.414849
0.0491309 -0.393301
-0.0125873 -0.425061
-0.00807535 -0.424596
-0.0198423 -0.238204
-0.0293827 -0.265868
-0.00155061 -0.179458
-0.000922897 -0.166111
0.0620827 -0.354686
0.064428 -0.371166
-0.00489721 -0.408175
-0.00139381 -0.41073
-0.0123689 -0.422949
-0.00755481 -0.423401
-0.0318883 -0.41745
-0.0294848 -0.421935
-0.0128939 -0.31787
-0.00519889 -0.292877
0.022369 -0.212531
0.0253923 -0.25837
0.00807168 -0.189021
0.0106604 -0.20738
0.0302347 -0.0299985
0.0279023 -0.033909
0.0468474 -0.396035
0.0511902 -0.384396
0.0113242 -0.197057
0.0214184 -0.230749
0.00458102 -0.165971
0.0158795 -0.13347
0.0379033 -0.411349
0.0300091 -0.421593
0.0108503 -0.419431
0.0145569 -0.419866
0.0466819 -0.396329
0.0451767 -0.398631
-0.0409119 -0.31845
-0.0430062 -0.309809
0.000544287 -0.424825
-0.000264536 -0.424359
-0.0202684 -0.230935
-0.0215248 -0.224913
-0.0195145 -0.0534608
-0.0225652 -0.0406806
-0.00641369 -0.0378985
0.000105207 -0.039638
0.0314762 -0.0289187
0.0380614 -0.0407409
-0.0311408 -0.419267
-0.0447292 -0.400513
-0.00219436 -0.410243
-0.00393157 -0.408615
-0.00279237 -0.407927
-0.000885722 -0.402724
-0.0212069 -0.42084
-0.0156428 -0.422315
-0.00995501 -0.163914
-0.00355058 -0.127742
-0.057584 -0.367703
-0.0540899 -0.378835
-0.0010316 -0.410927
0.000308215 -0.411665
0.0531921 -0.375605
0.0554097 -0.361487
0.0225064 -0.115048
0.0293005 -0.0907177
0.0460386 -0.39507
0.0412165 -0.402725
0.00843107 -0.344094
-0.00660708 -0.345585
0.00623524 -0.407721
0.00180976 -0.410444
-0.0112186 -0.102567
-0.0126112 -0.0770717
-0.0135094 -0.140881
-0.0220963 -0.112107
-0.0172824 -0.424034
-0.0117454 -0.42562
-0.0196685 -0.221796
-0.00715148 -0.218881
0.055394 -0.371543
0.0549576 -0.355863
-0.0108729 -0.142352
-0.0124027 -0.164014
-0.0192448 -0.187531
-0.012993 -0.182325
-0.0150182 -0.0183285
-0.016826 -0.017
-0.0347648 -0.261548
-0.0364653 -0.269432
0.00159576 -0.41107
0.000314119 -0.411896
0.00243874 -0.0396831
0.00502522 -0.0218841
0.0493378 -0.384341
0.0524975 -0.370802
-0.0415934 -0.316726
-0.0375448 -0.29811
-0.0356001 -0.0851889
-0.033571 -0.0855131
-0.0282028 -0.385508
-0.0176651 -0.381574
-0.018688 -0.386109
-0.0221279 -0.390276
-0.0104199 -0.391137
-0.00537658 -0.380784
0.0426103 -0.393664
0.0374129 -0.399673
0.0429502 -0.364537
0.0406318 -0.355536
-0.024502 -0.228317
-0.0282941 -0.248172
-0.042502 -0.404006
-0.0435517 -0.40083
-0.00394521 -0.400879
-0.00115817 -0.407715
0.00399583 -0.404631
0.0100125 -0.400233
-0.0160867 -0.212229
-0.00615094 -0.178167
-0.00201137 -0.00262422
-0.0141463 -0.02153
-0.0306732 -0.248535
-0.0276737 -0.245136
0.0133096 -0.388324
0.00449824 -0.382039
0.0412898 -0.249946
0.0107444 -0.254624
0.0216586 -0.332949
0.0527817 -0.323094
-0.0152045 -0.0376331
-0.00836436 -0.0236787
-0.0516029 -0.364281
-0.0537578 -0.357887
0.016081 -0.216934
0.0169508 -0.228335
-0.0306387 -0.421456
-0.0389066 -0.409858
0.0190515 -0.40325
0.0256981 -0.398434
-0.0203549 -0.4013
-0.0222608 -0.402324
-0.0395426 -0.396537
-0.044427 -0.389228
0.0519778 -0.383655
0.050437 -0.385313
-0.000422462 -0.413783
0.00263221 -0.415376
-0.0202402 -0.419725
-0.0202228 -0.417474
0.0566175 -0.360261
0.0544846 -0.363179
0.0231007 -0.416571
0.0269059 -0.416477
-0.0359459 -0.0688615
-0.0396412 -0.0703348
-0.0142558 -0.407149
-0.0204983 -0.404202
-0.0440817 -0.349832
-0.0415985 -0.33831
0.0097523 -0.423556
0.00549571 -0.424408
0.0468876 -0.30934
0.0474127 -0.311087
0.0101765 -0.305747
0.016716 -0.332321
0.0126334 -0.181875
0.0118586 -0.159748
0.00430773 -0.00304364
0.0199256 -0.017193
-0.00232067 -0.0405128
0.00532877 -0.094209
-0.0174294 -0.0614178
-0.0121291 -0.0924302
0.0314184 -0.038992
0.0212892 -0.0216303
-0.0139277 -0.393735
-0.0200187 -0.391331
0.0244751 -0.428491
0.0144506 -0.440134
-0.0324842 -0.382648
-0.0353378 -0.368976
-0.0274415 -0.0636377
-0.0212046 -0.0667465
0.0154614 -0.404056
0.0222121 -0.398017
0.0220075 -0.0999833
0.0299458 -0.0832331
-0.0181889 -0.429545
-0.0180447 -0.426169
-0.00296479 -0.418654
-0.00931716 -0.417947
-0.0179947 -0.086383
-0.00926692 -0.1152
-0.0419223 -0.29454
-0.0440627 -0.313822
-0.0484643 -0.37454
-0.048253 -0.383185
0.0143649 -0.177424
0.0249977 -0.211918
0.0205573 -0.423344
0.0244407 -0.423001
0.0500933 -0.376638
0.0466306 -0.389664
0.00509259 -0.20025
0.00262139 -0.188298
0.00904693 -0.423814
0.00996528 -0.426124
-0.00349426 -0.344178
0.0104528 -0.340614
0.0246361 -0.109222
0.029542 -0.103605
-0.0116986 -0.411043
-0.0130614 -0.412666
-0.034618 -0.414486
-0.027649 -0.422468
-0.034863 -0.415645
-0.028992 -0.422335
0.0396309 -0.325421
0.0388891 -0.347807
-0.00850618 -0.371226
-0.0122609 -0.35145
-0.00635573 -0.4096
-0.00345695 -0.410418
0.0152016 -0.31107
-0.00519692 -0.310744
0.0191428 -0.191845
0.025234 -0.240065
0.0362937 -0.3348
0.0371244 -0.353222
-0.0106239 -0.253213
-0.0132575 -0.195343
0.00638698 -0.409116
0.0111713 -0.406803
0.0167303 -0.426742
0.0177447 -0.423028
0.0232785 -0.199141
0.0219121 -0.206491
0.0326561 -0.417767
0.0364114 -0.413295
-0.0369344 -0.27811
-0.033592 -0.273103
-0.0228045 -0.226214
-0.0281276 -0.236457
-0.0391559 -0.407248
-0.03377 -0.415754
0.0454357 -0.382399
0.040833 -0.392766
-0.00143839 -0.410419
-0.00178848 -0.410098
0.02143 -0.426305
0.0155155 -0.433394
0.0042417 -0.410046
0.00405528 -0.410123
-0.000918801 -0.410611
-0.00419179 -0.410207
0.0413008 -0.397825
0.0417635 -0.391892
-0.0382477 -0.0742951
-0.0338487 -0.0900915
0.016172 -0.422233
0.0112355 -0.424137
-0.0143336 -0.145112
-0.00853899 -0.161492
0.03741 -0.348019
0.042005 -0.347461
-0.0172625 -0.398031
-0.0128351 -0.404441
0.0264047 -0.41727
0.0240027 -0.416125
-0.00793828 -0.150779
-0.00192701 -0.1141
-0.0145042 -0.300293
-0.00109058 -0.26634
-0.00161717 -0.409018
-0.0039537 -0.409234
-0.0290131 -0.409507
-0.0311913 -0.410903
0.0352667 -0.414944
0.0425824 -0.40391
-0.017424 -0.339915
-0.0158719 -0.361274
0.00933882 -0.412528
0.0117922 -0.413974
0.0388629 -0.408171
0.0301809 -0.420287
-0.0182326 -0.41066
-0.025158 -0.407629
0.0335375 -0.0696281
0.0383517 -0.0652609
0.0568547 -0.358773
0.0548361 -0.3681
0.00450129 -0.409908
-0.00213452 -0.410555
0.0481014 -0.341437
0.0456865 -0.322024
0.0043422 -0.17457
0.00926329 -0.159618
-0.00200832 -0.1775
-0.0129318 -0.200416
-0.00617873 -0.427023
-0.00155175 -0.430168
0.013742 -0.02034
0.0222699 -0.0413871
0.0386985 -0.0625836
0.034157 -0.0597354
-0.0181197 -0.428151
-0.0121236 -0.430063
-0.0184109 -0.408529
-0.0250903 -0.40399
0.0360702 -0.277027
0.00739852 -0.278477
-0.00262504 -0.411257
-0.000519866 -0.412147
-0.0245616 -0.407395
-0.0231899 -0.405564
-0.027944 -0.0638698
-0.027809 -0.0436507
-0.00364089 -0.410621
0.00140184 -0.411098
0.000795765 -0.411329
-0.000630282 -0.412529
-0.0523021 -0.371618
-0.0495661 -0.376138
-0.0369186 -0.41132
-0.0334502 -0.416632
-0.0270059 -0.245944
-0.031776 -0.266059
-0.00147315 -0.368348
0.00391952 -0.382023
0.000397989 -0.411607
0.00461378 -0.409633
0.0165612 -0.410119
0.023366 -0.407918
0.022807 -0.071699
0.0195521 -0.0991954
-0.0127471 -0.256987
-0.0215752 -0.283806
0.0123946 -0.140349
0.00995512 -0.156583
0.0190689 -0.425075
0.0135485 -0.426324
0.0141167 -0.369645
0.0315512 -0.35914
0.0228209 -0.388472
0.0181212 -0.387824
0.00306511 -0.110981
0.00741425 -0.124126
0.00592835 -0.434256
0.00390887 -0.429775
0.039087 -0.401362
0.0415738 -0.401122
-0.0248523 -0.396814
-0.0303843 -0.392943
-0.0300291 -0.246664
-0.0353062 -0.264296
0.0597215 -0.340408
0.0519369 -0.323193
0.00369768 -0.0259451
-0.00410738 -0.0840747
0.0162809 -0.425524
0.0172925 -0.428606
-0.0253843 -0.253583
-0.033742 -0.277327
0.0170653 -0.0763626
0.0161974 -0.0506522
-0.00206883 -0.405064
0.000692724 -0.409258
-0.0192089 -0.234562
-0.0287583 -0.263298
-0.0432396 -0.31461
-0.0408185 -0.291048
-0.0520186 -0.332748
-0.0478569 -0.316917
0.0336776 -0.0835078
0.031212 -0.0980792
0.0337737 -0.392201
0.0279851 -0.396499
-0.0192019 -0.388577
-0.00984792 -0.384311
-0.0295631 -0.396136
-0.0230629 -0.401449
-0.0170234 -0.11283
-0.00447398 -0.169318
-0.0476587 -0.392696
-0.0437698 -0.399113
0.011732 -0.420158
0.013547 -0.421335
-0.00881922 -0.342883
0.00270964 -0.357081
0.0227971 -0.223038
0.0328185 -0.256776
-0.0424131 -0.0488513
-0.0411654 -0.060689
-0.0358329 -0.282403
-0.0215913 -0.244657
-0.0115841 -0.193036
-0.0195472 -0.20843
0.0141274 -0.381038
0.00232126 -0.38552
0.0416393 -0.2958
0.0284436 -0.261969
-0.00311155 -0.421568
-0.00102755 -0.420177
-0.00279314 -0.4278
-0.00552003 -0.431719
-0.0264265 -0.248259
-0.0333161 -0.272687
-0.0229369 -0.389494
-0.0169193 -0.398393
0.0500912 -0.321344
0.0549325 -0.341341
-0.000951711 -0.420152
-0.00356519 -0.418605
-0.0476607 -0.366291
-0.0440723 -0.370554
-0.0646792 -0.372912
-0.0571399 -0.381513
-0.0226747 -0.112344
-0.0262623 -0.110956
0.0169897 -0.0247791
0.0104607 -0.0151837
0.0125936 -0.0948484
0.0204402 -0.0695379
0.0225829 -0.426637
0.0148225 -0.433583
-0.00339961 -0.0107106
-0.00432994 -0.0244203
-0.0554901 -0.340382
-0.0490258 -0.317037
0.0203448 -0.187662
0.0111763 -0.147965
0.0218794 -0.122036
0.0189678 -0.133865
0.0417356 -0.404188
0.0537801 -0.384567
0.0433339 -0.402019
0.0488397 -0.393113
-0.0283315 -0.223068
-0.0350647 -0.259221
0.00465921 -0.107872
-0.00623637 -0.0576411
0.0462526 -0.39722
0.0510888 -0.38648
-0.000332828 -0.405238
0.00246667 -0.398102
0.0137534 -0.304679
-0.00650581 -0.290343
0.0342706 -0.260051
0.0274591 -0.229573
0.0240346 -0.0524214
0.0186131 -0.0613188
0.00860538 -0.385059
0.00769157 -0.396839
0.0130075 -0.119817
0.00456562 -0.129144
-0.0395965 -0.289652
-0.0285187 -0.257571
-0.0444427 -0.397917
-0.0463872 -0.390071
0.00101981 -0.425612
0.00232691 -0.426538
0.0476879 -0.385493
0.0438665 -0.397044
0.0315033 -0.418106
0.0450689 -0.399222
0.00161976 -0.359067
-0.00590142 -0.372736
0.0116989 -0.0148031
0.0219618 -0.0342321
0.0113013 -0.112521
0.0138768 -0.124655
-0.00513091 -0.0156976
-0.011459 -0.0287889
-0.036533 -0.413428
-0.0395328 -0.409123
0.00491647 -0.186722
0.0161762 -0.213846
-0.0676674 -0.358882
-0.0625835 -0.389286
0.00253459 -0.174525
0.00818199 -0.205187
0.000467797 -0.419355
-0.00559762 -0.419386
-0.00201635 -0.174482
-0.00357612 -0.176131
-0.0324165 -0.408584
-0.0262379 -0.413184
0.00316236 -0.371173
-0.00665921 -0.379821
-0.0266335 -0.0780427
-0.0208357 -0.0759322
-0.029879 -0.401253
-0.0231062 -0.406239
0.0390561 -0.350548
0.0404352 -0.363475
0.0321749 -0.086394
0.0292648 -0.103579
-6.84782e-05 -0.411003
0.00104871 -0.410811
0.02293 -0.200105
0.0310836 -0.237703
-0.0105089 -0.0622986
-0.00513192 -0.0622208
0.0272968 -0.412477
0.0236437 -0.412099
-0.0332188 -0.0323938
-0.018442 -0.0157342
0.0171989 -0.217321
0.0199679 -0.233941
-0.0291732 -0.421628
-0.0428102 -0.403227
-0.0343881 -0.274449
-0.0292733 -0.238222
-0.019157 -0.429759
-0.0160152 -0.42899
-0.0385265 -0.392505
-0.0429049 -0.381932
-0.000149951 -0.411638
0.000360779 -0.411409
-0.0154137 -0.423904
-0.0156144 -0.426871
0.0256084 -0.211357
0.0324699 -0.246034
-0.0273741 -0.410305
-0.0273873 -0.413395
-0.0258776 -0.256775
-0.0162865 -0.231242
-0.044681 -0.308374
-0.0454684 -0.322489
-0.0109187 -0.403128
-0.0160816 -0.394858
0.00985397 -0.375879
0.0212097 -0.380858
-0.00130753 -0.429934
-0.00137563 -0.42649
-0.00170523 -0.41061
-0.00296129 -0.410468
0.0479143 -0.393533
0.0508099 -0.383572
0.01885 -0.404634
0.0242247 -0.398966
-0.0443211 -0.333176
-0.0448929 -0.316455
0.0373037 -0.244009
0.00652072 -0.243229
0.037992 -0.354207
0.0376532 -0.369195
0.00669705 -0.404574
0.00765005 -0.396773
-0.0361135 -0.396514
-0.0299361 -0.402654
-0.0220064 -0.417481
-0.0249704 -0.413674
0.0228569 -0.41084
0.0281778 -0.409749
-0.0361857 -0.409119
-0.0344142 -0.407941
0.0196994 -0.417378
0.0194695 -0.41984
-0.0523786 -0.376894
-0.0487947 -0.390793
-0.000976369 -0.422145
-0.00203086 -0.423256
-0.011685 -0.387934
-0.00419584 -0.394686
-0.0257033 -0.249815
-0.013976 -0.22015
0.0440872 -0.339418
0.0562738 -0.315058
-0.0479426 -0.393094
-0.0525021 -0.380644
-0.0380374 -0.40709
-0.032184 -0.414485
-0.00221993 -0.445705
-0.011056 -0.439678
-0.0384249 -0.384555
-0.0393334 -0.374371
-0.0133377 -0.173
-0.0104604 -0.179876
0.0452546 -0.348937
0.0433088 -0.332507
0.0462729 -0.312763
0.0494609 -0.335558
-0.0120041 -0.412826
-0.0191821 -0.410421
-0.0541543 -0.325328
-0.0417028 -0.296765
-0.025405 -0.370744
-0.0185254 -0.386071
0.0229033 -0.408726
0.020895 -0.40727
0.0436582 -0.401374
0.0423418 -0.403594
0.00374137 -0.137945
0.0139369 -0.119124
-0.0447861 -0.302587
-0.04478 -0.332181
-0.0139983 -0.427291
-0.0141471 -0.424241
0.0198177 -0.387896
0.0265645 -0.379127
-0.0512763 -0.377376
-0.0494547 -0.375367
-0.0287733 -0.408161
-0.027991 -0.405349
-0.0343907 -0.0760709
-0.0340309 -0.0882496
0.00646518 -0.33917
-0.00393884 -0.320272
-0.022163 -0.405446
-0.0287777 -0.399581
-0.0334224 -0.401186
-0.0269424 -0.406523
-0.0101891 -0.0196021
-0.0114404 -0.0378851
-0.00140931 -0.251826
0.00556569 -0.296669
0.0063451 -0.302132
0.0141681 -0.267154
0.00404955 -0.0622107
-0.00511526 -0.108374
-0.00998918 -0.419604
-0.00476934 -0.420719
0.0366773 -0.321857
0.035021 -0.345617
-0.00986301 -0.145926
0.00265609 -0.109965
0.0793466 -0.368655
0.059095 -0.329007
-0.00264976 -0.408463
-0.000774617 -0.411257
-0.0334917 -0.0342039
-0.0288127 -0.0347185
-0.0251973 -0.0833874
-0.0198479 -0.111092
-0.0222652 -0.106856
-0.0225617 -0.120207
0.020097 -0.288423
0.0231659 -0.249783
-0.0126143 -0.400255
-0.00654482 -0.406766
-0.0064318 -0.109589
-0.0116123 -0.172282
-0.0159413 -0.410037
-0.0221429 -0.408548
0.0434972 -0.299294
0.0436047 -0.308154
0.071645 -0.353675
0.0571155 -0.328677
0.00467306 -0.194589
0.0174074 -0.229066
0.0357087 -0.412453
0.0302251 -0.417624
-0.0127748 -0.217288
-0.00406604 -0.187097
-0.00602356 -0.423515
-0.0100366 -0.422498
-0.00755588 -0.424228
-0.00490795 -0.423633
-0.0208214 -0.43127
-0.0126503 -0.438167
0.00501821 -0.0778556
-0.0045313 -0.120191
-0.0445742 -0.3894
-0.0485914 -0.377515
0.0554318 -0.35685
0.0570779 -0.350663
-0.0502739 -0.390039
-0.0518844 -0.383382
-0.020051 -0.385936
-0.0263071 -0.391807
0.00479783 -0.0967832
-0.00480975 -0.0356958
0.0451647 -0.385851
0.0407735 -0.396393
-0.0188832 -0.382731
-0.0113718 -0.372686
-0.00537361 -0.314844
-0.0107748 -0.338619
-0.013017 -0.0149368
-0.000929235 -0.0010613
-0.0230949 -0.414864
-0.0193868 -0.41436
0.0431757 -0.402344
0.0349925 -0.41499
-0.0520851 -0.333938
-0.0479653 -0.318151
-0.0166657 -0.139364
-0.00614147 -0.167914
0.0413933 -0.299168
0.0385801 -0.300691
0.0330051 -0.415835
0.037267 -0.408761
0.0452337 -0.398853
0.0508341 -0.389699
-0.035565 -0.414984
-0.041486 -0.405523
-0.00855231 -0.0237715
-0.00206522 -0.00670453
-0.00415136 -0.41051
-0.00208067 -0.411194
0.0149762 -0.342418
0.00583989 -0.329054
0.0152256 -0.439307
0.0204636 -0.432936
-0.0137938 -0.398226
-0.0151728 -0.388568
-0.0422857 -0.405156
-0.0541146 -0.386442
0.00282039 -0.426677
0.00774168 -0.428159
0.00869551 -0.168011
0.0196037 -0.195654
0.0327918 -0.0598655
0.0323722 -0.0431654
-0.0548605 -0.383493
-0.0588905 -0.365376
0.0247913 -0.383104
0.0285156 -0.384514
0.0316622 -0.287814
0.0358785 -0.31277
-0.00311923 -0.421906
-0.00744389 -0.422104
-0.0505586 -0.315241
-0.0383318 -0.2887
0.00607241 -0.0882037
0.0113672 -0.150101
-0.00119911 -0.410204
-0.00592484 -0.408042
0.0298692 -0.256939
0.0381354 -0.279389
-0.0422717 -0.0525617
-0.0373403 -0.0494782
0.000607495 -0.0779266
-0.00119013 -0.0929646
-0.00969001 -0.431448
-0.00612581 -0.438051
0.040878 -0.37177
0.035648 -0.378566
0.00719069 -0.00674239
0.0205482 -0.0234643
0.000666106 -0.423095
0.00142631 -0.421909
-0.0120376 -0.393481
-0.00733876 -0.402103
0.0190072 -0.366073
0.0251226 -0.350392
-0.0063816 -0.424614
-0.00288546 -0.425457
-0.0405908 -0.069701
-0.0432691 -0.0570881
0.00770022 -0.0686588
0.00806382 -0.0344362
0.00182264 -0.433095
0.00447811 -0.437143
-0.0243178 -0.424439
-0.0228976 -0.428249
0.0468272 -0.396115
0.0441834 -0.401273
-0.0260861 -0.424995
-0.0291997 -0.422872
0.0680631 -0.353928
0.0514217 -0.30823
-0.00726788 -0.425963
-0.00768633 -0.429359
0.0146351 -0.180086
0.0203561 -0.197977
-0.0333398 -0.270299
-0.0422163 -0.294965
0.0259302 -0.425722
0.0168271 -0.435604
0.0373948 -0.271661
0.0288622 -0.24048
-0.0403157 -0.0494969
-0.0351404 -0.046558
0.00573736 -0.414674
2.1655e-05 -0.414085
-0.021609 -0.245529
-0.03358 -0.276949
0.022045 -0.352111
0.0277239 -0.332753
0.0074253 -0.411097
0.0119004 -0.408869
-0.0457653 -0.373052
-0.0418207 -0.376773
-0.023241 -0.410858
-0.0184883 -0.41505
0.0373447 -0.409228
0.0321399 -0.413965
-0.0164257 -0.41928
-0.0150654 -0.41767
-0.01185 -0.228179
-0.0337776 -0.272659
0.0337933 -0.262113
0.0278742 -0.260455
-0.0330934 -0.409954
-0.0273635 -0.415414
0.0312719 -0.285908
0.0320546 -0.256723
0.00367674 -0.424256
0.00478615 -0.424985
0.0368563 -0.32514
0.0395761 -0.342322
-0.00915496 -0.0179352
-0.00241496 -0.00593691
-0.0342348 -0.255589
-0.0393169 -0.28772
-0.0193433 -0.0640344
-0.01581 -0.0932502
-0.00567432 -0.355241
0.00618803 -0.363383
-0.0107475 -0.407609
-0.00433132 -0.410233
0.0173667 -0.314292
0.0164617 -0.281202
0.016628 -0.188748
0.012113 -0.149045
-0.00211599 -0.410258
0.00110176 -0.410861
0.0336021 -0.335952
0.0263534 -0.329218
-0.0258835 -0.0228631
-0.0237574 -0.0236783
-0.00994841 -0.431055
-0.0107183 -0.426865
0.0222107 -0.403943
0.029228 -0.398176
0.00483061 -0.414763
-0.00131422 -0.416541
-0.0206958 -0.41762
-0.0148939 -0.418777
0.000426911 -0.424593
-0.00115147 -0.424325
0.00868159 -0.240414
0.0221286 -0.236868
0.0149561 -0.418046
0.0199371 -0.415043
-0.00883778 -0.412846
-0.00291688 -0.41447
-0.0177499 -0.42334
-0.0145505 -0.427094
0.00934132 -0.40955
0.0129035 -0.407322
-0.00431938 -0.0490095
-0.00190647 -0.00829934
0.00273605 -0.422766
0.00175383 -0.421733
0.0042204 -0.421504
0.00891385 -0.420918
-0.0319841 -0.264925
-0.0250665 -0.260249
-0.00690268 -0.409475
-0.00195978 -0.410635
0.0150271 -0.439525
0.0184602 -0.435085
-0.00613934 -0.410936
-0.00190243 -0.412193
0.0530259 -0.377106
0.0494285 -0.38648
-0.0358547 -0.0529882
-0.03932 -0.0469022
0.0440315 -0.400769
0.03594 -0.411945
0.0429517 -0.350306
0.040566 -0.367591
0.0447106 -0.338048
0.0443138 -0.316277
-0.0315068 -0.255255
-0.035442 -0.272688
0.0218135 -0.412311
0.0218016 -0.409441
0.00957744 -0.404898
0.00538463 -0.406401
0.0167582 -0.404427
0.0108351 -0.407495
-0.0235973 -0.358257
-0.00581407 -0.357641
0.0271924 -0.0327342
0.0359509 -0.0471017
0.0237498 -0.400227
0.0285684 -0.398076
-0.0234427 -0.40618
-0.0176771 -0.407835
-0.0360189 -0.39668
-0.0410014 -0.391901
-0.0207681 -0.127697
-0.0131957 -0.147678
-0.0482029 -0.389005
-0.0450802 -0.392843
0.00991507 -0.41839
0.0104152 -0.41604
0.0130228 -0.0262091
0.0199469 -0.0398512
0.0287492 -0.422637
0.016501 -0.43784
-0.0137973 -0.434256
-0.0173383 -0.428407
-0.0260975 -0.213152
-0.0278072 -0.232241
6.07875e-05 -0.424751
0.000745671 -0.424915
-0.00218413 -0.154779
-0.00506797 -0.13033
-0.0418617 -0.294087
-0.0466216 -0.314867
-0.00513879 -0.426661
-0.00242622 -0.430647
0.00442471 -0.118639
0.0143321 -0.096269
-0.0113989 -0.0126226
-0.0129831 -0.0119417
-0.0289357 -0.253242
-0.0179777 -0.220124
-0.00111881 -0.00201487
-0.000710305 -0.000840558
0.0643459 -0.373221
0.0614116 -0.3675
-0.00645438 -0.142827
0.00432198 -0.177707
0.0426092 -0.335608
0.0326217 -0.355051
-0.0509315 -0.351671
-0.0509449 -0.367648
-0.00558818 -0.416118
-0.000164825 -0.414556
0.0496763 -0.380721
0.0519228 -0.366045
-0.052916 -0.340169
-0.0486648 -0.320383
0.00484397 -0.171637
0.00908023 -0.161443
-0.00564 -0.40127
-0.00510036 -0.407552
0.0166984 -0.43481
0.00980742 -0.439243
0.00118532 -0.421011
-5.41954e-05 -0.419545
0.0417844 -0.397225
0.0362083 -0.404532
-0.00401377 -0.410386
-0.000582982 -0.410775
0.00569817 -0.409679
0.00869128 -0.40847
-0.0137033 -0.4199
-0.00826683 -0.421152
0.0518758 -0.370664
0.0497356 -0.384663
0.0377933 -0.408139
0.0318526 -0.416095
0.0242884 -0.118152
0.0243137 -0.116827
-0.0299821 -0.0437459
-0.0346674 -0.0602113
0.0372658 -0.410896
0.0416855 -0.40273
-0.0334594 -0.412607
-0.0276888 -0.418776
0.0322663 -0.279621
0.0554062 -0.244632
-0.051248 -0.355153
-0.0494653 -0.339072
-0.00775831 -0.15263
0.00478011 -0.185513
-0.00258411 -0.410025
0.000851884 -0.410841
-0.00753186 -0.0790733
0.000666298 -0.115759
-0.0161347 -0.1315
-0.020687 -0.105909
0.0399052 -0.405349
0.0343279 -0.413985
-0.0241525 -0.413861
-0.0209869 -0.417589
-0.0467373 -0.310761
-0.0535576 -0.332411
0.0206139 -0.106302
0.0307008 -0.091371
-0.0120329 -0.183325
-0.000536969 -0.155737
0.0394699 -0.406692
0.0450199 -0.396495
0.0373077 -0.0564227
0.036037 -0.0750959
0.0172144 -0.135383
0.0256806 -0.107948
0.0327658 -0.41814
0.0423368 -0.404367
0.0371706 -0.267357
0.0556141 -0.321775
0.0402059 -0.285749
0.0361747 -0.267539
0.0441851 -0.367634
0.0396091 -0.37956
-0.0498029 -0.328471
-0.0499918 -0.342414
-0.000358758 -0.41295
0.000977853 -0.414614
0.033851 -0.263814
0.0389792 -0.283773
0.0322666 -0.0519707
0.0323115 -0.0729187
0.000773737 -0.424843
0.00176442 -0.424317
-0.0183652 -0.421994
-0.0241367 -0.41965
-0.0318858 -0.325927
-0.0241065 -0.343792
-0.030724 -0.243024
-0.0348439 -0.279283
-0.0125925 -0.42485
-0.0103957 -0.428082
-0.00389125 -0.157309
0.00395148 -0.121267
-0.0184563 -0.096364
-0.0230215 -0.0681425
0.00463162 -0.423144
0.00849333 -0.422413
-0.00620071 -0.11787
-0.0116831 -0.172033
-0.0467448 -0.397419
-0.0555547 -0.379197
-0.00116963 -0.412262
0.00650077 -0.411245
0.00568387 -0.180537
0.0146773 -0.197687
-0.0182483 -0.167418
-0.0293514 -0.23668
0.00978825 -0.138579
0.0117105 -0.153434
0.0334947 -0.397931
0.0390683 -0.393151
0.0205454 -0.419447
0.0247489 -0.419108
0.0452455 -0.303995
0.0354107 -0.274493
-0.00403008 -0.403795
-0.0036695 -0.409139
0.028851 -0.421833
0.0285337 -0.420038
-0.0090722 -0.423575
-0.0129914 -0.424205
-0.0161735 -0.392359
-0.0192826 -0.379997
0.00789637 -0.0226895
0.0071368 -0.038302
-0.0108177 -0.41938
-0.00590674 -0.420777
0.0272494 -0.424999
0.027525 -0.423614
-0.0183769 -0.415443
-0.0189775 -0.412486
-0.043307 -0.298951
-0.0491624 -0.323781
0.0276457 -0.416523
0.0238745 -0.42151
-0.0457432 -0.395748
-0.0417595 -0.401974
0.00303279 -0.416559
-0.000770113 -0.414959
-0.0372291 -0.373812
-0.0410771 -0.373872
0.0350344 -0.403293
0.0292178 -0.407107
0.00315163 -0.409629
0.00412075 -0.407259
0.0504362 -0.318339
0.0383768 -0.28708
0.0331044 -0.417514
0.0321707 -0.419013
-0.035394 -0.411276
-0.0357483 -0.40792
0.00919974 -0.145083
-0.00135706 -0.179182
-0.0317749 -0.418539
-0.0286394 -0.423379
-0.0439447 -0.0533289
-0.0414709 -0.065909
0.0138722 -0.158627
0.00565383 -0.120629
0.0509193 -0.350754
0.051023 -0.336115
-0.000969009 -0.411125
-0.00352763 -0.4083
0.0073037 -0.382651
0.0059768 -0.36883
-0.00251907 -0.171705
-0.0137939 -0.138337
0.0272508 -0.419134
0.0248105 -0.423917
-0.0204113 -0.192226
-0.0115918 -0.148012
0.0105932 -0.426942
0.0162678 -0.424905
0.00332269 -0.408568
0.000420092 -0.411342
0.0277691 -0.408396
0.032886 -0.406557
0.0350934 -0.400748
0.0346048 -0.405493
0.0375809 -0.394189
0.0427104 -0.388168
-0.00596892 -0.303291
-0.00161355 -0.332053
-0.0480587 -0.391476
-0.0521729 -0.380576
0.0306283 -0.23612
0.0317822 -0.261727
0.0124064 -0.435469
0.0152755 -0.429673
0.0492006 -0.330313
0.0507036 -0.329482
-0.0162962 -0.0170684
-0.00170204 -0.00166953
0.0309607 -0.0401758
0.0369552 -0.0417449
-0.00972112 -0.408609
-0.00448532 -0.410144
-0.00221882 -0.424574
-0.000435726 -0.424963
0.0290183 -0.0350465
0.0187946 -0.0221737
0.0466866 -0.347399
0.047218 -0.329303
0.0139708 -0.396515
0.00602841 -0.395225
0.0366719 -0.0766266
0.0338266 -0.0700665
0.000655652 -0.402139
-0.000577414 -0.408469
0.00111239 -0.42307
0.00284404 -0.423569
0.0227623 -0.406452
0.0158253 -0.409036
0.0485586 -0.320767
0.0447193 -0.302926
-0.0415021 -0.404629
-0.0462204 -0.393722
0.0125536 -0.186275
0.0231928 -0.218944
0.0469096 -0.247204
0.0423682 -0.284533
-0.0346969 -0.393669
-0.0311024 -0.394013
-0.0470971 -0.311921
-0.0502983 -0.32346
0.0563614 -0.362498
0.0576613 -0.367031
0.0628362 -0.342173
0.0657668 -0.373077
-0.0126179 -0.132794
-0.00295737 -0.165704
-0.0450273 -0.368018
-0.0438733 -0.3566
-0.0415786 -0.293037
-0.0371495 -0.283769
0.0241228 -0.250625
0.0299716 -0.26682
0.0239423 -0.21327
0.0130877 -0.182058
0.00414308 -0.423969
0.0060271 -0.424489
-0.023029 -0.420831
-0.0238139 -0.41779
-0.00181613 -0.427727
-0.00411631 -0.432081
0.0200909 -0.419291
0.0154879 -0.419493
-0.0164335 -0.413507
-0.0100914 -0.413924
-0.0215109 -0.429007
-0.0196469 -0.427798
-0.00415595 -0.279164
-0.0133474 -0.226861
0.00515844 -0.0510138
0.00223187 -0.0123996
-0.00277694 -0.388262
-0.00671898 -0.39613
0.0427121 -0.354826
0.046069 -0.358437
0.0164131 -0.414222
0.0145415 -0.417134
0.0378333 -0.0749217
0.0425124 -0.0642491
-0.043368 -0.303198
-0.0423254 -0.309665
-0.0538955 -0.379729
-0.0476117 -0.395751
-0.000555453 -0.425783
-0.00285263 -0.425282
-0.0234319 -0.384353
-0.0246892 -0.369914
-0.0466218 -0.328451
-0.0446645 -0.308406
0.00671847 -0.424692
0.00453175 -0.424023
0.0130676 -0.0262392
0.0170532 -0.0528254
0.0388076 -0.284766
0.0296486 -0.25593
0.03604 -0.411877
0.050217 -0.393123
0.032083 -0.41911
0.0241132 -0.428852
-0.00110575 -0.377161
0.00578035 -0.387773
0.0287633 -0.406645
0.0260121 -0.411421
0.00219108 -0.366376
0.00095322 -0.382032
-0.00206534 -0.383375
0.00881292 -0.377567
-0.0349443 -0.414525
-0.0334712 -0.417317
0.00966688 -0.409373
0.00652231 -0.409616
-0.0091252 -0.171199
-0.0194659 -0.198879
0.00875586 -0.174306
0.0169484 -0.207558
0.00316282 -0.422178
0.00486885 -0.422873
-0.0396461 -0.369258
-0.034867 -0.37174
0.0120839 -0.421557
0.0107235 -0.423391
-0.011662 -0.40675
-0.0099087 -0.408636
0.0563109 -0.363714
0.0541463 -0.366041
0.032505 -0.248446
0.0234063 -0.218059
0.0318398 -0.0581506
0.0282327 -0.0811399
0.0423846 -0.399638
0.0422168 -0.39558
-0.0470331 -0.384844
-0.0452708 -0.39404
0.0175484 -0.0141415
0.0276817 -0.0282733
-0.0364633 -0.343199
-0.038292 -0.318748
-0.0474624 -0.31293
-0.0401651 -0.287846
0.029289 -0.377998
0.0325691 -0.362582
-0.0215061 -0.313824
-0.0108486 -0.303822
0.0426504 -0.360837
0.0381388 -0.363039
0.0410745 -0.400173
0.0398748 -0.397577
-0.0327203 -0.270454
-0.0381714 -0.253372
-0.034065 -0.278026
-0.0285774 -0.263377
0.0176441 -0.378767
0.0232376 -0.363714
-0.0216267 -0.426713
-0.0226092 -0.422999
-0.0265449 -0.369335
-0.020193 -0.354038
-0.0227276 -0.431168
-0.0103497 -0.445545
0.0273858 -0.32804
0.0057378 -0.33105
-0.0395755 -0.300626
-0.0361722 -0.310982
-0.0341713 -0.407549
-0.0388206 -0.404079
-0.0137113 -0.382408
-0.00266528 -0.379034
0.0105228 -0.407765
0.00556921 -0.409583
0.0222717 -0.420955
0.0189925 -0.425518
0.0267012 -0.0609157
0.0235593 -0.0385606
0.00821025 -0.151941
0.00490394 -0.172375
-0.0166663 -0.404562
-0.0156828 -0.403275
0.0390682 -0.280302
0.0407888 -0.289031
0.0376945 -0.346493
0.0373279 -0.363602
-0.0304822 -0.421749
-0.0393191 -0.409408
-0.0171378 -0.424872
-0.013797 -0.429341
0.047218 -0.394629
0.0461501 -0.39444
0.0417423 -0.304862
0.0374572 -0.27559
-0.0180702 -0.381386
-0.0121091 -0.369181
0.058081 -0.344839
0.050026 -0.318553
0.0177989 -0.222321
0.0311062 -0.169089
-0.0122581 -0.443367
-0.0143708 -0.440366
-0.0066831 -0.424871
-0.00500973 -0.423964
0.0251605 -0.258349
0.0297399 -0.289465
0.0196508 -0.19564
0.0229494 -0.198322
-0.0136786 -0.441833
-0.0099278 -0.445599
0.0293921 -0.421447
0.0229661 -0.427192
0.0068345 -0.411981
0.00440504 -0.414087
-0.012185 -0.14852
-0.00221223 -0.110247
-0.0263393 -0.215704
-0.0306047 -0.234623
-0.0410648 -0.405072
-0.0444177 -0.396524
-0.0334993 -0.260123
-0.031292 -0.258126
-0.060356 -0.378304
-0.0430553 -0.406421
-0.0336484 -0.411848
-0.0358067 -0.406533
0.0223469 -0.330244
0.0255604 -0.300669
0.0075803 -0.444404
0.00526711 -0.443315
0.0583186 -0.353714
0.0562778 -0.357127
0.0146082 -0.410615
0.00799654 -0.411565
0.050907 -0.389806
0.0563837 -0.374996
-0.0174175 -0.344158
-0.0066864 -0.342154
0.0248162 -0.374057
0.0367529 -0.356056
0.00352871 -0.0211904
0.000247974 -0.076164
0.00190363 -0.42646
0.00157265 -0.432083
-0.0262908 -0.404267
-0.0278246 -0.406252
0.0297696 -0.266412
0.0426522 -0.298778
-0.0342719 -0.087413
-0.0330002 -0.0907241
-0.0257079 -0.254979
-0.0248168 -0.247154
-0.00393266 -0.0044379
-0.00129978 -0.0011946
-0.0441465 -0.304405
-0.0473772 -0.326506
-0.00266681 -0.410784
-0.000300472 -0.412061
-0.00290561 -0.400536
-0.00341097 -0.407094
-0.0165324 -0.380289
-0.00650261 -0.372342
-0.0398774 -0.0526677
-0.0427956 -0.0473027
0.0163941 -0.11999
0.0128671 -0.143356
0.015856 -0.38527
0.0165031 -0.371298
-0.00189209 -0.39633
0.00253169 -0.403079
0.0502685 -0.318035
0.0456309 -0.30389
0.00163038 -0.410247
0.00225361 -0.40584
0.0256367 -0.0588497
0.0315823 -0.0580172
0.0253248 -0.0325793
0.0158848 -0.0205082
0.00298643 -0.00260129
0.0154228 -0.0129133
0.061045 -0.345392
0.058213 -0.344606
-0.0135375 -0.373222
-0.019873 -0.37847
0.00204354 -0.111114
-0.00740466 -0.0667521
-0.00479995 -0.447191
-0.00943225 -0.440093
-0.0121841 -0.146122
-0.00180364 -0.105844
0.0221947 -0.124743
0.018757 -0.130097
-0.00775832 -0.388925
0.000399369 -0.38997
0.0568974 -0.352882
0.0556447 -0.366075
0.0138691 -0.440841
0.0241957 -0.428855
0.0275015 -0.221847
0.0347207 -0.258041
-0.0241152 -0.105392
-0.0224764 -0.0907047
0.00656727 -0.439502
0.0143884 -0.431978
-0.0350556 -0.413279
-0.0344932 -0.415668
0.0286314 -0.239201
0.024013 -0.250451
-0.0385397 -0.289329
-0.0337895 -0.275524
0.0108192 -0.0185494
0.0184248 -0.0314722
-0.00139997 -0.422565
-0.00444513 -0.423136
-0.00258825 -0.132818
-0.00999655 -0.137013
-0.0314672 -0.360109
-0.0374753 -0.357278
-0.000444809 -0.399366
-0.00707954 -0.398099
0.00207997 -0.40891
0.0061499 -0.404245
0.0109314 -0.420672
0.0112347 -0.422126
0.0269739 -0.0918327
0.032982 -0.0694955
0.0360439 -0.266059
0.0426402 -0.295442
0.0245427 -0.209148
0.0183212 -0.187284
-0.024118 -0.417245
-0.0209101 -0.420868
-0.0131527 -0.40258
-0.015299 -0.395055
-0.0495133 -0.32064
-0.0422109 -0.29503
-0.031063 -0.419554
-0.0374818 -0.410609
0.0122444 -0.255182
-0.00326705 -0.286334
-0.0175107 -0.393195
-0.0215071 -0.394076
-0.007887 -0.397088
-0.0141688 -0.389142
-0.00525573 -0.410135
-0.0122344 -0.40786
-0.00105843 -0.421051
0.00397044 -0.42074
0.00765806 -0.409707
0.0109948 -0.409696
0.0433556 -0.298169
0.0492252 -0.320091
0.00470846 -0.031941
-0.00267978 -0.0602563
0.0283155 -0.0318974
0.0363747 -0.0476406
0.00278058 -0.422381
0.00403522 -0.423154
0.0408082 -0.29292
0.0432493 -0.299005
-0.00631446 -0.202239
-0.0196989 -0.238353
-0.00802592 -0.401587
-0.00391061 -0.40773
-0.0100808 -0.412501
-0.0163527 -0.411932
-0.0166362 -0.163633
-0.00553963 -0.120578
-0.00609733 -0.151652
0.00516429 -0.175
-0.00103788 -0.425152
-0.00273241 -0.424423
0.0010243 -0.410574
-0.000104903 -0.411411
-0.00636756 -0.422518
-0.00229927 -0.422868
0.00215054 -0.176093
0.00873753 -0.159485
0.0401251 -0.272667
0.0363037 -0.220821
0.000574277 -0.424697
0.00160823 -0.424582
0.0174899 -0.402373
0.0115782 -0.407277
0.0112671 -0.441976
0.0207879 -0.432441
-0.0733677 -0.364148
-0.0581153 -0.330924
-0.0231947 -0.250418
-0.0105363 -0.215702
0.00406439 -0.00834044
0.00821064 -0.0113831
-0.0393928 -0.408288
-0.0559902 -0.38652
0.0510457 -0.386604
0.052862 -0.378552
0.00603394 -0.42274
0.00302039 -0.423646
0.0456329 -0.398226
0.0481166 -0.39356
-0.0339701 -0.0848401
-0.0389467 -0.0659144
0.0322711 -0.356796
0.0253741 -0.365215
0.00328374 -0.445735
0.0110903 -0.436857
0.0392073 -0.287433
0.046612 -0.308468
0.00963212 -0.207017
0.00772494 -0.207543
-9.26862e-05 -0.412062
-0.000596333 -0.410848
0.00726846 -0.414284
0.0141626 -0.411983
0.0313192 -0.389779
0.0247657 -0.397171
0.00712131 -0.401565
0.012649 -0.393184
-0.0364555 -0.413128
-0.044462 -0.400971
0.00851994 -0.385429
0.0164315 -0.381925
-0.0218926 -0.432189
-0.0316144 -0.420325
-0.0177714 -0.383797
-0.0178913 -0.393356
0.0390537 -0.0755266
0.0354699 -0.0784888
0.0189969 -0.406558
0.0261874 -0.401995
-0.00478178 -0.423629
-0.00817574 -0.423926
-0.0321241 -0.27311
-0.040493 -0.293693
-0.0420666 -0.0560418
-0.0373376 -0.0523967
0.00703275 -0.0695665
0.0127877 -0.0615309
0.0316482 -0.37281
0.0289581 -0.384872
0.0053047 -0.403013
0.0112451 -0.395793
0.0538582 -0.335773
0.0565377 -0.356628
0.0209908 -0.407175
0.0142053 -0.409336
0.0155111 -0.225143
0.0242006 -0.251435
0.0116067 -0.144884
0.00826038 -0.130552
0.0266718 -0.256339
0.0124166 -0.216786
0.000507738 -0.422691
0.0027273 -0.421474
0.017559 -0.214479
0.0327537 -0.231962
0.011633 -0.43305
0.00717803 -0.440119
0.00458061 -0.195886
-0.00774936 -0.163405
0.0220355 -0.244206
0.0128716 -0.221903
-0.011792 -0.207909
-0.00594853 -0.181357
0.0331452 -0.0844266
0.0332063 -0.0929612
-0.0375373 -0.411949
-0.0271161 -0.425333
-0.0188986 -0.0188553
-0.0244772 -0.0217418
0.0438237 -0.29999
0.0334437 -0.264307
-0.0230942 -0.0419974
-0.0291309 -0.0569763
0.0160862 -0.10263
0.0173154 -0.0775284
-0.00247737 -0.410521
0.000227618 -0.410669
0.00828131 -0.11298
-0.0262728 -0.125092
0.0210023 -0.432598
0.0195387 -0.433877
-0.0390555 -0.0658993
-0.0428231 -0.0615415
-0.0536671 -0.365286
-0.0512705 -0.38043
-0.00408444 -0.410233
0.00139361 -0.410519
0.0300722 -0.0370859
0.0378362 -0.0450749
0.00585878 -0.00643821
0.0092645 -0.0124845
-0.0141695 -0.411684
-0.0205178 -0.410455
-0.0145368 -0.012981
-0.0288208 -0.0277779
0.0148264 -0.439643
0.018025 -0.435263
0.0495387 -0.390257
0.0428216 -0.403643
-0.0272493 -0.42004
-0.0278164 -0.416854
0.00821166 -0.420907
0.00851441 -0.419205
-0.0160159 -0.422204
-0.0112606 -0.424066
0.0201065 -0.400997
0.021403 -0.396216
0.00369809 -0.410132
0.00555761 -0.409472
0.0254357 -0.0349958
0.0286074 -0.0530556
-0.00393342 -0.0936326
-0.0112537 -0.0577947
0.0451643 -0.393013
0.0441909 -0.389346
0.000718922 -0.424132
0.000259237 -0.424813
-0.00370745 -0.410542
0.00154069 -0.410844
-0.00183718 -0.35335
0.0108985 -0.348782
0.0282087 -0.0629373
0.0263764 -0.0875934
-0.00283701 -0.424879
-0.00381924 -0.423928
0.0175189 -0.223245
0.0223272 -0.228406
-0.013599 -0.0792979
-0.0148434 -0.0497033
0.0462206 -0.39734
0.0468772 -0.396103
-0.0306308 -0.412022
-0.0246773 -0.416417
0.00233785 -0.19268
0.0153825 -0.2283
0.0253017 -0.112721
0.0463745 -0.194942
-0.0292609 -0.401919
-0.0232116 -0.405063
-0.05 -0.37218
-0.046488 -0.382101
0.0114095 -0.408513
0.00883383 -0.408703
-0.00910299 -0.142619
-0.00609498 -0.207963
0.00488631 -0.409806
-0.000381182 -0.410717
0.0149736 -0.1332
0.024015 -0.104412
0.0617214 -0.277386
0.0404485 -0.22421
-0.00348717 -0.425107
-0.00742928 -0.42453
0.0177023 -0.31895
0.0264339 -0.341084
0.0366879 -0.269575
0.0376374 -0.273755
-0.0225162 -0.430348
-0.0287098 -0.42236
-0.00115423 -0.410101
0.000922706 -0.411129
0.0164096 -0.341459
0.0229916 -0.36061
-0.00601399 -0.409152
-0.00313738 -0.409943
-0.00726008 -0.15832
-0.00912123 -0.160076
-0.00572461 -0.39977
0.000487272 -0.401787
-0.018009 -0.404555
-0.0248871 -0.39903
-0.0312015 -0.393979
-0.0246206 -0.400621
0.0510155 -0.369729
0.0523262 -0.353575
0.000999853 -0.389643
0.00477243 -0.375432
-0.00692476 -0.0315673
-0.00236529 -0.0391265
0.0217183 -0.405575
0.0286125 -0.40129
-0.0183771 -0.130649
-0.00709495 -0.159883
0.0177185 -0.186217
0.0211707 -0.188659
-0.0236759 -0.426596
-0.0181352 -0.429571
0.00722895 -0.422398
0.00426616 -0.4235
-0.0428335 -0.322647
-0.0408414 -0.297362
0.0198453 -0.0438826
0.0257471 -0.0554393
0.000103036 -0.410488
0.00546191 -0.410018
-0.0128836 -0.420764
-0.0102977 -0.422587
-0.0492303 -0.317612
-0.0566247 -0.343012
-0.00793358 -0.382948
-0.00243635 -0.393601
-0.00500416 -0.424105
-0.00919958 -0.423708
-0.00534683 -0.424098
-0.00963671 -0.423564
0.0369051 -0.271367
0.0308952 -0.23642
0.051737 -0.31834
0.066004 -0.346937
-0.00780732 -0.408976
-0.00354805 -0.410395
0.0150973 -0.434128
0.0124188 -0.432826
0.0136391 -0.16739
0.0232731 -0.205317
-0.0161484 -0.425215
-0.0209993 -0.424736
0.0449421 -0.384821
0.0473369 -0.385038
0.0460401 -0.352452
0.0465093 -0.366832
-0.0517575 -0.368561
-0.0499152 -0.382787
0.0229988 -0.377727
0.0189084 -0.390405
0.00132566 -0.42476
0.00276483 -0.424354
-0.0313857 -0.298257
-0.0374026 -0.3096
0.0439853 -0.0562062
0.040074 -0.0537719
0.0307692 -0.0911698
0.026482 -0.110794
-0.0111399 -0.392157
-0.0178447 -0.38971
-0.013762 -0.406071
-0.0188089 -0.403796
-0.00517647 -0.423099
-0.00911386 -0.423192
-0.0258629 -0.029084
-0.0221671 -0.0297979
-0.014885 -0.221489
-0.00867508 -0.210478
0.0593667 -0.361496
0.0549794 -0.381348
-0.0304474 -0.415595
-0.0315636 -0.411712
-0.0439805 -0.374636
-0.0474829 -0.362863
-0.0305268 -0.399967
-0.03625 -0.391599
-0.0175521 -0.405346
-0.0213101 -0.400437
0.0387076 -0.408902
0.0361969 -0.411656
-0.0159891 -0.415808
-0.0226502 -0.413155
0.0362387 -0.323101
0.0239452 -0.293069
-0.00996305 -0.0784991
-0.00827038 -0.0574971
-0.0147603 -0.191585
-0.0307415 -0.220394
0.00231721 -0.180485
-0.00551447 -0.200437
0.0163749 -0.123726
0.00608612 -0.15609
-0.0403647 -0.287464
-0.0330318 -0.257567
-0.0474587 -0.340326
-0.0485733 -0.35685
0.052521 -0.352179
0.0539429 -0.360451
-0.0177151 -0.409085
-0.0164427 -0.411885
-0.00986958 -0.425511
-0.00522406 -0.425364
-0.0400275 -0.361593
-0.0411674 -0.343362
-0.0522209 -0.388762
-0.0565369 -0.375345
-0.000375261 -0.412171
0.000162937 -0.411789
0.0535138 -0.361852
0.0552504 -0.364015
0.000891893 -0.412729
0.000231729 -0.411561
-0.0262384 -0.243808
-0.0222543 -0.19996
-0.0547232 -0.380266
-0.0503999 -0.389764
-0.0339889 -0.416816
-0.0440849 -0.401883
-0.00566656 -0.0986396
0.0106437 -0.14116
0.00488553 -0.158463
-0.00527395 -0.121339
-0.040973 -0.406826
-0.0482615 -0.3949
0.0107507 -0.444092
0.0169867 -0.437328
-0.000255423 -0.182348
-0.0048775 -0.116904
-0.0284519 -0.263414
-0.027612 -0.261478
-0.054663 -0.387896
-0.0621062 -0.366155
-0.0193632 -0.324229
-0.0109209 -0.344981
-0.0218072 -0.0262738
-0.0311797 -0.0365006
0.022484 -0.0668631
0.0216125 -0.041729
-0.0213178 -0.429644
-0.0273581 -0.424608
0.0401025 -0.360663
0.0427968 -0.367376
0.0243561 -0.239322
0.0354282 -0.27238
-0.00319277 -0.410495
-0.0056669 -0.40994
-0.0545167 -0.335026
-0.0526877 -0.33315
0.0374184 -0.407109
0.0382472 -0.408674
0.0173796 -0.418346
0.0136926 -0.41772
-0.0275536 -0.0667116
-0.0276753 -0.0451516
0.00258294 -0.408979
0.00570299 -0.402705
0.0059699 -0.42872
0.00948977 -0.431421
-0.00487389 -0.424962
-0.00867666 -0.423981
-0.000256247 -0.412031
-0.00239982 -0.411104
-0.0231051 -0.309557
-0.029056 -0.327516
-0.00394147 -0.41016
-0.00238481 -0.4084
0.00363668 -0.00516303
0.0143192 -0.0280258
-0.061675 -0.330465
-0.0396937 -0.277882
0.0520693 -0.369537
0.0505093 -0.365503
-0.0118935 -0.390654
-0.0108194 -0.400227
0.00776896 -0.413052
0.015122 -0.411212
0.0154204 -0.406979
0.0225477 -0.402345
-0.0168041 -0.41916
-0.0139243 -0.418137
-0.00132503 -0.09563
-0.00106757 -0.108037
-0.0341536 -0.330384
-0.0157841 -0.311446
-0.00820726 -0.435031
-0.0164385 -0.436588
-0.0164385 -0.436588
-0.0250735 -0.438646
-0.0250735 -0.438646
-0.0339196 -0.441374
-0.0339196 -0.441374
-0.0428086 -0.444864
-0.0428086 -0.444864
-0.0516126 -0.449074
-0.0516126 -0.449074
-0.0601747 -0.454001
-0.0601747 -0.454001
-0.0683688 -0.459598
-0.0683688 -0.459598
-0.0760819 -0.465802
-0.0760819 -0.465802
-0.0832106 -0.472539
-0.0832106 -0.472539
-0.0896839 -0.479714
-0.0896839 -0.479714
-0.0954367 -0.487227
-0.0954367 -0.487227
-0.100431 -0.494977
-0.100431 -0.494977
-0.10465 -0.502856
-0.10465 -0.502856
-0.10807 -0.510746
-0.10807 -0.510746
-0.110722 -0.51858
-0.110722 -0.51858
-0.112628 -0.526239
-0.112628 -0.526239
-0.113822 -0.533645
-0.113822 -0.533645
-0.114361 -0.540747
-0.114361 -0.540747
-0.114293 -0.547453
-0.114293 -0.547453
-0.113692 -0.553735
-0.113692 -0.553735
-0.112608 -0.559573
-0.112608 -0.559573
-0.111103 -0.564922
-0.111103 -0.564922
-0.109254 -0.56978
-0.109254 -0.56978
-0.107098 -0.574155
-0.107098 -0.574155
-0.104672 -0.578073
-0.104672 -0.578073
-0.102026 -0.581508
-0.102026 -0.581508
-0.0991996 -0.584497
-0.0991996 -0.584497
-0.0961712 -0.5871
-0.0961712 -0.5871
-0.0929369 -0.589298
-0.0929369 -0.589298
-0.0895429 -0.5911
-0.0895429 -0.5911
-0.0859354 -0.592472
-0.0859354 -0.592472
-0.0820476 -0.593508
-0.0820476 -0.593508
-0.0778852 -0.594169
-0.0778852 -0.594169
-0.0734306 -0.594304
-0.0734306 -0.594304
-0.0685416 -0.593944
-0.0685416 -0.593944
-0.0632215 -0.593123
-0.0632215 -0.593123
-0.0574413 -0.591621
-0.0574413 -0.591621
-0.0511276 -0.589157
-0.0511276 -0.589157
-0.0442406 -0.585805
-0.0442406 -0.585805
-0.0368035 -0.581394
-0.0368035 -0.581394
-0.0287668 -0.57542
-0.0287668 -0.57542
-0.0202079 -0.567701
-0.0202079 -0.567701
-0.0111799 -0.5579
-0.0111799 -0.5579
-0.00158569 -0.545297
-0.00158569 -0.545297
0.0081037 -0.529047
0.0081037 -0.529047
0.0180524 -0.508274
0.0180524 -0.508274
0.0280703 -0.479911
0.0280703 -0.479911
0.0384701 -0.442837
0.0384701 -0.442837
0.0529833 -0.402475
0.0529833 -0.402475
0.061668 -0.382874
0.061668 -0.382874
0.0622318 -0.375933
0.0622318 -0.375933
0.0604844 -0.373308
0.0604844 -0.373308
0.0586523 -0.373204
0.0586523 -0.373204
0.0567387 -0.374881
0.0567387 -0.374881
0.0551368 -0.377758
0.0551368 -0.377758
0.0533047 -0.381718
0.0533047 -0.381718
0.0509521 -0.386511
0.0509521 -0.386511
0.0485468 -0.391974
0.0485468 -0.391974
0.0459153 -0.397568
0.0459153 -0.397568
0.0428611 -0.402907
0.0428611 -0.402907
0.0393743 -0.407845
0.0393743 -0.407845
0.0357091 -0.412415
0.0357091 -0.412415
0.0319278 -0.41648
0.0319278 -0.41648
0.0280126 -0.420007
0.0280126 -0.420007
0.0240628 -0.423038
0.0240628 -0.423038
0.0201141 -0.425595
0.0201141 -0.425595
0.0161768 -0.427694
0.0161768 -0.427694
0.012193 -0.429429
0.012193 -0.429429
0.00811682 -0.430865
0.00811682 -0.430865
0.00382864 -0.43215
0.00382864 -0.43215
-0.00130675 -0.433496
-0.00130675 -0.433496
-0.00820726 -0.435031
0.0633626 -0.593637
0.0686681 -0.594454
0.0686681 -0.594454
0.0735519 -0.594792
0.0735519 -0.594792
0.0780021 -0.594667
0.0780021 -0.594667
0.082148 -0.594031
0.082148 -0.594031
0.0860213 -0.593002
0.0860213 -0.593002
0.0896212 -0.591645
0.0896212 -0.591645
0.0929942 -0.589856
0.0929942 -0.589856
0.0962143 -0.587682
0.0962143 -0.587682
0.0992335 -0.585086
0.0992335 -0.585086
0.10205 -0.582107
0.10205 -0.582107
0.104684 -0.578686
0.104684 -0.578686
0.107099 -0.574781
0.107099 -0.574781
0.10925 -0.570417
0.10925 -0.570417
0.111091 -0.565579
0.111091 -0.565579
0.112588 -0.560261
0.112588 -0.560261
0.113669 -0.55442
0.113669 -0.55442
0.114273 -0.548165
0.114273 -0.548165
0.114339 -0.54151
0.114339 -0.54151
0.113813 -0.534427
0.113813 -0.534427
0.112614 -0.527023
0.112614 -0.527023
0.110715 -0.519385
0.110715 -0.519385
0.108076 -0.511582
0.108076 -0.511582
0.104655 -0.503702
0.104655 -0.503702
0.100454 -0.495841
0.100454 -0.495841
0.0954785 -0.488125
0.0954785 -0.488125
0.089733 -0.480624
0.089733 -0.480624
0.0832839 -0.473473
0.0832839 -0.473473
0.0761718 -0.466757
0.0761718 -0.466757
0.0684834 -0.460566
0.0684834 -0.460566
0.0603173 -0.454983
0.0603173 -0.454983
0.0517836 -0.45006
0.0517836 -0.45006
0.0430264 -0.445864
0.0430264 -0.445864
0.0341559 -0.442395
0.0341559 -0.442395
0.0253725 -0.439666
0.0253725 -0.439666
0.016783 -0.4376
0.016783 -0.4376
0.00866956 -0.43603
0.00866956 -0.43603
0.00178978 -0.434527
0.00178978 -0.434527
-0.003319 -0.433171
-0.003319 -0.433171
-0.00766065 -0.431896
-0.00766065 -0.431896
-0.0117806 -0.430463
-0.0117806 -0.430463
-0.0158177 -0.428751
-0.0158177 -0.428751
-0.0198211 -0.426645
-0.0198211 -0.426645
-0.023835 -0.424058
-0.023835 -0.424058
-0.0278088 -0.420976
-0.0278088 -0.420976
-0.0317462 -0.417383
-0.0317462 -0.417383
-0.035549 -0.413249
-0.035549 -0.413249
-0.0391409 -0.408561
-0.0391409 -0.408561
-0.0424884 -0.403408
-0.0424884 -0.403408
-0.0456273 -0.398043
-0.0456273 -0.398043
-0.0483877 -0.392909
-0.0483877 -0.392909
-0.0507527 -0.387947
-0.0507527 -0.387947
-0.0527736 -0.383362
-0.0527736 -0.383362
-0.0546541 -0.37927
-0.0546541 -0.37927
-0.0565949 -0.376085
-0.0565949 -0.376085
-0.0582952 -0.374264
-0.0582952 -0.374264
-0.0599991 -0.374131
-0.0599991 -0.374131
-0.0612498 -0.376812
-0.0612498 -0.376812
-0.0606645 -0.383564
-0.0606645 -0.383564
-0.0534058 -0.402578
-0.0534058 -0.402578
-0.0378262 -0.443157
-0.0378262 -0.443157
-0.0270904 -0.479365
-0.0270904 -0.479365
-0.0177112 -0.508157
-0.0177112 -0.508157
-0.00790598 -0.529695
-0.00790598 -0.529695
0.00197262 -0.545741
0.00197262 -0.545741
0.0113639 -0.558454
0.0113639 -0.558454
0.0204499 -0.568115
0.0204499 -0.568115
0.0290705 -0.575801
0.0290705 -0.575801
0.037059 -0.581877
0.037059 -0.581877
0.0444467 -0.586335
0.0444467 -0.586335
0.0513216 -0.589606
0.0513216 -0.589606
0.0576337 -0.592046
0.0576337 -0.592046
0.0633626 -0.593637
      </DataArray> 
      <DataArray type="Float64" NumberOfComponents="2" Name="Velocity" format="ascii">
0 0
0 0
0 0
0 0
0 0
0 0
0 0
0 0
0 0
0 0
0 0
0 0
0 0
0 0
0 0
0 0
0 0
0 0
0 0
0 0
0 0
0 0
0 0
0 0
0 0
0 0
0 0
0 0
0 0
0 0
0 0
0 0
0 0
0 0
0 0
0 0
0 0
0 0
0 0
0 0
0 0
0 0
0 0
0 0
0 0
0 0
0 0
0 0
0 0
0 0
0 0
0 0
0 0
0 0
0 0
0 0
0 0
0 0
0 0
0 0
0 0
0 0
0 0
0 0
0 0
0 0
0 0
0 0
0 0
0 0
0 0
0 0
0 0
0 0
0 0
0 0
0 0
0 0
0 0
0 0
0 0
0 0
0 0
0 0
0 0
0 0
0 0
0 0
0 0
0 0
0 0
0 0
0 0
0 0
0 0
0 0
0 0
0 0
0 0
0 0
0 0
0 0
0 0
0 0
0 0
0 0
0 0
0 0
0 0
0 0
0 0
0 0
0 0
0 0
0 0
0 0
0 0
0 0
0 0
0 0
0 0
0 0
0 0
0 0
0 0
0 0
0 0
0 0
0 0
0 0
0 0
0 0
0 0
0 0
0 0
0 0
0 0
0 0
0 0
0 0
0 0
0 0
0 0
0 0
0 0
0 0
0 0
0 0
0 0
0 0
0 0
0 0
0 0
0 0
0 0
0 0
0 0
0 0
0 0
0 0
0 0
0 0
0 0
0 0
0 0
0 0
0 0
0 0
0 0
0 0
0 0
0 0
0 0
0 0
0 0
0 0
0 0
0 0
0 0
0 0
0 0
0 0
0 0
0 0
0 0
0 0
0 0
0 0
0 0
0 0
0 0
0 0
0 0
0 0
0 0
0 0
0 0
0 0
0 0
0 0
0 0
0 0
0 0
0 0
0 0
0 0
0 0
0 0
0 0
0 0
0 0
0 0
0 0
0 0
0 0
0 0
0 0
0 0
0 0
0 0
0 0
0 0
0 0
0 0
0 0
0 0
0 0
0 0
0 0
0 0
0 0
0 0
0 0
0 0
0 0
0 0
0 0
0 0
0 0
0 0
0 0
0 0
0 0
0 0
0 0
0 0
0 0
0 0
0 0
0 0
0 0
0 0
0 0
0 0
0 0
0 0
0 0
0 0
0 0
0 0
0 0
0 0
0 0
0 0
0 0
0 0
0 0
0 0
0 0
0 0
0 0
0 0
0 0
0 0
0 0
0 0
0 0
0 0
0 0
0 0
0 0
0 0
0 0
0 0
0 0
0 0
0 0
0 0
0 0
0 0
0 0
0 0
0 0
0 0
0 0
0 0
0 0
0 0
0 0
0 0
0 0
0 0
0 0
0 0
0 0
0 0
0 0
0 0
0 0
0 0
0 0
0 0
0 0
0 0
0 0
0 0
0 0
0 0
0 0
0 0
0 0
0 0
0 0
0 0
0 0
0 0
0 0
0 0
0 0
0 0
0 0
0 0
0 0
0 0
0 0
0 0
0 0
0 0
0 0
0 0
0 0
0 0
0 0
0 0
0 0
0 0
0 0
0 0
0 0
0 0
0 0
0 0
0 0
0 0
0 0
0 0
0 0
0 0
0 0
0 0
0 0
0 0
0 0
0 0
0 0
0 0
0 0
0 0
0 0
0 0
0 0
0 0
0 0
0 0
0 0
0 0
0 0
0 0
0 0
0 0
0 0
0 0
0 0
0 0
0 0
0 0
0 0
0 0
0 0
0 0
0 0
0 0
0 0
0 0
0 0
0 0
0 0
0 0
0 0
0 0
0 0
0 0
0 0
0 0
0 0
0 0
0 0
0 0
0 0
0 0
0 0
0 0
0 0
0 0
0 0
0 0
0 0
0 0
0 0
0 0
0 0
0 0
0 0
0 0
0 0
0 0
0 0
0 0
0 0
0 0
0 0
0 0
0 0
0 0
0 0
0 0
0 0
0 0
0 0
0 0
0 0
0 0
0 0
0 0
0 0
0 0
0 0
0 0
0 0
0 0
0 0
0 0
0 0
0 0
0 0
0 0
0 0
0 0
0 0
0 0
0 0
0 0
0 0
0 0
0 0
0 0
0 0
0 0
0 0
0 0
0 0
0 0
0 0
0 0
0 0
0 0
0 0
0 0
0 0
0 0
0 0
0 0
0 0
0 0
0 0
0 0
0 0
0 0
0 0
0 0
0 0
0 0
0 0
0 0
0 0
0 0
0 0
0 0
0 0
0 0
0 0
0 0
0 0
0 0
0 0
0 0
0 0
0 0
0 0
0 0
0 0
0 0
0 0
0 0
0 0
0 0
0 0
0 0
0 0
0 0
0 0
0 0
0 0
0 0
0 0
0 0
0 0
0 0
0 0
0 0
0 0
0 0
0 0
0 0
0 0
0 0
0 0
0 0
0 0
0 0
0 0
0 0
0 0
0 0
0 0
0 0
0 0
0 0
0 0
0 0
0 0
0 0
0 0
0 0
0 0
0 0
0 0
0 0
0 0
0 0
0 0
0 0
0 0
0 0
0 0
0 0
0 0
0 0
0 0
0 0
0 0
0 0
0 0
0 0
0 0
0 0
0 0
0 0
0 0
0 0
0 0
0 0
0 0
0 0
0 0
0 0
0 0
0 0
0 0
0 0
0 0
0 0
0 0
0 0
0 0
0 0
0 0
0 0
0 0
0 0
0 0
0 0
0 0
0 0
0 0
0 0
0 0
0 0
0 0
0 0
0 0
0 0
0 0
0 0
0 0
0 0
0 0
0 0
0 0
0 0
0 0
0 0
0 0
0 0
0 0
0 0
0 0
0 0
0 0
0 0
0 0
0 0
0 0
0 0
0 0
0 0
0 0
0 0
0 0
0 0
0 0
0 0
0 0
0 0
0 0
0 0
0 0
0 0
0 0
0 0
0 0
0 0
0 0
0 0
0 0
0 0
0 0
0 0
0 0
0 0
0 0
0 0
0 0
0 0
0 0
0 0
0 0
0 0
0 0
0 0
0 0
0 0
0 0
0 0
0 0
0 0
0 0
0 0
0 0
0 0
0 0
0 0
0 0
0 0
0 0
0 0
0 0
0 0
0 0
0 0
0 0
0 0
0 0
0 0
0 0
0 0
0 0
0 0
0 0
0 0
0 0
0 0
0 0
0 0
0 0
0 0
0 0
0 0
0 0
0 0
0 0
0 0
0 0
0 0
0 0
0 0
0 0
0 0
0 0
0 0
0 0
0 0
0 0
0 0
0 0
0 0
0 0
0 0
0 0
0 0
0 0
0 0
0 0
0 0
0 0
0 0
0 0
0 0
0 0
0 0
0 0
0 0
0 0
0 0
0 0
0 0
0 0
0 0
0 0
0 0
0 0
0 0
0 0
0 0
0 0
0 0
0 0
0 0
0 0
0 0
0 0
0 0
0 0
0 0
0 0
0 0
0 0
0 0
0 0
0 0
0 0
0 0
0 0
0 0
0 0
0 0
0 0
0 0
0 0
0 0
0 0
0 0
0 0
0 0
0 0
0 0
0 0
0 0
0 0
0 0
0 0
0 0
0 0
0 0
0 0
0 0
0 0
0 0
0 0
0 0
0 0
0 0
0 0
0 0
0 0
0 0
0 0
0 0
0 0
0 0
0 0
0 0
0 0
0 0
0 0
0 0
0 0
0 0
0 0
0 0
0 0
0 0
0 0
0 0
0 0
0 0
0 0
0 0
0 0
0 0
0 0
0 0
0 0
0 0
0 0
0 0
0 0
0 0
0 0
0 0
0 0
0 0
0 0
0 0
0 0
0 0
0 0
0 0
0 0
0 0
0 0
0 0
0 0
0 0
0 0
0 0
0 0
0 0
0 0
0 0
0 0
0 0
0 0
0 0
0 0
0 0
0 0
0 0
0 0
0 0
0 0
0 0
0 0
0 0
0 0
0 0
0 0
0 0
0 0
0 0
0 0
0 0
0 0
0 0
0 0
0 0
0 0
0 0
0 0
0 0
0 0
0 0
0 0
0 0
0 0
0 0
0 0
0 0
0 0
0 0
0 0
0 0
0 0
0 0
0 0
0 0
0 0
0 0
0 0
0 0
0 0
0 0
0 0
0 0
0 0
0 0
0 0
0 0
0 0
0 0
0 0
0 0
0 0
0 0
0 0
0 0
0 0
0 0
0 0
0 0
0 0
0 0
0 0
0 0
0 0
0 0
0 0
0 0
0 0
0 0
0 0
0 0
0 0
0 0
0 0
0 0
0 0
0 0
0 0
0 0
0 0
0 0
0 0
0 0
0 0
0 0
0 0
0 0
0 0
0 0
0 0
0 0
0 0
0 0
0 0
0 0
0 0
0 0
0 0
0 0
0 0
0 0
0 0
0 0
0 0
0 0
0 0
0 0
0 0
0 0
0 0
0 0
0 0
0 0
0 0
0 0
0 0
0 0
0 0
0 0
0 0
0 0
0 0
0 0
0 0
0 0
0 0
0 0
0 0
0 0
0 0
0 0
0 0
0 0
0 0
0 0
0 0
0 0
0 0
0 0
0 0
0 0
0 0
0 0
0 0
0 0
0 0
0 0
0 0
0 0
0 0
0 0
0 0
0 0
0 0
0 0
0 0
0 0
0 0
0 0
0 0
0 0
0 0
0 0
0 0
0 0
0 0
0 0
0 0
0 0
0 0
0 0
0 0
0 0
0 0
0 0
0 0
0 0
0 0
0 0
0 0
0 0
0 0
0 0
0 0
0 0
0 0
0 0
0 0
0 0
0 0
0 0
0 0
0 0
0 0
0 0
0 0
0 0
0 0
0 0
0 0
0 0
0 0
0 0
0 0
0 0
0 0
0 0
0 0
0 0
0 0
0 0
0 0
0 0
0 0
0 0
0 0
0 0
0 0
0 0
0 0
0 0
0 0
0 0
0 0
0 0
0 0
0 0
0 0
0 0
0 0
0 0
0 0
0 0
0 0
0 0
0 0
0 0
0 0
0 0
0 0
0 0
0 0
0 0
0 0
0 0
0 0
0 0
0 0
0 0
0 0
0 0
0 0
0 0
0 0
0 0
0 0
0 0
0 0
0 0
0 0
0 0
0 0
0 0
0 0
0 0
0 0
0 0
0 0
0 0
0 0
0 0
0 0
0 0
0 0
0 0
0 0
0 0
0 0
0 0
0 0
0 0
0 0
0 0
0 0
0 0
0 0
0 0
0 0
0 0
0 0
0 0
0 0
0 0
0 0
0 0
0 0
0 0
0 0
0 0
0 0
0 0
0 0
0 0
0 0
0 0
0 0
0 0
0 0
0 0
0 0
0 0
0 0
0 0
0 0
0 0
0 0
0 0
0 0
0 0
0 0
0 0
0 0
0 0
0 0
0 0
0 0
0 0
0 0
0 0
0 0
0 0
0 0
0 0
0 0
0 0
0 0
0 0
0 0
0 0
0 0
0 0
0 0
0 0
0 0
0 0
0 0
0 0
0 0
0 0
0 0
0 0
0 0
0 0
0 0
0 0
0 0
0 0
0 0
0 0
0 0
0 0
0 0
0 0
0 0
0 0
0 0
0 0
0 0
0 0
0 0
0 0
0 0
0 0
0 0
0 0
0 0
0 0
0 0
0 0
0 0
0 0
0 0
0 0
0 0
0 0
0 0
0 0
0 0
0 0
0 0
0 0
0 0
0 0
0 0
0 0
0 0
0 0
0 0
0 0
0 0
0 0
0 0
0 0
0 0
0 0
0 0
0 0
0 0
0 0
0 0
0 0
0 0
0 0
0 0
0 0
0 0
0 0
0 0
0 0
0 0
0 0
0 0
0 0
0 0
0 0
0 0
0 0
0 0
0 0
0 0
0 0
0 0
0 0
0 0
0 0
0 0
0 0
0 0
0 0
0 0
0 0
0 0
0 0
0 0
0 0
0 0
0 0
0 0
0 0
0 0
0 0
0 0
0 0
0 0
0 0
0 0
0 0
0 0
0 0
0 0
0 0
0 0
0 0
0 0
0 0
0 0
0 0
0 0
0 0
0 0
0 0
0 0
0 0
0 0
0 0
0 0
0 0
0 0
0 0
0 0
0 0
0 0
0 0
0 0
0 0
0 0
0 0
0 0
0 0
0 0
0 0
0 0
0 0
0 0
0 0
0 0
0 0
0 0
0 0
0 0
0 0
0 0
0 0
0 0
0 0
0 0
0 0
0 0
0 0
0 0
0 0
0 0
0 0
0 0
0 0
0 0
0 0
0 0
0 0
0 0
0 0
0 0
0 0
0 0
0 0
0 0
0 0
0 0
0 0
0 0
0 0
0 0
0 0
0 0
0 0
0 0
0 0
0 0
0 0
0 0
0 0
0 0
0 0
0 0
0 0
0 0
0 0
0 0
0 0
0 0
0 0
0 0
0 0
0 0
0 0
0 0
0 0
0 0
0 0
0 0
0 0
0 0
0 0
0 0
0 0
0 0
0 0
0 0
0 0
0 0
0 0
0 0
0 0
0 0
0 0
0 0
0 0
0 0
0 0
0 0
0 0
0 0
0 0
0 0
0 0
0 0
0 0
0 0
0 0
0 0
0 0
0 0
0 0
0 0
0 0
0 0
0 0
0 0
0 0
0 0
0 0
0 0
0 0
0 0
0 0
0 0
0 0
0 0
0 0
0 0
0 0
0 0
0 0
0 0
0 0
0 0
0 0
0 0
0 0
0 0
0 0
0 0
0 0
0 0
0 0
0 0
0 0
0 0
0 0
0 0
0 0
0 0
0 0
0 0
0 0
0 0
0 0
0 0
0 0
0 0
0 0
0 0
0 0
0 0
0 0
0 0
0 0
0 0
0 0
0 0
0 0
0 0
0 0
0 0
0 0
0 0
0 0
0 0
0 0
0 0
0 0
0 0
0 0
0 0
0 0
0 0
0 0
0 0
0 0
0 0
0 0
0 0
0 0
0 0
0 0
0 0
0 0
0 0
0 0
0 0
0 0
0 0
0 0
0 0
0 0
0 0
0 0
0 0
0 0
0 0
0 0
0 0
0 0
0 0
0 0
0 0
0 0
0 0
0 0
0 0
0 0
0 0
0 0
0 0
0 0
0 0
0 0
0 0
0 0
0 0
0 0
0 0
0 0
0 0
0 0
0 0
0 0
0 0
0 0
0 0
0 0
0 0
0 0
0 0
0 0
0 0
0 0
0 0
0 0
0 0
0 0
0 0
0 0
0 0
0 0
0 0
0 0
0 0
0 0
0 0
0 0
0 0
0 0
0 0
0 0
0 0
0 0
0 0
0 0
0 0
0 0
0 0
0 0
0 0
0 0
0 0
0 0
0 0
0 0
0 0
0 0
0 0
0 0
0 0
0 0
0 0
0 0
0 0
0 0
0 0
0 0
0 0
0 0
0 0
0 0
0 0
0 0
0 0
0 0
0 0
0 0
0 0
0 0
0 0
0 0
0 0
0 0
0 0
0 0
0 0
0 0
0 0
0 0
0 0
0 0
0 0
0 0
0 0
0 0
0 0
0 0
0 0
0 0
0 0
0 0
0 0
0 0
0 0
0 0
0 0
0 0
0 0
0 0
0 0
0 0
0 0
0 0
0 0
0 0
0 0
0 0
0 0
0 0
0 0
0 0
0 0
0 0
0 0
0 0
0 0
0 0
0 0
0 0
0 0
0 0
0 0
0 0
0 0
0 0
0 0
0 0
0 0
0 0
0 0
0 0
0 0
0 0
0 0
0 0
0 0
0 0
0 0
0 0
0 0
0 0
0 0
0 0
0 0
0 0
0 0
0 0
0 0
0 0
0 0
0 0
0 0
0 0
0 0
0 0
0 0
0 0
0 0
0 0
0 0
0 0
0 0
0 0
0 0
0 0
0 0
0 0
0 0
0 0
0 0
0 0
0 0
0 0
0 0
0 0
0 0
0 0
0 0
0 0
0 0
0 0
0 0
0 0
0 0
0 0
0 0
0 0
0 0
0 0
0 0
0 0
0 0
0 0
0 0
0 0
0 0
0 0
0 0
0 0
0 0
0 0
0 0
0 0
0 0
0 0
0 0
0 0
0 0
0 0
0 0
0 0
0 0
0 0
0 0
0 0
0 0
0 0
0 0
0 0
0 0
0 0
0 0
0 0
0 0
0 0
0 0
0 0
0 0
0 0
0 0
0 0
0 0
0 0
0 0
0 0
0 0
0 0
0 0
0 0
0 0
0 0
0 0
0 0
0 0
0 0
0 0
0 0
0 0
0 0
0 0
0 0
0 0
0 0
0 0
0 0
0 0
0 0
0 0
0 0
0 0
0 0
0 0
0 0
0 0
0 0
0 0
0 0
0 0
0 0
0 0
0 0
0 0
0 0
0 0
0 0
0 0
0 0
0 0
0 0
0 0
0 0
0 0
0 0
0 0
0 0
0 0
0 0
0 0
0 0
0 0
0 0
0 0
0 0
0 0
0 0
0 0
0 0
0 0
0 0
0 0
0 0
0 0
0 0
0 0
0 0
0 0
0 0
0 0
0 0
0 0
0 0
0 0
0 0
0 0
0 0
0 0
0 0
0 0
0 0
0 0
0 0
0 0
0 0
0 0
0 0
0 0
0 0
0 0
0 0
0 0
0 0
0 0
0 0
0 0
0 0
0 0
0 0
0 0
0 0
0 0
0 0
0 0
0 0
0 0
0 0
0 0
0 0
0 0
0 0
0 0
0 0
0 0
0 0
0 0
0 0
0 0
0 0
0 0
0 0
0 0
0 0
0 0
0 0
0 0
0 0
0 0
0 0
0 0
0 0
0 0
0 0
0 0
0 0
0 0
0 0
0 0
0 0
0 0
0 0
0 0
0 0
0 0
0 0
0 0
0 0
0 0
0 0
0 0
0 0
0 0
0 0
0 0
0 0
0 0
0 0
0 0
0 0
0 0
0 0
0 0
0 0
0 0
0 0
0 0
0 0
0 0
0 0
0 0
0 0
0 0
0 0
0 0
0 0
0 0
0 0
0 0
0 0
0 0
0 0
0 0
0 0
0 0
0 0
0 0
0 0
0 0
0 0
0 0
0 0
0 0
0 0
0 0
0 0
0 0
0 0
0 0
0 0
0 0
0 0
0 0
0 0
0 0
0 0
0 0
0 0
0 0
0 0
0 0
0 0
0 0
0 0
0 0
0 0
0 0
0 0
0 0
0 0
0 0
0 0
0 0
0 0
0 0
0 0
0 0
0 0
0 0
0 0
0 0
0 0
0 0
0 0
0 0
0 0
0 0
0 0
0 0
0 0
0 0
0 0
0 0
0 0
0 0
0 0
0 0
0 0
0 0
0 0
0 0
0 0
0 0
0 0
0 0
0 0
0 0
0 0
0 0
0 0
0 0
0 0
0 0
0 0
0 0
0 0
0 0
0 0
0 0
0 0
0 0
0 0
0 0
0 0
0 0
0 0
0 0
0 0
0 0
0 0
0 0
0 0
0 0
0 0
0 0
0 0
0 0
0 0
0 0
0 0
0 0
0 0
0 0
0 0
0 0
0 0
0 0
0 0
0 0
0 0
0 0
0 0
0 0
0 0
0 0
0 0
0 0
0 0
0 0
0 0
0 0
0 0
0 0
0 0
0 0
0 0
0 0
0 0
0 0
0 0
0 0
0 0
0 0
0 0
0 0
0 0
0 0
0 0
0 0
0 0
0 0
0 0
0 0
0 0
0 0
0 0
0 0
0 0
0 0
0 0
0 0
0 0
0 0
0 0
0 0
0 0
0 0
0 0
0 0
0 0
0 0
0 0
0 0
0 0
0 0
0 0
0 0
0 0
0 0
0 0
0 0
0 0
0 0
0 0
0 0
0 0
0 0
0 0
0 0
0 0
0 0
0 0
0 0
0 0
0 0
0 0
0 0
0 0
0 0
0 0
0 0
0 0
0 0
0 0
0 0
0 0
0 0
0 0
0 0
0 0
0 0
0 0
0 0
0 0
0 0
0 0
0 0
0 0
0 0
0 0
0 0
0 0
0 0
0 0
0 0
0 0
0 0
0 0
0 0
0 0
0 0
0 0
0 0
0 0
0 0
0 0
0 0
0 0
0 0
0 0
0 0
0 0
0 0
0 0
0 0
0 0
0 0
0 0
0 0
0 0
0 0
0 0
0 0
0 0
0 0
0 0
0 0
0 0
0 0
0 0
0 0
0 0
0 0
0 0
0 0
0 0
0 0
0 0
0 0
0 0
0 0
0 0
0 0
0 0
0 0
0 0
0 0
0 0
0 0
0 0
0 0
0 0
0 0
0 0
0 0
0 0
0 0
0 0
0 0
0 0
0 0
0 0
0 0
0 0
0 0
0 0
0 0
0 0
0 0
0 0
0 0
0 0
0 0
0 0
0 0
0 0
0 0
0 0
0 0
0 0
0 0
0 0
0 0
0 0
0 0
0 0
0 0
0 0
0 0
0 0
0 0
0 0
0 0
0 0
0 0
0 0
0 0
0 0
0 0
0 0
0 0
0 0
0 0
0 0
0 0
0 0
0 0
0 0
0 0
0 0
0 0
0 0
0 0
0 0
0 0
0 0
0 0
0 0
0 0
0 0
0 0
0 0
0 0
0 0
0 0
0 0
0 0
0 0
0 0
0 0
0 0
0 0
0 0
0 0
0 0
0 0
0 0
0 0
0 0
0 0
0 0
0 0
0 0
0 0
0 0
0 0
0 0
0 0
0 0
0 0
0 0
0 0
0 0
0 0
0 0
0 0
0 0
0 0
0 0
0 0
0 0
0 0
0 0
0 0
0 0
0 0
0 0
0 0
0 0
0 0
0 0
0 0
0 0
0 0
0 0
0 0
0 0
0 0
0 0
0 0
0 0
0 0
0 0
0 0
0 0
0 0
0 0
0 0
0 0
0 0
0 0
0 0
0 0
0 0
0 0
0 0
0 0
0 0
0 0
0 0
0 0
0 0
0 0
0 0
0 0
0 0
0 0
0 0
0 0
0 0
0 0
0 0
0 0
0 0
0 0
0 0
0 0
0 0
0 0
0 0
0 0
0 0
0 0
0 0
0 0
0 0
0 0
0 0
0 0
0 0
0 0
0 0
0 0
0 0
0 0
0 0
0 0
0 0
0 0
0 0
0 0
0 0
0 0
0 0
0 0
0 0
0 0
0 0
0 0
0 0
0 0
0 0
0 0
0 0
0 0
0 0
0 0
0 0
0 0
0 0
0 0
0 0
0 0
0 0
0 0
0 0
0 0
0 0
0 0
0 0
0 0
0 0
0 0
0 0
0 0
0 0
0 0
0 0
0 0
0 0
0 0
0 0
0 0
0 0
0 0
0 0
0 0
0 0
0 0
0 0
0 0
0 0
0 0
0 0
0 0
0 0
0 0
0 0
0 0
0 0
0 0
0 0
0 0
0 0
0 0
0 0
0 0
0 0
0 0
0 0
0 0
0 0
0 0
0 0
0 0
0 0
0 0
0 0
0 0
0 0
0 0
0 0
0 0
0 0
0 0
0 0
0 0
0 0
0 0
0 0
0 0
0 0
0 0
0 0
0 0
0 0
0 0
0 0
0 0
0 0
0 0
0 0
0 0
0 0
0 0
0 0
0 0
0 0
0 0
0 0
0 0
0 0
0 0
0 0
0 0
0 0
0 0
0 0
0 0
0 0
0 0
0 0
0 0
0 0
0 0
0 0
0 0
0 0
0 0
0 0
0 0
0 0
0 0
0 0
0 0
0 0
0 0
0 0
0 0
0 0
0 0
0 0
0 0
0 0
0 0
0 0
0 0
0 0
0 0
0 0
0 0
0 0
0 0
0 0
0 0
0 0
0 0
0 0
0 0
0 0
0 0
0 0
0 0
0 0
0 0
0 0
0 0
0 0
0 0
0 0
0 0
0 0
0 0
0 0
0 0
0 0
0 0
0 0
0 0
0 0
0 0
0 0
0 0
0 0
0 0
0 0
0 0
0 0
0 0
0 0
0 0
0 0
0 0
0 0
0 0
0 0
0 0
0 0
0 0
0 0
0 0
0 0
0 0
0 0
0 0
0 0
0 0
0 0
0 0
0 0
0 0
0 0
0 0
0 0
0 0
0 0
0 0
0 0
0 0
0 0
0 0
0 0
0 0
0 0
0 0
0 0
0 0
0 0
0 0
0 0
0 0
0 0
0 0
0 0
0 0
0 0
0 0
0 0
0 0
0 0
0 0
0 0
0 0
0 0
0 0
0 0
0 0
0 0
0 0
0 0
0 0
0 0
0 0
0 0
0 0
0 0
0 0
0 0
0 0
0 0
0 0
0 0
0 0
0 0
0 0
0 0
0 0
0 0
0 0
0 0
0 0
0 0
0 0
0 0
0 0
0 0
0 0
0 0
0 0
0 0
0 0
0 0
0 0
0 0
0 0
0 0
0 0
0 0
0 0
0 0
0 0
0 0
0 0
0 0
0 0
0 0
0 0
0 0
0 0
0 0
0 0
0 0
0 0
0 0
0 0
0 0
0 0
0 0
0 0
0 0
0 0
0 0
0 0
0 0
0 0
0 0
0 0
0 0
0 0
0 0
0 0
0 0
0 0
0 0
0 0
0 0
0 0
0 0
0 0
0 0
0 0
0 0
0 0
0 0
0 0
0 0
0 0
0 0
0 0
0 0
0 0
0 0
0 0
0 0
0 0
0 0
0 0
0 0
0 0
0 0
0 0
0 0
0 0
0 0
0 0
0 0
0 0
0 0
0 0
0 0
0 0
0 0
0 0
0 0
0 0
0 0
0 0
0 0
0 0
0 0
0 0
0 0
0 0
0 0
0 0
0 0
0 0
0 0
0 0
0 0
0 0
0 0
0 0
0 0
0 0
0 0
0 0
0 0
0 0
0 0
0 0
0 0
0 0
0 0
0 0
0 0
0 0
0 0
0 0
0 0
0 0
0 0
0 0
0 0
0 0
0 0
0 0
0 0
0 0
0 0
0 0
0 0
0 0
0 0
0 0
0 0
0 0
0 0
0 0
0 0
0 0
0 0
0 0
0 0
0 0
0 0
0 0
0 0
0 0
0 0
0 0
0 0
0 0
0 0
0 0
0 0
0 0
0 0
0 0
0 0
0 0
0 0
0 0
0 0
0 0
0 0
0 0
0 0
0 0
0 0
0 0
0 0
0 0
0 0
0 0
0 0
0 0
0 0
0 0
0 0
0 0
0 0
0 0
0 0
0 0
0 0
0 0
0 0
0 0
0 0
0 0
0 0
0 0
0 0
0 0
0 0
0 0
0 0
0 0
0 0
0 0
0 0
0 0
0 0
0 0
0 0
0 0
0 0
0 0
0 0
0 0
0 0
0 0
0 0
0 0
0 0
0 0
0 0
0 0
0 0
0 0
0 0
0 0
0 0
0 0
0 0
0 0
0 0
0 0
0 0
0 0
0 0
0 0
0 0
0 0
0 0
0 0
0 0
0 0
0 0
0 0
0 0
0 0
0 0
0 0
0 0
0 0
0 0
0 0
0 0
0 0
0 0
0 0
0 0
0 0
0 0
0 0
0 0
0 0
0 0
0 0
0 0
0 0
0 0
0 0
0 0
0 0
0 0
0 0
0 0
0 0
0 0
0 0
0 0
0 0
0 0
0 0
0 0
0 0
0 0
0 0
0 0
0 0
0 0
0 0
0 0
0 0
0 0
0 0
0 0
0 0
0 0
0 0
0 0
0 0
0 0
0 0
0 0
0 0
0 0
0 0
0 0
0 0
0 0
0 0
0 0
0 0
0 0
0 0
0 0
0 0
0 0
0 0
0 0
0 0
0 0
0 0
0 0
0 0
0 0
0 0
0 0
0 0
0 0
0 0
0 0
0 0
0 0
0 0
0 0
0 0
0 0
0 0
0 0
0 0
0 0
0 0
0 0
0 0
0 0
0 0
0 0
0 0
0 0
0 0
0 0
0 0
0 0
0 0
0 0
0 0
0 0
0 0
0 0
0 0
0 0
0 0
0 0
0 0
0 0
0 0
0 0
0 0
0 0
0 0
0 0
0 0
0 0
0 0
0 0
0 0
0 0
0 0
0 0
0 0
0 0
0 0
0 0
0 0
0 0
0 0
0 0
0 0
0 0
0 0
0 0
0 0
0 0
0 0
0 0
0 0
0 0
0 0
0 0
0 0
0 0
0 0
0 0
0 0
0 0
0 0
0 0
0 0
0 0
0 0
0 0
0 0
0 0
0 0
0 0
0 0
0 0
0 0
0 0
0 0
0 0
0 0
0 0
0 0
0 0
0 0
0 0
0 0
0 0
0 0
0 0
0 0
0 0
0 0
0 0
0 0
0 0
0 0
0 0
0 0
0 0
0 0
0 0
0 0
0 0
0 0
0 0
0 0
0 0
0 0
0 0
0 0
0 0
0 0
0 0
0 0
0 0
0 0
0 0
0 0
0 0
0 0
0 0
0 0
0 0
0 0
0 0
0 0
0 0
0 0
0 0
0 0
0 0
0 0
0 0
0 0
0 0
0 0
0 0
0 0
0 0
0 0
0 0
0 0
0 0
0 0
0 0
0 0
0 0
0 0
0 0
0 0
0 0
0 0
0 0
0 0
0 0
0 0
0 0
0 0
0 0
0 0
0 0
0 0
0 0
0 0
0 0
0 0
0 0
0 0
0 0
0 0
0 0
0 0
0 0
0 0
0 0
0 0
0 0
0 0
0 0
0 0
0 0
0 0
0 0
0 0
0 0
0 0
0 0
0 0
0 0
0 0
0 0
0 0
0 0
0 0
0 0
0 0
0 0
0 0
0 0
0 0
0 0
0 0
0 0
0 0
0 0
0 0
0 0
0 0
0 0
0 0
0 0
0 0
0 0
0 0
0 0
0 0
0 0
0 0
0 0
0 0
0 0
0 0
0 0
0 0
0 0
0 0
0 0
0 0
0 0
0 0
0 0
0 0
0 0
0 0
0 0
0 0
0 0
0 0
0 0
0 0
0 0
0 0
0 0
0 0
0 0
0 0
0 0
0 0
0 0
0 0
0 0
0 0
0 0
0 0
0 0
0 0
0 0
0 0
0 0
0 0
0 0
0 0
0 0
0 0
0 0
0 0
0 0
0 0
0 0
0 0
0 0
0 0
0 0
0 0
0 0
0 0
0 0
0 0
0 0
0 0
0 0
0 0
0 0
0 0
0 0
0 0
0 0
0 0
0 0
0 0
0 0
0 0
0 0
0 0
0 0
0 0
0 0
0 0
0 0
0 0
0 0
0 0
0 0
0 0
0 0
0 0
0 0
0 0
0 0
0 0
0 0
0 0
0 0
0 0
0 0
0 0
0 0
0 0
0 0
0 0
0 0
0 0
0 0
0 0
0 0
0 0
0 0
0 0
0 0
0 0
0 0
0 0
0 0
0 0
0 0
0 0
0 0
0 0
0 0
0 0
0 0
0 0
0 0
0 0
0 0
0 0
0 0
0 0
0 0
0 0
0 0
0 0
0 0
0 0
0 0
0 0
0 0
0 0
0 0
0 0
0 0
0 0
0 0
0 0
0 0
0 0
0 0
0 0
0 0
0 0
0 0
0 0
0 0
0 0
0 0
0 0
0 0
0 0
0 0
0 0
0 0
0 0
0 0
0 0
0 0
0 0
0 0
0 0
0 0
0 0
0 0
0 0
0 0
0 0
0 0
0 0
0 0
0 0
      </DataArray> 
      <DataArray type="Float64" NumberOfComponents="2" Name="Acceleration" format="ascii">
0 0
0 0
0 0
0 0
0 0
0 0
0 0
0 0
0 0
0 0
0 0
0 0
0 0
0 0
0 0
0 0
0 0
0 0
0 0
0 0
0 0
0 0
0 0
0 0
0 0
0 0
0 0
0 0
0 0
0 0
0 0
0 0
0 0
0 0
0 0
0 0
0 0
0 0
0 0
0 0
0 0
0 0
0 0
0 0
0 0
0 0
0 0
0 0
0 0
0 0
0 0
0 0
0 0
0 0
0 0
0 0
0 0
0 0
0 0
0 0
0 0
0 0
0 0
0 0
0 0
0 0
0 0
0 0
0 0
0 0
0 0
0 0
0 0
0 0
0 0
0 0
0 0
0 0
0 0
0 0
0 0
0 0
0 0
0 0
0 0
0 0
0 0
0 0
0 0
0 0
0 0
0 0
0 0
0 0
0 0
0 0
0 0
0 0
0 0
0 0
0 0
0 0
0 0
0 0
0 0
0 0
0 0
0 0
0 0
0 0
0 0
0 0
0 0
0 0
0 0
0 0
0 0
0 0
0 0
0 0
0 0
0 0
0 0
0 0
0 0
0 0
0 0
0 0
0 0
0 0
0 0
0 0
0 0
0 0
0 0
0 0
0 0
0 0
0 0
0 0
0 0
0 0
0 0
0 0
0 0
0 0
0 0
0 0
0 0
0 0
0 0
0 0
0 0
0 0
0 0
0 0
0 0
0 0
0 0
0 0
0 0
0 0
0 0
0 0
0 0
0 0
0 0
0 0
0 0
0 0
0 0
0 0
0 0
0 0
0 0
0 0
0 0
0 0
0 0
0 0
0 0
0 0
0 0
0 0
0 0
0 0
0 0
0 0
0 0
0 0
0 0
0 0
0 0
0 0
0 0
0 0
0 0
0 0
0 0
0 0
0 0
0 0
0 0
0 0
0 0
0 0
0 0
0 0
0 0
0 0
0 0
0 0
0 0
0 0
0 0
0 0
0 0
0 0
0 0
0 0
0 0
0 0
0 0
0 0
0 0
0 0
0 0
0 0
0 0
0 0
0 0
0 0
0 0
0 0
0 0
0 0
0 0
0 0
0 0
0 0
0 0
0 0
0 0
0 0
0 0
0 0
0 0
0 0
0 0
0 0
0 0
0 0
0 0
0 0
0 0
0 0
0 0
0 0
0 0
0 0
0 0
0 0
0 0
0 0
0 0
0 0
0 0
0 0
0 0
0 0
0 0
0 0
0 0
0 0
0 0
0 0
0 0
0 0
0 0
0 0
0 0
0 0
0 0
0 0
0 0
0 0
0 0
0 0
0 0
0 0
0 0
0 0
0 0
0 0
0 0
0 0
0 0
0 0
0 0
0 0
0 0
0 0
0 0
0 0
0 0
0 0
0 0
0 0
0 0
0 0
0 0
0 0
0 0
0 0
0 0
0 0
0 0
0 0
0 0
0 0
0 0
0 0
0 0
0 0
0 0
0 0
0 0
0 0
0 0
0 0
0 0
0 0
0 0
0 0
0 0
0 0
0 0
0 0
0 0
0 0
0 0
0 0
0 0
0 0
0 0
0 0
0 0
0 0
0 0
0 0
0 0
0 0
0 0
0 0
0 0
0 0
0 0
0 0
0 0
0 0
0 0
0 0
0 0
0 0
0 0
0 0
0 0
0 0
0 0
0 0
0 0
0 0
0 0
0 0
0 0
0 0
0 0
0 0
0 0
0 0
0 0
0 0
0 0
0 0
0 0
0 0
0 0
0 0
0 0
0 0
0 0
0 0
0 0
0 0
0 0
0 0
0 0
0 0
0 0
0 0
0 0
0 0
0 0
0 0
0 0
0 0
0 0
0 0
0 0
0 0
0 0
0 0
0 0
0 0
0 0
0 0
0 0
0 0
0 0
0 0
0 0
0 0
0 0
0 0
0 0
0 0
0 0
0 0
0 0
0 0
0 0
0 0
0 0
0 0
0 0
0 0
0 0
0 0
0 0
0 0
0 0
0 0
0 0
0 0
0 0
0 0
0 0
0 0
0 0
0 0
0 0
0 0
0 0
0 0
0 0
0 0
0 0
0 0
0 0
0 0
0 0
0 0
0 0
0 0
0 0
0 0
0 0
0 0
0 0
0 0
0 0
0 0
0 0
0 0
0 0
0 0
0 0
0 0
0 0
0 0
0 0
0 0
0 0
0 0
0 0
0 0
0 0
0 0
0 0
0 0
0 0
0 0
0 0
0 0
0 0
0 0
0 0
0 0
0 0
0 0
0 0
0 0
0 0
0 0
0 0
0 0
0 0
0 0
0 0
0 0
0 0
0 0
0 0
0 0
0 0
0 0
0 0
0 0
0 0
0 0
0 0
0 0
0 0
0 0
0 0
0 0
0 0
0 0
0 0
0 0
0 0
0 0
0 0
0 0
0 0
0 0
0 0
0 0
0 0
0 0
0 0
0 0
0 0
0 0
0 0
0 0
0 0
0 0
0 0
0 0
0 0
0 0
0 0
0 0
0 0
0 0
0 0
0 0
0 0
0 0
0 0
0 0
0 0
0 0
0 0
0 0
0 0
0 0
0 0
0 0
0 0
0 0
0 0
0 0
0 0
0 0
0 0
0 0
0 0
0 0
0 0
0 0
0 0
0 0
0 0
0 0
0 0
0 0
0 0
0 0
0 0
0 0
0 0
0 0
0 0
0 0
0 0
0 0
0 0
0 0
0 0
0 0
0 0
0 0
0 0
0 0
0 0
0 0
0 0
0 0
0 0
0 0
0 0
0 0
0 0
0 0
0 0
0 0
0 0
0 0
0 0
0 0
0 0
0 0
0 0
0 0
0 0
0 0
0 0
0 0
0 0
0 0
0 0
0 0
0 0
0 0
0 0
0 0
0 0
0 0
0 0
0 0
0 0
0 0
0 0
0 0
0 0
0 0
0 0
0 0
0 0
0 0
0 0
0 0
0 0
0 0
0 0
0 0
0 0
0 0
0 0
0 0
0 0
0 0
0 0
0 0
0 0
0 0
0 0
0 0
0 0
0 0
0 0
0 0
0 0
0 0
0 0
0 0
0 0
0 0
0 0
0 0
0 0
0 0
0 0
0 0
0 0
0 0
0 0
0 0
0 0
0 0
0 0
0 0
0 0
0 0
0 0
0 0
0 0
0 0
0 0
0 0
0 0
0 0
0 0
0 0
0 0
0 0
0 0
0 0
0 0
0 0
0 0
0 0
0 0
0 0
0 0
0 0
0 0
0 0
0 0
0 0
0 0
0 0
0 0
0 0
0 0
0 0
0 0
0 0
0 0
0 0
0 0
0 0
0 0
0 0
0 0
0 0
0 0
0 0
0 0
0 0
0 0
0 0
0 0
0 0
0 0
0 0
0 0
0 0
0 0
0 0
0 0
0 0
0 0
0 0
0 0
0 0
0 0
0 0
0 0
0 0
0 0
0 0
0 0
0 0
0 0
0 0
0 0
0 0
0 0
0 0
0 0
0 0
0 0
0 0
0 0
0 0
0 0
0 0
0 0
0 0
0 0
0 0
0 0
0 0
0 0
0 0
0 0
0 0
0 0
0 0
0 0
0 0
0 0
0 0
0 0
0 0
0 0
0 0
0 0
0 0
0 0
0 0
0 0
0 0
0 0
0 0
0 0
0 0
0 0
0 0
0 0
0 0
0 0
0 0
0 0
0 0
0 0
0 0
0 0
0 0
0 0
0 0
0 0
0 0
0 0
0 0
0 0
0 0
0 0
0 0
0 0
0 0
0 0
0 0
0 0
0 0
0 0
0 0
0 0
0 0
0 0
0 0
0 0
0 0
0 0
0 0
0 0
0 0
0 0
0 0
0 0
0 0
0 0
0 0
0 0
0 0
0 0
0 0
0 0
0 0
0 0
0 0
0 0
0 0
0 0
0 0
0 0
0 0
0 0
0 0
0 0
0 0
0 0
0 0
0 0
0 0
0 0
0 0
0 0
0 0
0 0
0 0
0 0
0 0
0 0
0 0
0 0
0 0
0 0
0 0
0 0
0 0
0 0
0 0
0 0
0 0
0 0
0 0
0 0
0 0
0 0
0 0
0 0
0 0
0 0
0 0
0 0
0 0
0 0
0 0
0 0
0 0
0 0
0 0
0 0
0 0
0 0
0 0
0 0
0 0
0 0
0 0
0 0
0 0
0 0
0 0
0 0
0 0
0 0
0 0
0 0
0 0
0 0
0 0
0 0
0 0
0 0
0 0
0 0
0 0
0 0
0 0
0 0
0 0
0 0
0 0
0 0
0 0
0 0
0 0
0 0
0 0
0 0
0 0
0 0
0 0
0 0
0 0
0 0
0 0
0 0
0 0
0 0
0 0
0 0
0 0
0 0
0 0
0 0
0 0
0 0
0 0
0 0
0 0
0 0
0 0
0 0
0 0
0 0
0 0
0 0
0 0
0 0
0 0
0 0
0 0
0 0
0 0
0 0
0 0
0 0
0 0
0 0
0 0
0 0
0 0
0 0
0 0
0 0
0 0
0 0
0 0
0 0
0 0
0 0
0 0
0 0
0 0
0 0
0 0
0 0
0 0
0 0
0 0
0 0
0 0
0 0
0 0
0 0
0 0
0 0
0 0
0 0
0 0
0 0
0 0
0 0
0 0
0 0
0 0
0 0
0 0
0 0
0 0
0 0
0 0
0 0
0 0
0 0
0 0
0 0
0 0
0 0
0 0
0 0
0 0
0 0
0 0
0 0
0 0
0 0
0 0
0 0
0 0
0 0
0 0
0 0
0 0
0 0
0 0
0 0
0 0
0 0
0 0
0 0
0 0
0 0
0 0
0 0
0 0
0 0
0 0
0 0
0 0
0 0
0 0
0 0
0 0
0 0
0 0
0 0
0 0
0 0
0 0
0 0
0 0
0 0
0 0
0 0
0 0
0 0
0 0
0 0
0 0
0 0
0 0
0 0
0 0
0 0
0 0
0 0
0 0
0 0
0 0
0 0
0 0
0 0
0 0
0 0
0 0
0 0
0 0
0 0
0 0
0 0
0 0
0 0
0 0
0 0
0 0
0 0
0 0
0 0
0 0
0 0
0 0
0 0
0 0
0 0
0 0
0 0
0 0
0 0
0 0
0 0
0 0
0 0
0 0
0 0
0 0
0 0
0 0
0 0
0 0
0 0
0 0
0 0
0 0
0 0
0 0
0 0
0 0
0 0
0 0
0 0
0 0
0 0
0 0
0 0
0 0
0 0
0 0
0 0
0 0
0 0
0 0
0 0
0 0
0 0
0 0
0 0
0 0
0 0
0 0
0 0
0 0
0 0
0 0
0 0
0 0
0 0
0 0
0 0
0 0
0 0
0 0
0 0
0 0
0 0
0 0
0 0
0 0
0 0
0 0
0 0
0 0
0 0
0 0
0 0
0 0
0 0
0 0
0 0
0 0
0 0
0 0
0 0
0 0
0 0
0 0
0 0
0 0
0 0
0 0
0 0
0 0
0 0
0 0
0 0
0 0
0 0
0 0
0 0
0 0
0 0
0 0
0 0
0 0
0 0
0 0
0 0
0 0
0 0
0 0
0 0
0 0
0 0
0 0
0 0
0 0
0 0
0 0
0 0
0 0
0 0
0 0
0 0
0 0
0 0
0 0
0 0
0 0
0 0
0 0
0 0
0 0
0 0
0 0
0 0
0 0
0 0
0 0
0 0
0 0
0 0
0 0
0 0
0 0
0 0
0 0
0 0
0 0
0 0
0 0
0 0
0 0
0 0
0 0
0 0
0 0
0 0
0 0
0 0
0 0
0 0
0 0
0 0
0 0
0 0
0 0
0 0
0 0
0 0
0 0
0 0
0 0
0 0
0 0
0 0
0 0
0 0
0 0
0 0
0 0
0 0
0 0
0 0
0 0
0 0
0 0
0 0
0 0
0 0
0 0
0 0
0 0
0 0
0 0
0 0
0 0
0 0
0 0
0 0
0 0
0 0
0 0
0 0
0 0
0 0
0 0
0 0
0 0
0 0
0 0
0 0
0 0
0 0
0 0
0 0
0 0
0 0
0 0
0 0
0 0
0 0
0 0
0 0
0 0
0 0
0 0
0 0
0 0
0 0
0 0
0 0
0 0
0 0
0 0
0 0
0 0
0 0
0 0
0 0
0 0
0 0
0 0
0 0
0 0
0 0
0 0
0 0
0 0
0 0
0 0
0 0
0 0
0 0
0 0
0 0
0 0
0 0
0 0
0 0
0 0
0 0
0 0
0 0
0 0
0 0
0 0
0 0
0 0
0 0
0 0
0 0
0 0
0 0
0 0
0 0
0 0
0 0
0 0
0 0
0 0
0 0
0 0
0 0
0 0
0 0
0 0
0 0
0 0
0 0
0 0
0 0
0 0
0 0
0 0
0 0
0 0
0 0
0 0
0 0
0 0
0 0
0 0
0 0
0 0
0 0
0 0
0 0
0 0
0 0
0 0
0 0
0 0
0 0
0 0
0 0
0 0
0 0
0 0
0 0
0 0
0 0
0 0
0 0
0 0
0 0
0 0
0 0
0 0
0 0
0 0
0 0
0 0
0 0
0 0
0 0
0 0
0 0
0 0
0 0
0 0
0 0
0 0
0 0
0 0
0 0
0 0
0 0
0 0
0 0
0 0
0 0
0 0
0 0
0 0
0 0
0 0
0 0
0 0
0 0
0 0
0 0
0 0
0 0
0 0
0 0
0 0
0 0
0 0
0 0
0 0
0 0
0 0
0 0
0 0
0 0
0 0
0 0
0 0
0 0
0 0
0 0
0 0
0 0
0 0
0 0
0 0
0 0
0 0
0 0
0 0
0 0
0 0
0 0
0 0
0 0
0 0
0 0
0 0
0 0
0 0
0 0
0 0
0 0
0 0
0 0
0 0
0 0
0 0
0 0
0 0
0 0
0 0
0 0
0 0
0 0
0 0
0 0
0 0
0 0
0 0
0 0
0 0
0 0
0 0
0 0
0 0
0 0
0 0
0 0
0 0
0 0
0 0
0 0
0 0
0 0
0 0
0 0
0 0
0 0
0 0
0 0
0 0
0 0
0 0
0 0
0 0
0 0
0 0
0 0
0 0
0 0
0 0
0 0
0 0
0 0
0 0
0 0
0 0
0 0
0 0
0 0
0 0
0 0
0 0
0 0
0 0
0 0
0 0
0 0
0 0
0 0
0 0
0 0
0 0
0 0
0 0
0 0
0 0
0 0
0 0
0 0
0 0
0 0
0 0
0 0
0 0
0 0
0 0
0 0
0 0
0 0
0 0
0 0
0 0
0 0
0 0
0 0
0 0
0 0
0 0
0 0
0 0
0 0
0 0
0 0
0 0
0 0
0 0
0 0
0 0
0 0
0 0
0 0
0 0
0 0
0 0
0 0
0 0
0 0
0 0
0 0
0 0
0 0
0 0
0 0
0 0
0 0
0 0
0 0
0 0
0 0
0 0
0 0
0 0
0 0
0 0
0 0
0 0
0 0
0 0
0 0
0 0
0 0
0 0
0 0
0 0
0 0
0 0
0 0
0 0
0 0
0 0
0 0
0 0
0 0
0 0
0 0
0 0
0 0
0 0
0 0
0 0
0 0
0 0
0 0
0 0
0 0
0 0
0 0
0 0
0 0
0 0
0 0
0 0
0 0
0 0
0 0
0 0
0 0
0 0
0 0
0 0
0 0
0 0
0 0
0 0
0 0
0 0
0 0
0 0
0 0
0 0
0 0
0 0
0 0
0 0
0 0
0 0
0 0
0 0
0 0
0 0
0 0
0 0
0 0
0 0
0 0
0 0
0 0
0 0
0 0
0 0
0 0
0 0
0 0
0 0
0 0
0 0
0 0
0 0
0 0
0 0
0 0
0 0
0 0
0 0
0 0
0 0
0 0
0 0
0 0
0 0
0 0
0 0
0 0
0 0
0 0
0 0
0 0
0 0
0 0
0 0
0 0
0 0
0 0
0 0
0 0
0 0
0 0
0 0
0 0
0 0
0 0
0 0
0 0
0 0
0 0
0 0
0 0
0 0
0 0
0 0
0 0
0 0
0 0
0 0
0 0
0 0
0 0
0 0
0 0
0 0
0 0
0 0
0 0
0 0
0 0
0 0
0 0
0 0
0 0
0 0
0 0
0 0
0 0
0 0
0 0
0 0
0 0
0 0
0 0
0 0
0 0
0 0
0 0
0 0
0 0
0 0
0 0
0 0
0 0
0 0
0 0
0 0
0 0
0 0
0 0
0 0
0 0
0 0
0 0
0 0
0 0
0 0
0 0
0 0
0 0
0 0
0 0
0 0
0 0
0 0
0 0
0 0
0 0
0 0
0 0
0 0
0 0
0 0
0 0
0 0
0 0
0 0
0 0
0 0
0 0
0 0
0 0
0 0
0 0
0 0
0 0
0 0
0 0
0 0
0 0
0 0
0 0
0 0
0 0
0 0
0 0
0 0
0 0
0 0
0 0
0 0
0 0
0 0
0 0
0 0
0 0
0 0
0 0
0 0
0 0
0 0
0 0
0 0
0 0
0 0
0 0
0 0
0 0
0 0
0 0
0 0
0 0
0 0
0 0
0 0
0 0
0 0
0 0
0 0
0 0
0 0
0 0
0 0
0 0
0 0
0 0
0 0
0 0
0 0
0 0
0 0
0 0
0 0
0 0
0 0
0 0
0 0
0 0
0 0
0 0
0 0
0 0
0 0
0 0
0 0
0 0
0 0
0 0
0 0
0 0
0 0
0 0
0 0
0 0
0 0
0 0
0 0
0 0
0 0
0 0
0 0
0 0
0 0
0 0
0 0
0 0
0 0
0 0
0 0
0 0
0 0
0 0
0 0
0 0
0 0
0 0
0 0
0 0
0 0
0 0
0 0
0 0
0 0
0 0
0 0
0 0
0 0
0 0
0 0
0 0
0 0
0 0
0 0
0 0
0 0
0 0
0 0
0 0
0 0
0 0
0 0
0 0
0 0
0 0
0 0
0 0
0 0
0 0
0 0
0 0
0 0
0 0
0 0
0 0
0 0
0 0
0 0
0 0
0 0
0 0
0 0
0 0
0 0
0 0
0 0
0 0
0 0
0 0
0 0
0 0
0 0
0 0
0 0
0 0
0 0
0 0
0 0
0 0
0 0
0 0
0 0
0 0
0 0
0 0
0 0
0 0
0 0
0 0
0 0
0 0
0 0
0 0
0 0
0 0
0 0
0 0
0 0
0 0
0 0
0 0
0 0
0 0
0 0
0 0
0 0
0 0
0 0
0 0
0 0
0 0
0 0
0 0
0 0
0 0
0 0
0 0
0 0
0 0
0 0
0 0
0 0
0 0
0 0
0 0
0 0
0 0
0 0
0 0
0 0
0 0
0 0
0 0
0 0
0 0
0 0
0 0
0 0
0 0
0 0
0 0
0 0
0 0
0 0
0 0
0 0
0 0
0 0
0 0
0 0
0 0
0 0
0 0
0 0
0 0
0 0
0 0
0 0
0 0
0 0
0 0
0 0
0 0
0 0
0 0
0 0
0 0
0 0
0 0
0 0
0 0
0 0
0 0
0 0
0 0
0 0
0 0
0 0
0 0
0 0
0 0
0 0
0 0
0 0
0 0
0 0
0 0
0 0
0 0
0 0
0 0
0 0
0 0
0 0
0 0
0 0
0 0
0 0
0 0
0 0
0 0
0 0
0 0
0 0
0 0
0 0
0 0
0 0
0 0
0 0
0 0
0 0
0 0
0 0
0 0
0 0
0 0
0 0
0 0
0 0
0 0
0 0
0 0
0 0
0 0
0 0
0 0
0 0
0 0
0 0
0 0
0 0
0 0
0 0
0 0
0 0
0 0
0 0
0 0
0 0
0 0
0 0
0 0
0 0
0 0
0 0
0 0
0 0
0 0
0 0
0 0
0 0
0 0
0 0
0 0
0 0
0 0
0 0
0 0
0 0
0 0
0 0
0 0
0 0
0 0
0 0
0 0
0 0
0 0
0 0
0 0
0 0
0 0
0 0
0 0
0 0
0 0
0 0
0 0
0 0
0 0
0 0
0 0
0 0
0 0
0 0
0 0
0 0
0 0
0 0
0 0
0 0
0 0
0 0
0 0
0 0
0 0
0 0
0 0
0 0
0 0
0 0
0 0
0 0
0 0
0 0
0 0
0 0
0 0
0 0
0 0
0 0
0 0
0 0
0 0
0 0
0 0
0 0
0 0
0 0
0 0
0 0
0 0
0 0
0 0
0 0
0 0
0 0
0 0
0 0
0 0
0 0
0 0
0 0
0 0
0 0
0 0
0 0
0 0
0 0
0 0
0 0
0 0
0 0
0 0
0 0
0 0
0 0
0 0
0 0
0 0
0 0
0 0
0 0
0 0
0 0
0 0
0 0
0 0
0 0
0 0
0 0
0 0
0 0
0 0
0 0
0 0
0 0
0 0
0 0
0 0
0 0
0 0
0 0
0 0
0 0
0 0
0 0
0 0
0 0
0 0
0 0
0 0
0 0
0 0
0 0
0 0
0 0
0 0
0 0
0 0
0 0
0 0
0 0
0 0
0 0
0 0
0 0
0 0
0 0
0 0
0 0
0 0
0 0
0 0
0 0
0 0
0 0
0 0
0 0
0 0
0 0
0 0
0 0
0 0
0 0
0 0
0 0
0 0
0 0
0 0
0 0
0 0
0 0
0 0
0 0
0 0
0 0
0 0
0 0
0 0
0 0
0 0
0 0
0 0
0 0
0 0
0 0
0 0
0 0
0 0
0 0
0 0
0 0
0 0
0 0
0 0
0 0
0 0
0 0
0 0
0 0
0 0
0 0
0 0
0 0
0 0
0 0
0 0
0 0
0 0
0 0
0 0
0 0
0 0
0 0
0 0
0 0
0 0
0 0
0 0
0 0
0 0
0 0
0 0
0 0
0 0
0 0
0 0
0 0
0 0
0 0
0 0
0 0
0 0
0 0
0 0
0 0
0 0
0 0
0 0
0 0
0 0
0 0
0 0
0 0
0 0
0 0
0 0
0 0
0 0
0 0
0 0
0 0
0 0
0 0
0 0
0 0
0 0
0 0
0 0
0 0
0 0
0 0
0 0
0 0
0 0
0 0
0 0
0 0
0 0
0 0
0 0
0 0
0 0
0 0
0 0
0 0
0 0
0 0
0 0
0 0
0 0
0 0
0 0
0 0
0 0
0 0
0 0
0 0
0 0
0 0
0 0
0 0
0 0
0 0
0 0
0 0
0 0
0 0
0 0
0 0
0 0
0 0
0 0
0 0
0 0
0 0
0 0
0 0
0 0
0 0
0 0
0 0
0 0
0 0
0 0
0 0
0 0
0 0
0 0
0 0
0 0
0 0
0 0
0 0
0 0
0 0
0 0
0 0
0 0
0 0
0 0
0 0
0 0
0 0
0 0
0 0
0 0
0 0
0 0
0 0
0 0
0 0
0 0
0 0
0 0
0 0
0 0
0 0
0 0
0 0
0 0
0 0
0 0
0 0
0 0
0 0
0 0
0 0
0 0
0 0
0 0
0 0
0 0
0 0
0 0
0 0
0 0
0 0
0 0
0 0
0 0
0 0
0 0
0 0
0 0
0 0
0 0
0 0
0 0
0 0
0 0
0 0
0 0
0 0
0 0
0 0
0 0
0 0
0 0
0 0
0 0
0 0
0 0
0 0
0 0
0 0
0 0
0 0
0 0
0 0
0 0
0 0
0 0
0 0
0 0
0 0
0 0
0 0
0 0
0 0
0 0
0 0
0 0
0 0
0 0
0 0
0 0
0 0
0 0
0 0
0 0
0 0
0 0
0 0
0 0
0 0
0 0
0 0
0 0
0 0
0 0
0 0
0 0
0 0
0 0
0 0
0 0
0 0
0 0
0 0
0 0
0 0
0 0
0 0
0 0
0 0
0 0
0 0
0 0
0 0
0 0
0 0
0 0
0 0
0 0
0 0
0 0
0 0
0 0
0 0
0 0
0 0
0 0
0 0
0 0
0 0
0 0
0 0
0 0
0 0
0 0
0 0
0 0
0 0
0 0
0 0
0 0
0 0
0 0
0 0
0 0
0 0
0 0
0 0
0 0
0 0
0 0
0 0
0 0
0 0
0 0
0 0
0 0
0 0
0 0
0 0
0 0
0 0
0 0
0 0
0 0
0 0
0 0
0 0
0 0
0 0
0 0
0 0
0 0
0 0
0 0
0 0
0 0
0 0
0 0
0 0
0 0
0 0
0 0
0 0
0 0
0 0
0 0
0 0
0 0
0 0
0 0
0 0
0 0
0 0
0 0
0 0
0 0
0 0
0 0
0 0
0 0
0 0
0 0
0 0
0 0
0 0
0 0
0 0
0 0
0 0
0 0
0 0
0 0
0 0
0 0
0 0
0 0
0 0
0 0
0 0
0 0
0 0
0 0
0 0
0 0
0 0
0 0
0 0
0 0
0 0
0 0
0 0
0 0
0 0
0 0
0 0
0 0
0 0
0 0
0 0
0 0
0 0
0 0
0 0
0 0
0 0
0 0
0 0
0 0
0 0
0 0
0 0
0 0
0 0
0 0
0 0
0 0
0 0
0 0
0 0
0 0
0 0
0 0
0 0
0 0
0 0
0 0
0 0
0 0
0 0
0 0
0 0
0 0
0 0
0 0
0 0
0 0
0 0
0 0
0 0
0 0
0 0
0 0
0 0
0 0
0 0
0 0
0 0
0 0
0 0
0 0
0 0
0 0
0 0
0 0
0 0
0 0
0 0
0 0
0 0
0 0
0 0
0 0
0 0
0 0
0 0
0 0
0 0
0 0
0 0
0 0
0 0
0 0
0 0
0 0
0 0
0 0
0 0
0 0
0 0
0 0
0 0
0 0
0 0
0 0
0 0
0 0
0 0
0 0
0 0
0 0
0 0
0 0
0 0
0 0
0 0
0 0
0 0
0 0
0 0
0 0
0 0
0 0
0 0
0 0
0 0
0 0
0 0
0 0
0 0
0 0
0 0
0 0
0 0
0 0
0 0
0 0
0 0
0 0
0 0
0 0
0 0
0 0
0 0
0 0
0 0
0 0
0 0
0 0
0 0
0 0
0 0
0 0
0 0
0 0
0 0
0 0
0 0
0 0
0 0
0 0
0 0
0 0
0 0
0 0
0 0
0 0
0 0
0 0
0 0
0 0
0 0
0 0
0 0
0 0
0 0
0 0
0 0
0 0
0 0
0 0
0 0
0 0
0 0
0 0
0 0
0 0
0 0
0 0
0 0
0 0
0 0
0 0
0 0
0 0
0 0
0 0
0 0
0 0
0 0
0 0
0 0
0 0
0 0
0 0
0 0
0 0
0 0
0 0
0 0
0 0
0 0
0 0
0 0
0 0
0 0
0 0
0 0
0 0
0 0
0 0
0 0
0 0
0 0
0 0
0 0
0 0
0 0
0 0
0 0
0 0
0 0
0 0
0 0
0 0
0 0
0 0
0 0
0 0
0 0
0 0
0 0
0 0
0 0
0 0
0 0
0 0
0 0
0 0
0 0
0 0
0 0
0 0
0 0
0 0
0 0
0 0
0 0
0 0
0 0
0 0
0 0
0 0
0 0
0 0
0 0
0 0
0 0
0 0
0 0
0 0
0 0
0 0
0 0
0 0
0 0
0 0
0 0
0 0
0 0
0 0
0 0
0 0
0 0
0 0
0 0
0 0
0 0
0 0
0 0
0 0
0 0
0 0
0 0
0 0
0 0
0 0
0 0
0 0
0 0
0 0
0 0
0 0
0 0
0 0
0 0
0 0
0 0
0 0
0 0
0 0
0 0
0 0
0 0
0 0
0 0
0 0
0 0
0 0
0 0
0 0
0 0
0 0
0 0
0 0
0 0
0 0
0 0
0 0
0 0
0 0
0 0
0 0
0 0
0 0
0 0
0 0
0 0
0 0
0 0
0 0
0 0
0 0
0 0
0 0
0 0
0 0
0 0
0 0
0 0
0 0
0 0
0 0
0 0
0 0
0 0
0 0
0 0
0 0
0 0
0 0
0 0
0 0
0 0
0 0
0 0
0 0
0 0
0 0
0 0
0 0
0 0
0 0
0 0
0 0
0 0
0 0
0 0
0 0
0 0
0 0
0 0
0 0
0 0
0 0
0 0
0 0
0 0
0 0
0 0
0 0
0 0
0 0
0 0
0 0
0 0
0 0
0 0
0 0
0 0
0 0
0 0
0 0
0 0
0 0
0 0
0 0
0 0
0 0
0 0
0 0
0 0
0 0
0 0
0 0
0 0
0 0
0 0
0 0
0 0
0 0
0 0
0 0
0 0
0 0
0 0
0 0
0 0
0 0
0 0
0 0
0 0
0 0
0 0
0 0
0 0
0 0
0 0
0 0
0 0
0 0
0 0
0 0
0 0
0 0
0 0
0 0
0 0
0 0
0 0
0 0
0 0
0 0
0 0
0 0
0 0
0 0
0 0
0 0
0 0
0 0
0 0
0 0
0 0
0 0
0 0
0 0
0 0
0 0
0 0
0 0
0 0
0 0
0 0
0 0
0 0
0 0
0 0
0 0
0 0
0 0
0 0
0 0
0 0
0 0
0 0
0 0
0 0
0 0
0 0
0 0
0 0
0 0
0 0
0 0
0 0
0 0
0 0
0 0
0 0
0 0
0 0
0 0
0 0
0 0
0 0
0 0
0 0
0 0
0 0
0 0
0 0
0 0
0 0
0 0
0 0
0 0
0 0
0 0
0 0
0 0
0 0
0 0
0 0
0 0
0 0
0 0
0 0
0 0
0 0
0 0
0 0
0 0
0 0
0 0
0 0
0 0
0 0
0 0
0 0
0 0
0 0
0 0
0 0
0 0
0 0
0 0
0 0
0 0
0 0
0 0
0 0
0 0
0 0
0 0
0 0
0 0
0 0
0 0
0 0
0 0
0 0
0 0
0 0
0 0
0 0
0 0
0 0
0 0
0 0
0 0
0 0
0 0
0 0
0 0
0 0
0 0
0 0
0 0
0 0
0 0
0 0
0 0
0 0
0 0
0 0
0 0
0 0
0 0
0 0
0 0
0 0
0 0
0 0
0 0
0 0
0 0
0 0
0 0
0 0
0 0
0 0
0 0
0 0
0 0
0 0
0 0
0 0
0 0
0 0
0 0
0 0
0 0
0 0
0 0
0 0
0 0
0 0
0 0
0 0
0 0
0 0
0 0
0 0
0 0
0 0
0 0
0 0
0 0
0 0
0 0
0 0
0 0
0 0
0 0
0 0
0 0
0 0
0 0
0 0
0 0
0 0
0 0
0 0
0 0
0 0
0 0
0 0
0 0
0 0
0 0
0 0
0 0
0 0
0 0
0 0
0 0
0 0
0 0
0 0
0 0
0 0
0 0
0 0
0 0
0 0
0 0
0 0
0 0
0 0
0 0
0 0
0 0
0 0
0 0
0 0
0 0
0 0
0 0
0 0
0 0
0 0
0 0
0 0
0 0
0 0
0 0
0 0
0 0
0 0
0 0
0 0
0 0
0 0
0 0
0 0
0 0
0 0
0 0
0 0
0 0
0 0
0 0
0 0
0 0
0 0
0 0
0 0
0 0
0 0
0 0
0 0
0 0
0 0
0 0
0 0
0 0
0 0
0 0
0 0
0 0
0 0
0 0
0 0
0 0
0 0
0 0
      </DataArray> 
      <DataArray type="Float64" NumberOfComponents="2" Name="CauchyNormalStress" format="ascii">
18.4126 11.3863
16.7865 9.28062
17.7003 1.84604
9.03757 -0.449433
6.09421 0.075612
3.7502 -0.0247767
2.44041 -0.197806
1.57054 -0.19846
0.559199 -0.0888007
-0.168085 -0.00791124
-0.737384 -0.0943067
-1.08245 -0.130599
-1.57406 -0.0687459
-1.8922 -0.00304018
-2.10294 -0.0758648
-2.15223 -0.0940142
-2.30856 -0.035
-2.31693 0.00827064
-2.2224 -0.070187
-1.9617 -0.0944164
-1.80827 -0.0344492
-1.50487 0.00595753
-1.0697 -0.0879255
-0.413668 -0.127437
0.105739 -0.0442046
0.841861 0.0293142
1.83297 -0.0942777
3.47531 -0.414865
5.04345 -0.592743
7.52497 -0.282869
15.934 0.804298
-1.61599 2.18775
-2.13008 2.53904
-1.91911 4.53952
5.68059 15.0511
-1.44115 -0.0535192
-0.391633 0.192621
-0.0860385 -0.0960748
-0.210388 -0.338765
-0.201913 -0.436888
-0.0517517 -0.859461
-0.03422 -0.995815
-0.0260069 -1.14154
-0.079044 -1.19011
-0.122635 -1.33358
-0.139168 -1.12058
-0.149409 -1.24492
-0.19229 -1.21252
-0.262001 -1.23725
-0.330798 -1.12474
-0.390127 -1.11524
-0.444478 -0.921456
-0.542485 -0.979707
-0.012879 -1.25945
-1.14006 -0.0840673
-1.36041 -0.10668
-1.0261 -0.252383
-1.11294 -0.326081
-0.780428 -0.565896
-153.078 -388.476
-0.863438 -3.65875
-0.268511 -1.32895
-1.84832 -4.57122
-14.8899 -75.4139
-5.18271 -66.638
0.0518815 -37.9093
-2.95718 -39.9456
-3.42182 -39.2246
-6.22336 -45.5893
33.7954 2.0664
-25.1008 -75.6178
-33.3343 -90.5048
-46.1053 -135.715
-15.0495 -74.8647
35.4284 0.933677
49.0385 19.6995
-37.5553 -14.1298
-139.1 -372.65
-5.53755 -66.9042
0.0401369 -38.3239
-3.05832 -40.1694
-3.42311 -39.3391
-6.1967 -45.561
0.0328243 -1.61824
-0.842931 -3.60495
-0.411827 -1.32728
-2.44643 -4.06079
-1.56158 0.209106
-0.417014 -2.85108
-0.0725504 -1.58079
-0.396644 -1.9929
-0.434332 -1.14543
-0.530594 -1.01314
-1.18648 2.26495
-1.13124 -0.0248081
-1.32038 -0.175988
-0.971291 -0.205404
-1.09514 -0.383818
-0.847801 -0.375721
-0.840415 -0.555504
-0.677443 -0.632545
-0.650394 -0.758362
-0.55798 -0.910292
-0.461264 -0.919765
-0.403651 -1.12114
-0.278052 -1.04979
-0.215322 -1.26365
-0.122899 -1.23588
-0.15048 -1.2898
-0.12675 -1.13507
-0.0809395 -1.19906
-1.5899 3.41716
-0.577557 6.01259
6.19141 14.0755
-38.9486 -23.2143
-23.7623 -60.6598
-37.7485 -25.1291
-20.7641 -82.1001
-26.5188 -66.4016
-4.62572 -48.9176
-38.495 -18.2906
10.2136 -54.1179
3.19756 -7.89514
2.14678 -8.21291
-6.91831 -84.1699
-7.30421 -86.5881
4.9228 -20.0671
1.9704 -9.36689
0.967231 -40.9204
1.11001 -35.7424
-0.516103 -41.1432
2.12685 -31.2188
1.33239 -36.3232
-3.61732 -34.5636
-0.387776 -34.7423
-0.965218 -37.619
-4.90725 -37.1409
3.04838 -28.7991
3.89459 -27.5035
3.3487 -37.5154
-19.7753 -12.1983
-20.596 -12.206
-21.8994 -13.4453
1.91011 -43.5664
2.63526 -33.1522
-11.3209 -38.3702
-10.81 -36.0499
-0.579478 -48.5344
-3.15104 -46.7878
-8.78433 -41.1582
-9.88273 -44.1656
-0.768385 -45.0042
-15.1398 -9.96447
-18.0487 -10.6094
-16.7469 -10.7124
1.71701 -27.7374
2.31652 -29.2443
-16.9432 -17.2328
-11.1506 -26.0957
-2.38391 -30.0114
0.918221 -26.1062
0.667027 -27.9378
-2.50668 -32.4459
-11.8955 -27.9805
-18.0445 -17.9244
3.52287 -24.0792
4.81055 -33.4755
-28.2001 -20.7522
-27.4186 -16.5231
-23.0067 -13.2754
-24.128 -18.1487
6.03982 -34.6263
6.49973 -41.6892
5.25894 -40.3103
4.22161 -33.2182
4.18045 -25.9358
3.68862 -23.0072
-29.5587 -23.7956
-16.945 -34.875
-16.3573 -32.4892
-29.3166 -33.3841
4.77342 -51.5434
0.420615 -65.2896
-10.7327 -48.6868
-2.07191 -51.5209
5.74416 -47.4409
-13.6136 -9.70565
-15.5743 -9.91446
-15.5576 -9.52621
-15.9763 -9.8351
-13.0415 -8.28627
-12.6152 -8.14776
-12.0717 -7.77794
-13.8169 -9.22508
2.26272 -23.5918
3.09647 -21.3938
3.27186 -20.8775
2.32674 -24.2674
-12.8556 -9.7602
-13.474 -11.133
-13.7549 -16.7832
-10.5933 -20.0717
-5.04907 -23.6736
-1.62142 -25.6171
-2.33759 -26.9429
-5.89102 -25.108
-11.486 -21.4829
-14.2022 -17.3845
-14.27 -10.6782
-13.3236 -9.3982
3.37684 -20.245
5.30136 -26.4408
-37.4242 -29.9442
-30.9869 -17.3061
-33.6724 -21.068
7.7484 -34.8415
7.75327 -39.1889
4.89893 -26.1091
3.25997 -18.3556
-29.871 -37.7886
-29.9941 -48.8406
8.25235 -55.9178
-14.1914 -58.0284
-30.5432 -60.2859
-11.45 -50.4505
2.78541 -57.6401
-9.48203 -6.75939
-10.8522 -7.55923
-11.036 -7.48977
-9.63815 -6.65707
-8.97424 -6.48424
-8.98595 -6.3405
2.65908 -19.4958
2.24196 -19.185
-9.38244 -8.28213
-6.99496 -13.8894
-0.583607 -19.7961
-1.66094 -20.6486
-7.65129 -14.2117
-9.36217 -7.65843
2.26539 -12.6483
2.79816 -14.669
3.31796 -17.5463
3.92428 -17.9511
5.46445 -19.7227
7.10901 -25.8103
-32.2696 -47.5714
-39.6087 -18.5139
-35.9545 -32.709
8.58801 -32.6966
8.76524 -34.6602
7.21515 -28.5667
5.56569 -23.2345
4.3178 -19.7987
2.89043 -15.2695
2.08796 -11.2299
-35.6676 -52.0671
-35.931 -68.7993
9.75159 -41.4398
8.89625 -75.321
-34.2408 -79.9537
10.1079 -56.0942
9.48495 -38.9617
-19.6655 -65.2868
5.62803 -68.5885
-4.84972 -4.7219
-5.30222 -4.47708
-6.70283 -5.49456
-5.72134 -5.45288
-7.82331 -5.60967
-7.24178 -5.66936
-7.44307 -5.17485
-7.44016 -5.29573
-5.98596 -4.60292
-6.38767 -4.58677
-5.59316 -5.02132
-6.42843 -4.95534
-4.5183 -4.20624
-5.08844 -4.62476
2.43874 -17.3774
2.632 -16.8686
2.72232 -14.706
1.97619 -10.9264
2.74565 -14.2077
2.49908 -17.4035
1.26281 -18.6128
-6.30101 -5.79922
-4.91042 -7.76644
-1.98165 -12.1715
0.578712 -14.8461
-1.21021 -16.2229
-2.98809 -12.6439
-5.70271 -7.54096
-5.80037 -4.99138
0.866904 -5.73938
1.81795 -10.075
2.44069 -11.3332
3.60752 -13.7471
4.97385 -16.5633
1.03352 -107.691
-30.4934 -16.2084
-18.2848 -2.15402
-31.2905 -12.4619
-3.97987 -98.475
7.46482 -25.7291
7.18695 -24.6012
5.01992 -18.0079
3.05491 -14.4066
1.04122 -6.70221
2.00223 -138.765
-11.0581 -106.381
1.36293 -134.094
-4.86286 -113.92
7.65074 -43.4878
-19.6812 -111.093
-64.9773 -129.817
7.4411 -35.887
-62.2296 -114.053
-5.15596 -88.0361
-0.478078 -2.63009
-2.23446 -3.56756
-4.11558 -3.56559
-4.72227 -3.32375
-4.32269 -3.13196
-2.92851 -3.2015
-0.590519 -2.89247
3.85348 -11.9032
1.45573 -7.58296
2.00775 -8.44663
2.7686 -13.0372
-0.240345 -3.23906
4.15201 -9.39798
5.93252 -8.06882
4.61563 -10.0724
1.71723 -10.4312
-0.388791 -3.04888
0.89148 -3.44408
0.861135 -4.55133
0.214157 -2.4946
0.579808 -4.27515
0.547496 -4.28694
1.06407 -6.59263
0.920804 -5.61976
1.37906 -7.05152
1.45698 -6.99205
1.66267 -7.32152
1.40426 -6.4469
-27.4526 -45.2488
-14.2931 -4.57896
-12.8973 -4.10291
-28.2837 -31.6934
2.88162 -10.0465
3.5731 -12.0418
3.80751 -13.4472
2.62012 -11.355
3.25621 -18.5006
3.05432 -16.6922
2.76244 -11.8663
3.46346 -12.4643
3.52043 -11.9199
2.74696 -9.7821
2.74934 -9.95609
2.08193 -8.44008
1.24639 -6.26595
1.48787 -7.42124
0.413897 -3.98142
0.569163 -4.01906
0.516352 -4.08721
0.370863 -3.36608
1.55281 -74.9481
1.77175 -99.7965
-1.60895 -133.375
1.27949 -72.8639
1.1919 -127.65
0.718662 -95.9725
1.06268 -22.2414
-4.01536 -20.0606
-2.6984 -155.983
1.96187 -21.8238
4.09317 -105.037
-1.19767 -28.1738
3.11667 -1.43879
6.93936 2.24654
3.7896 -2.05975
0.619005 -1.80777
1.66821 -1.7832
-0.725886 -1.90816
-2.08378 -1.8421
-1.51087 -1.80121
-2.74216 -1.7911
-3.29667 -1.75904
-3.0753 -1.71333
-3.28023 -1.60261
-3.19908 -1.61394
-3.30313 -1.55657
-2.7785 -1.58392
-1.95922 -1.63509
-2.45584 -1.5523
-0.996824 -1.67129
1.09434 -1.82817
-0.207381 -1.62238
2.78392 -1.15438
7.64085 1.56661
3.58604 -1.28976
0.218473 -1.96009
0.221434 -2.31515
0.471746 -3.11777
0.403863 -2.95793
2.16684 -7.40724
4.43518 -2.23985
2.63227 -7.31016
4.13028 -8.72081
3.5166 -3.21948
7.47439 0.297759
4.75506 -4.71058
3.51135 -5.69993
6.69851 0.382553
0.317411 -1.37963
0.274624 -1.22442
0.376761 0.666585
0.631314 -0.613176
0.497906 -0.72398
0.229471 0.313108
2.99135 1.96377
14.1975 6.14982
3.61205 2.08549
3.32859 0.350306
3.66643 0.0127929
11.2363 2.30653
6.85913 -5.17139
8.54572 -1.69029
1.21753 -2.26393
1.48571 -2.4174
-0.421054 -5.97022
0.695803 -6.13508
3.20329 -11.9541
2.76321 -11.5743
0.9018 -5.74401
0.46942 -3.74766
-0.244233 -1.81265
-1.65695 -3.25671
-3.65429 -3.1181
-4.50354 -3.13124
-4.51936 -3.45611
-3.21654 -3.60622
-0.761849 -3.46074
-2.05845 -1.8557
7.35589 -50.4947
5.15879 -64.9937
9.27126 -110.309
10.0405 -113.721
1.18768 -7.01492
3.4807 -14.0544
6.23957 -20.6255
6.25901 -24.0621
7.73724 -30.7274
6.35299 -20.9656
-29.3343 -34.133
-26.1036 -46.1971
3.62197 -12.7417
3.07718 -13.008
2.43225 -12.199
1.30792 -7.62466
2.29578 -14.284
4.44361 -12.6379
-35.9251 -80.3507
-38.5696 -95.8457
-34.7927 -10.751
-10.4857 -9.54062
-5.10755 -18.5512
-4.03717 -17.5789
-10.2483 -10.175
1.15294 -22.6826
2.82213 -16.007
3.03483 -17.4543
1.83178 -21.8827
-8.4614 -6.21288
-9.48095 -6.69497
-8.48514 -6.09364
-10.5693 -7.17123
-11.3721 -7.71653
-10.3222 -7.32654
-8.76112 -6.53306
-6.06357 -55.4694
8.78444 -50.556
5.9205 -71.776
8.48256 -43.8055
-36.3131 -44.7975
-37.9351 -31.5671
3.83716 -20.5557
6.26534 -32.0751
-25.6368 -14.8676
-35.9957 -23.0968
6.51738 -27.2643
4.033 -22.8714
-16.5643 -45.2409
-16.1824 -42.4061
-18.1388 -12.0699
-17.8121 -24.483
-6.26571 -31.5562
-5.59314 -29.607
-17.0381 -22.693
-16.8696 -12.5
3.51542 -25.6851
2.89727 -25.3196
-15.5761 -9.47827
-20.5019 -11.8175
1.74391 -47.5515
-4.82757 -54.5826
2.14748 -39.5941
3.26906 -42.7412
0.90936 -33.0222
0.581405 -30.266
-3.20185 -42.5426
-1.43839 -39.2986
3.58842 -32.2366
4.40609 -161.983
-2.92654 -1.93375
-17.8352 -37.7614
-7.18405 -34.5807
-5.19046 -4.4252
6.61145 -71.1873
-2.15971 -2.7754
-27.8857 -219.245
-19.1374 -67.4602
-3.23039 -3.7511
-9.98905 -38.7644
2.77084 -101.389
-0.204309 -112.71
-16.1471 -112.155
-14.5085 -91.353
-8.99433 -177.662
-8.99827 -48.3257
-14.7388 -53.1079
-10.0722 -78.1846
4.61339 -102.644
4.01325 -113.136
0.921785 -82.8637
-5.42109 -71.8991
-4.08767 -61.572
-19.9364 -58.1374
-26.0002 -72.1037
-1.27982 -56.2162
3.76644 -93.0377
-0.199353 -118.038
-13.2682 -94.5169
-16.2227 -118.541
-9.69725 -80.2927
-9.03406 -48.3758
-14.7125 -53.2577
-15.2466 -196.789
3.315 -116.416
5.32948 -106.582
1.49438 -85.649
-3.99056 -62.7481
-5.08083 -73.7388
-1.16042 -57.3251
-19.9966 -58.5567
-25.9907 -73.382
4.29899 -96.1395
-17.9003 -12.0672
2.48593 -6.77205
11.1274 3.64671
8.55783 -0.817692
-97.6797 -187.429
-46.7948 -137.675
-71.9795 -105.527
-28.1589 -35.2911
-20.3711 -16.2125
-19.3365 -14.7938
8.96299 2.23632
0.940749 -6.87939
-71.7621 -118.63
-96.2937 -190.313
-38.4823 -15.7999
8.29108 -1.25715
-19.9584 -20.8939
-26.7935 -47.7872
-31.3933 -98.8575
-27.9099 -140.16
1.95815 -106.535
-101.31 -159.711
8.60928 -77.5174
-34.0122 -77.4042
-45.3023 -94.4595
-57.8898 -119.745
-12.2317 -138.985
-70.3358 -158.455
5.04931 -102.565
-101.903 -166.996
-51.4992 -110.846
-45.8457 -98.3937
-29.2669 -126.165
-27.2128 -155.905
-4.39866 -123.032
2.16835 -114.83
-21.3001 -105.746
-32.5007 -110.578
-8.7173 -121.044
-39.5168 -140.697
0.199131 -113.062
-24.2894 -92.5428
4.07951 -119.35
-16.4573 -77.1707
-7.9118 -90.8052
-19.6163 -68.401
-29.9612 -188.681
7.38675 -122.326
2.32694 -107.838
-25.2389 -6.68502
-14.2575 -3.16144
-23.0641 -10.7772
6.70611 -1.59367
-29.7358 -21.9078
-32.4994 -11.2176
-27.3721 -7.52548
-24.8549 -8.60521
-23.7112 -13.6021
-14.9946 -3.62001
-28.2405 -28.608
-32.1045 -12.9452
5.13964 -122.804
-5.92389 -98.3028
-11.4076 -89.0925
-28.362 -183.868
-14.5829 -80.3236
4.20691 -110.083
6.5916 -119.183
-31.378 -68.3847
-18.7691 -79.7207
-5.84345 -70.1274
-12.7565 -60.4643
-38.5866 -87.6667
-20.3287 -90.6733
-0.352146 -91.3331
-4.29912 -79.3434
-34.1591 -70.203
-25.3769 -62.6942
-17.6654 -55.052
-23.5506 -52.7041
-29.485 -49.0591
-33.1541 -45.1855
-34.1377 -56.6454
-34.0422 -34.4777
-36.4332 -42.1509
-34.811 -65.451
-23.6045 -41.6033
-33.5205 -47.025
-33.1896 -39.3677
-29.1892 -41.0465
-23.0384 -37.7764
-23.3879 -28.5118
-23.1322 -45.8007
-33.8117 -28.23
-29.4399 -30.6526
-24.0094 -31.5544
-23.8908 -23.7737
-35.8011 -26.1416
-31.5177 -22.2492
-27.5935 -19.2323
-29.7115 -18.2332
-31.6264 -20.0163
-33.3735 -19.8398
-29.1391 -16.7883
-25.8132 -14.7326
-28.2579 -15.9856
-24.0478 -14.0458
-28.5064 -26.7776
-33.4896 -31.486
-33.0534 -25.966
-36.615 -37.098
-36.6311 -26.1828
-32.0012 -21.7267
-22.7564 -21.289
-27.5908 -18.4329
-23.6927 -14.4508
-18.2644 -12.2189
-19.97 -12.0009
-24.0487 -16.3429
-22.7691 -17.1411
-22.3023 -90.2421
-5.62838 -112.903
-21.2681 -115.166
2.99043 -103.086
-33.3343 -90.1668
-25.0161 -75.3749
-11.8712 -78.0556
0.623474 -57.5252
-2.39725 -82.7529
-3.75494 -60.3035
-31.2573 -82.0713
-42.0391 -64.5089
-3.53614 -59.0278
-2.38504 -80.5099
0.499202 -56.4223
2.66472 -99.7775
-31.7122 -79.3598
-40.9398 -66.176
-11.4631 -77.2652
-21.3161 -113.014
-5.45647 -109.614
-21.9408 -88.9812
47.9654 23.5029
35.505 1.66356
-36.9678 -25.1343
-35.2361 -16.3942
-33.4223 -21.7704
-36.6279 -13.859
-32.1599 -33.784
-37.1256 -32.3429
-38.3179 -24.8873
-31.7117 -50.1533
-31.0583 -57.9915
-35.8044 -43.0979
-31.0544 -73.8607
-27.582 -52.1282
-6.55226 -101.058
-20.1259 -85.6704
-14.8278 -80.2384
-9.23672 -93.1164
-14.9689 -97.8229
-1.47714 -108.508
-28.3238 -88.6717
-22.4282 -66.6225
-33.5965 -59.3067
-28.148 -74.2995
-27.1245 -66.1968
-37.0951 -81.5063
-28.6142 -47.7103
-34.3176 -46.2015
-35.1596 -57.391
-37.7762 -28.3143
-38.4561 -21.194
-38.533 -23.7097
-36.4617 -17.3334
-37.6897 -15.7215
-38.2803 -21.669
-36.8511 -34.6536
-31.1697 -30.4775
-34.5566 -22.1699
-35.0434 -35.3399
-30.683 -64.7485
-27.8171 -70.3396
-36.5664 -74.6327
-13.581 -72.1671
-32.9276 -58.6333
-27.1852 -54.6715
-19.489 -51.3111
-35.311 -20.6667
-36.4207 -22.2826
-32.249 -19.279
-38.1321 -27.2852
-37.5046 -22.8388
-38.8018 -17.9675
-38.8152 -21.2343
-39.0986 -20.2
-9.15341 -20.497
-5.77942 -27.266
-5.28461 -13.7488
-2.62298 -56.5663
-0.576918 -42.2556
-3.38322 -11.6395
-4.91203 -3.21296
-7.67229 -2.20629
-12.6075 -21.5605
-9.61008 -93.661
-5.06053 -72.1128
-12.7486 -49.8823
4.85023 -79.1872
-19.046 -34.6206
-9.86317 -107.019
2.70273 -120.716
-51.3273 -292.644
-57.6273 -66.2068
-34.0659 -126.638
-6.07273 -144.253
-30.8835 -135.253
-80.8241 -252.635
-57.6143 -62.374
-62.9806 -307.38
-33.7854 -138.267
-31.7481 -148.072
-8.64881 -152.704
-77.7987 -272.838
-61.7019 -147.682
-45.9823 -176.063
-17.3689 -161.132
-140.251 -248.792
-59.524 -243.156
2.19565 -122.474
-8.88268 -131.378
-49.34 -124.163
-74.8486 -135.033
4.47863 -91.1441
6.93483 -76.286
6.15048 -89.2551
7.33752 -58.8225
7.75854 -65.1666
2.63854 -83.6671
-3.12906 -97.9917
1.60554 -110.438
5.74068 -83.5447
-33.0624 -87.2235
-40.566 -85.9719
-40.6613 -96.2647
-36.0309 -79.3535
-40.1996 -87.4975
-50.9014 -104.575
-49.0712 -106.639
-16.8792 -94.0428
-24.0426 -89.1351
-1.44014 -117.478
2.40126 -105.09
-2.63082 -122.427
5.17553 -85.3711
-9.7594 -153.055
-17.529 -125.12
-5.62088 -107.811
-52.5128 -191.443
-81.0493 -197.837
-96.2947 -160.847
-110.463 -300.262
-142.673 -261.243
-73.3314 -147.883
-75.4179 -140.952
-33.0279 -166.133
-13.4886 -186.978
-58.6699 -115.218
-52.2636 -104.765
-48.6518 -108.073
-42.3975 -102.341
-45.0566 -97.4854
-33.6631 -104.319
-38.6059 -116.214
-67.6038 -125.557
-54.7007 -119.979
-54.5314 -163.645
-48.0089 -177.488
-23.0466 -172.443
-11.5478 -143.995
-46.6435 -143.148
-46.2455 -128.485
-40.6831 -118.744
-35.9196 -110.73
-14.2882 -117.478
-32.5812 -167.409
-61.8829 -177.548
-68.8457 -146.145
-54.2197 -127.084
-19.4888 -142.966
-48.1234 -113.612
-40.1106 -102.643
-21.096 -107.161
-34.837 -95.1098
-12.4474 -83.4115
-5.90472 -78.9902
-12.5549 -74.869
-12.8339 -67.7826
-6.10852 -62.8332
-19.2306 -72.624
0.821685 -98.0143
4.55676 -84.3252
7.57774 -86.8618
3.29215 -80.4928
6.80971 -74.1016
6.90069 -71.5715
-8.61427 -100.462
-11.7148 -85.1348
-3.01194 -85.5606
-9.74035 -91.308
1.0889 -76.0236
-20.1993 -100.423
-28.7097 -85.0781
-16.1177 -80.8744
-1.44003 -71.8645
-9.42543 -75.6594
-19.4912 -66.6306
-23.8005 -76.5703
2.58489 -68.7735
-6.43678 -69.1718
-8.61328 -62.9797
-2.78247 -59.9972
0.283362 -69.4506
3.65496 -63.3556
-1.26038 -63.6061
7.53372 -58.7092
6.06132 -54.3294
-1.51334 -56.5768
1.08074 -77.5041
-0.00749706 -54.7419
-3.91706 -31.2664
1.66685 -50.4884
-5.40837 -17.4555
-2.30741 -14.6379
3.2232 -40.122
-3.82652 -70.2291
-10.5748 -17.3887
-6.32772 -16.1954
-12.0864 -36.8919
-5.02944 -0.714846
-6.78106 -72.5305
-15.1124 -17.0015
-8.89006 -5.44682
-20.0416 -55.9715
-31.3758 -24.897
-12.4358 -94.282
-8.5437 0.669471
-13.2838 -1.96342
0.387039 -25.1683
-1.03164 -14.6163
0.578978 -11.3343
-33.0391 30.8302
-73.1404 -115.353
0.834814 -11.6529
4.23309 -36.5182
-28.1452 -62.2221
-12.9964 -122.004
-37.5356 -41.2524
-10.9747 1.04741
-17.7153 9.27223
-2.21387 -22.6625
0.116337 -11.4007
-1.69935 -10.9774
0.608015 -11.8079
-30.4635 61.8711
-73.4067 -97.2128
3.17971 -41.534
1.32742 -6.93293
0.393101 -3.53173
0.505708 -4.10472
0.329619 -3.4699
-0.0203965 -1.00056
-0.116697 -0.799731
0.592363 -4.18692
2.43264 -10.755
2.38598 -10.057
1.65482 -7.33915
0.672057 -4.39496
0.19262 -3.39123
0.516309 -4.31804
-0.213698 -0.416372
-0.164821 -0.480734
2.78393 -11.2816
2.75015 -9.87935
0.821968 -4.88955
0.750564 -4.91739
0.564382 -4.78019
-0.0464779 -0.198407
-0.226993 0.145469
0.907551 -5.01746
4.45798 -15.3472
4.58575 -14.8178
3.09746 -11.0813
1.11148 -5.80753
0.880267 -4.89831
1.29383 -5.97227
-0.794022 -0.743875
-0.801235 -0.598238
4.83399 -16.5311
3.16672 -12.2381
0.915913 -6.23139
1.37042 -6.4066
1.14964 -6.37484
-1.11034 -0.389864
-1.03661 -0.338826
1.15782 -6.25596
4.94044 -17.9365
4.38512 -18.0563
2.89518 -14.49
1.35027 -9.1
1.31144 -6.52977
1.44821 -8.85743
-1.34073 -0.178906
-1.14531 -0.155899
4.76996 -20.5001
2.88447 -15.2069
1.19873 -6.18625
1.49682 -9.96638
1.08235 -6.1617
-0.782383 -0.772854
-0.526902 -0.990351
1.50241 -9.4889
5.57357 -24.6196
5.07829 -20.9162
3.26389 -12.5038
1.55995 -6.93359
0.857421 -6.02234
1.30173 -6.74337
-0.422998 -1.13757
-0.414951 -1.98567
5.77317 -21.5648
3.19282 -11.1663
0.889647 -4.99417
1.11761 -5.92512
0.777745 -4.91972
-0.0671283 -1.45281
-0.538862 -2.79402
1.32212 -6.06166
4.9653 -16.6105
4.70302 -15.2292
1.49586 -6.98691
0.414946 -3.84321
0.324132 -3.37777
0.549029 -3.92921
-0.615515 -0.833861
-0.697256 -0.800713
0.143218 -3.33382
2.56231 -9.40844
2.61438 -10.0919
1.39313 -7.10616
0.456013 -3.93786
0.501839 -3.85393
0.522602 -3.99796
-0.823336 -0.539667
-0.894234 -0.47768
0.431195 -3.81127
2.31602 -9.87454
2.2117 -10.0344
-1.16908 -0.256935
0.297957 -3.32668
0.355239 -3.42581
0.363774 -3.45209
1.69302 -8.76034
-0.992893 -0.213198
-30.7838 -117.453
-9.22777 -120.313
-13.5816 -103.757
5.05288 -26.4269
4.87709 -29.1218
2.47482 -19.5738
7.54799 -42.3455
6.94256 -29.5658
-34.6223 -128.701
-37.2664 -148.381
-61.5651 -135.79
5.34922 -30.6954
1.9484 -21.4244
4.46945 -32.2212
6.35061 -53.6265
7.64822 -37.2847
-28.3799 -142.727
-12.7274 -131.283
-33.7478 -125.751
-18.29 -125.596
3.23415 -14.3442
2.33384 -10.7668
1.31319 -7.37282
2.07783 -10.6809
3.8986 -13.9048
2.42125 -9.19321
3.54821 -13.2369
4.2384 -16.1082
5.57437 -19.4445
5.222 -18.73
3.48483 -12.3424
5.48611 -17.8445
6.63083 -22.8906
6.70865 -24.5634
5.61376 -18.5034
3.669 -12.9444
5.62671 -19.75
7.54128 -28.6595
6.7828 -23.5537
2.50048 -10.4206
1.52973 -7.29261
2.7037 -10.3595
3.60023 -13.3812
3.32372 -13.4791
1.66854 -8.46945
1.12066 -6.41895
1.94541 -9.10456
2.73281 -12.2091
2.41767 -11.8433
-26.2757 -78.8907
-26.8805 -71.3878
10.0482 -46.6342
8.60338 -46.6536
8.41187 -37.8829
8.54156 -54.2391
7.73029 -31.8669
9.22554 -45.2585
9.00973 -53.8829
-33.4452 -95.1202
-38.0667 -88.2286
3.91745 -16.8379
3.66257 -17.1676
3.50175 -17.4182
4.10209 -20.2564
6.2805 -25.8896
6.15883 -23.1896
5.28364 -20.6684
6.76577 -24.7274
4.53959 -18.6264
5.99002 -27.512
6.75209 -30.4271
8.9643 -37.1967
8.45605 -31.1854
7.98631 -30.0026
7.64069 -27.2312
8.99254 -42.0513
9.0949 -37.2234
8.04741 -29.2325
8.71666 -33.2209
7.5666 -26.5644
8.86864 -36.2359
9.12382 -42.6709
8.52679 -38.1562
6.21797 -22.8544
5.21695 -18.2117
6.12191 -20.988
4.61082 -16.0596
4.23266 -14.7072
5.58474 -18.8951
6.74281 -23.4579
6.81491 -26.5752
6.03953 -23.3484
3.52303 -15.39
3.17108 -14.6512
3.1358 -15.1766
4.00006 -20.3456
9.74509 -65.22
8.09475 -63.0293
6.27892 -73.9314
5.25963 -24.734
4.89907 -21.5422
4.65286 -22.8809
4.32471 -23.3727
5.46837 -29.1338
8.31053 -37.0171
7.83625 -31.6888
7.5866 -33.6253
6.86525 -35.6818
8.12685 -44.8697
7.46409 -30.1891
7.76184 -29.3846
8.17707 -33.7911
8.1043 -39.3123
7.09733 -31.1167
7.00911 -49.2115
4.45673 -52.3348
1.97969 -52.6689
3.90316 -47.5736
2.94745 -57.9998
6.20311 -53.8956
4.44861 -61.0772
6.59816 -47.8599
8.42979 -49.6396
7.37604 -63.3561
0.145769 -53.3966
5.27183 -32.7127
4.62317 -29.552
3.69847 -29.5141
3.28068 -36.3035
5.41947 -43.9912
6.70571 -43.2353
6.52888 -39.8191
5.83583 -36.0488
3.57098 -43.8617
6.21616 -38.2287
6.8969 -34.7717
7.07341 -38.2565
6.30399 -30.8713
7.40417 -42.8107
5.00035 -42.3043
4.69202 -38.6184
5.88787 -26.8858
5.68497 -30.5589
4.51659 -29.3242
4.57036 -24.6898
5.71184 -46.3875
3.77446 -47.3244
4.58728 -36.8217
3.76949 -39.9627
5.18659 -19.9773
4.3211 -16.7531
4.48541 -16.8309
3.97812 -16.6063
5.6915 -23.7364
4.64425 -22.2375
4.39527 -19.0708
5.14572 -23.1483
3.62228 -12.1896
2.49202 -9.19574
3.92687 -13.3997
0.483459 -4.08621
2.86619 -10.5536
0.137552 -3.27408
0.474507 -4.07203
1.76668 -7.33827
-1.35672 -0.165872
-1.12372 -0.0788523
9.61086 -63.8469
9.04617 -49.0687
8.1143 -60.1239
8.94097 -42.3914
8.16703 -63.5769
8.92505 -48.8168
9.88257 -47.7583
9.11887 -55.2369
0 0
0 0
0 0
0 0
0 0
0 0
0 0
0 0
0 0
0 0
0 0
0 0
0 0
0 0
0 0
0 0
0 0
0 0
0 0
0 0
0 0
0 0
0 0
0 0
0 0
0 0
0 0
0 0
0 0
0 0
0 0
0 0
0 0
0 0
0 0
0 0
0 0
0 0
0 0
0 0
0 0
0 0
0 0
0 0
0 0
0 0
0 0
0 0
0 0
0 0
0 0
0 0
0 0
0 0
0 0
0 0
0 0
0 0
0 0
0 0
0 0
0 0
0 0
0 0
0 0
0 0
0 0
0 0
0 0
0 0
0 0
0 0
0 0
0 0
0 0
0 0
0 0
0 0
0 0
0 0
0 0
0 0
0 0
0 0
0 0
0 0
0 0
0 0
0 0
0 0
0 0
0 0
0 0
0 0
0 0
0 0
0 0
0 0
0 0
0 0
0 0
0 0
0 0
0 0
0 0
0 0
0 0
0 0
0 0
0 0
0 0
0 0
0 0
0 0
0 0
0 0
0 0
0 0
0 0
0 0
0 0
0 0
0 0
0 0
0 0
0 0
0 0
0 0
0 0
0 0
0 0
0 0
0 0
0 0
0 0
0 0
0 0
0 0
0 0
0 0
0 0
0 0
0 0
0 0
0 0
0 0
0 0
0 0
0 0
0 0
0 0
0 0
0 0
0 0
0 0
0 0
0 0
0 0
0 0
0 0
0 0
0 0
0 0
0 0
0 0
0 0
0 0
0 0
0 0
0 0
0 0
0 0
0 0
0 0
0 0
0 0
0 0
0 0
0 0
0 0
0 0
0 0
0 0
0 0
0 0
0 0
0 0
0 0
0 0
0 0
0 0
0 0
0 0
0 0
0 0
0 0
0 0
0 0
0 0
0 0
0 0
0 0
0 0
0 0
0 0
0 0
0 0
0 0
0 0
0 0
0 0
0 0
0 0
0 0
0 0
0 0
0 0
0 0
0 0
0 0
0 0
0 0
0 0
0 0
0 0
0 0
0 0
0 0
0 0
0 0
0 0
0 0
0 0
0 0
0 0
0 0
0 0
0 0
0 0
0 0
0 0
0 0
0 0
0 0
0 0
0 0
0 0
0 0
0 0
0 0
0 0
0 0
0 0
0 0
0 0
0 0
0 0
0 0
0 0
0 0
0 0
0 0
0 0
0 0
0 0
0 0
0 0
0 0
0 0
0 0
0 0
0 0
0 0
0 0
0 0
0 0
0 0
0 0
0 0
0 0
0 0
0 0
0 0
0 0
0 0
0 0
0 0
0 0
0 0
0 0
0 0
0 0
0 0
0 0
0 0
0 0
0 0
0 0
0 0
0 0
0 0
0 0
0 0
0 0
0 0
0 0
0 0
0 0
0 0
0 0
0 0
0 0
0 0
0 0
0 0
0 0
0 0
0 0
0 0
0 0
0 0
0 0
0 0
0 0
0 0
0 0
0 0
0 0
0 0
0 0
0 0
0 0
0 0
0 0
0 0
0 0
0 0
0 0
0 0
0 0
0 0
0 0
0 0
0 0
0 0
0 0
0 0
0 0
0 0
0 0
0 0
0 0
0 0
0 0
0 0
0 0
0 0
0 0
0 0
0 0
0 0
0 0
0 0
0 0
0 0
0 0
0 0
0 0
0 0
0 0
0 0
0 0
0 0
0 0
0 0
0 0
0 0
0 0
0 0
0 0
0 0
0 0
0 0
0 0
0 0
0 0
0 0
0 0
0 0
0 0
0 0
0 0
0 0
0 0
0 0
0 0
0 0
0 0
0 0
0 0
0 0
0 0
0 0
0 0
0 0
0 0
0 0
0 0
0 0
0 0
0 0
0 0
0 0
0 0
0 0
0 0
0 0
0 0
0 0
0 0
0 0
0 0
0 0
0 0
0 0
0 0
0 0
0 0
0 0
0 0
0 0
0 0
0 0
0 0
0 0
0 0
0 0
0 0
0 0
0 0
0 0
0 0
0 0
0 0
0 0
0 0
0 0
0 0
0 0
0 0
0 0
0 0
0 0
0 0
0 0
0 0
0 0
0 0
0 0
0 0
0 0
0 0
0 0
0 0
0 0
0 0
0 0
0 0
0 0
0 0
0 0
0 0
0 0
0 0
0 0
0 0
0 0
0 0
0 0
0 0
0 0
0 0
0 0
0 0
0 0
0 0
0 0
0 0
0 0
0 0
0 0
0 0
0 0
0 0
0 0
0 0
0 0
0 0
0 0
0 0
0 0
0 0
0 0
0 0
0 0
0 0
0 0
0 0
0 0
0 0
0 0
0 0
0 0
0 0
0 0
0 0
0 0
0 0
0 0
0 0
0 0
0 0
0 0
0 0
0 0
0 0
0 0
0 0
0 0
0 0
0 0
0 0
0 0
0 0
0 0
0 0
0 0
0 0
0 0
0 0
0 0
0 0
0 0
0 0
0 0
0 0
0 0
0 0
0 0
0 0
0 0
0 0
0 0
0 0
0 0
0 0
0 0
0 0
0 0
0 0
0 0
0 0
0 0
0 0
0 0
0 0
0 0
0 0
0 0
0 0
0 0
0 0
0 0
0 0
0 0
0 0
0 0
0 0
0 0
0 0
0 0
0 0
0 0
0 0
0 0
0 0
0 0
0 0
0 0
0 0
0 0
0 0
0 0
0 0
0 0
0 0
0 0
0 0
0 0
0 0
0 0
0 0
0 0
0 0
0 0
0 0
0 0
0 0
0 0
0 0
0 0
0 0
0 0
0 0
0 0
0 0
0 0
0 0
0 0
0 0
0 0
0 0
0 0
0 0
0 0
0 0
0 0
0 0
0 0
0 0
0 0
0 0
0 0
0 0
0 0
0 0
0 0
0 0
0 0
0 0
0 0
0 0
0 0
0 0
0 0
0 0
0 0
0 0
0 0
0 0
0 0
0 0
0 0
0 0
0 0
0 0
0 0
0 0
0 0
0 0
0 0
0 0
0 0
0 0
0 0
0 0
0 0
0 0
0 0
0 0
0 0
0 0
0 0
0 0
0 0
0 0
0 0
0 0
0 0
0 0
0 0
0 0
0 0
0 0
0 0
0 0
0 0
0 0
0 0
0 0
0 0
0 0
0 0
0 0
0 0
0 0
0 0
0 0
0 0
0 0
0 0
0 0
0 0
0 0
0 0
0 0
0 0
0 0
0 0
0 0
0 0
0 0
0 0
0 0
0 0
0 0
0 0
0 0
0 0
0 0
0 0
0 0
0 0
0 0
0 0
0 0
0 0
0 0
0 0
0 0
0 0
0 0
0 0
0 0
0 0
0 0
0 0
0 0
0 0
0 0
0 0
0 0
0 0
0 0
0 0
0 0
0 0
0 0
0 0
0 0
0 0
0 0
0 0
0 0
0 0
0 0
0 0
0 0
0 0
0 0
0 0
0 0
0 0
0 0
0 0
0 0
0 0
0 0
0 0
0 0
0 0
0 0
0 0
0 0
0 0
0 0
0 0
0 0
0 0
0 0
0 0
0 0
0 0
0 0
0 0
0 0
0 0
0 0
0 0
0 0
0 0
0 0
0 0
0 0
0 0
0 0
0 0
0 0
0 0
0 0
0 0
0 0
0 0
0 0
0 0
0 0
0 0
0 0
0 0
0 0
0 0
0 0
0 0
0 0
0 0
0 0
0 0
0 0
0 0
0 0
0 0
0 0
0 0
0 0
0 0
0 0
0 0
0 0
0 0
0 0
0 0
0 0
0 0
0 0
0 0
0 0
0 0
0 0
0 0
0 0
0 0
0 0
0 0
0 0
0 0
0 0
0 0
0 0
0 0
0 0
0 0
0 0
0 0
0 0
0 0
0 0
0 0
0 0
0 0
0 0
0 0
0 0
0 0
0 0
0 0
0 0
0 0
0 0
0 0
0 0
0 0
0 0
0 0
0 0
0 0
0 0
0 0
0 0
0 0
0 0
0 0
0 0
0 0
0 0
0 0
0 0
0 0
0 0
0 0
0 0
0 0
0 0
0 0
0 0
0 0
0 0
0 0
0 0
0 0
0 0
0 0
0 0
0 0
0 0
0 0
0 0
0 0
0 0
0 0
0 0
0 0
0 0
0 0
0 0
0 0
0 0
0 0
0 0
0 0
0 0
0 0
0 0
0 0
0 0
0 0
0 0
0 0
0 0
0 0
0 0
0 0
0 0
0 0
0 0
0 0
0 0
0 0
0 0
0 0
0 0
0 0
0 0
0 0
0 0
0 0
0 0
0 0
0 0
0 0
0 0
0 0
0 0
0 0
0 0
0 0
0 0
0 0
0 0
0 0
0 0
0 0
0 0
0 0
0 0
0 0
0 0
0 0
0 0
0 0
0 0
0 0
0 0
0 0
0 0
0 0
0 0
0 0
0 0
0 0
0 0
0 0
0 0
0 0
0 0
0 0
0 0
0 0
0 0
0 0
0 0
0 0
0 0
0 0
0 0
0 0
0 0
0 0
0 0
0 0
0 0
0 0
0 0
0 0
0 0
0 0
0 0
0 0
0 0
0 0
0 0
0 0
0 0
0 0
0 0
0 0
0 0
0 0
0 0
0 0
0 0
0 0
0 0
0 0
0 0
0 0
0 0
0 0
0 0
0 0
0 0
0 0
0 0
0 0
0 0
0 0
0 0
0 0
0 0
0 0
0 0
0 0
0 0
0 0
0 0
0 0
0 0
0 0
0 0
0 0
0 0
0 0
0 0
0 0
0 0
0 0
0 0
0 0
0 0
0 0
0 0
0 0
0 0
0 0
0 0
0 0
0 0
0 0
0 0
0 0
0 0
0 0
0 0
0 0
0 0
0 0
0 0
0 0
0 0
0 0
0 0
0 0
0 0
0 0
0 0
0 0
0 0
0 0
0 0
0 0
0 0
0 0
0 0
0 0
0 0
0 0
0 0
0 0
0 0
0 0
0 0
0 0
0 0
0 0
0 0
0 0
0 0
0 0
0 0
0 0
0 0
0 0
0 0
0 0
0 0
0 0
0 0
0 0
0 0
0 0
0 0
0 0
0 0
0 0
0 0
0 0
0 0
0 0
0 0
0 0
0 0
0 0
0 0
0 0
0 0
0 0
0 0
0 0
0 0
0 0
0 0
0 0
0 0
0 0
0 0
0 0
0 0
0 0
0 0
0 0
0 0
0 0
0 0
0 0
0 0
0 0
0 0
0 0
0 0
0 0
0 0
0 0
0 0
0 0
0 0
0 0
0 0
0 0
0 0
0 0
0 0
0 0
0 0
0 0
0 0
0 0
0 0
0 0
0 0
0 0
0 0
0 0
0 0
0 0
0 0
0 0
0 0
0 0
0 0
0 0
0 0
0 0
0 0
0 0
0 0
0 0
0 0
0 0
0 0
0 0
0 0
0 0
0 0
0 0
0 0
0 0
0 0
0 0
0 0
0 0
0 0
0 0
0 0
0 0
0 0
0 0
0 0
0 0
0 0
0 0
0 0
0 0
0 0
0 0
0 0
0 0
0 0
0 0
0 0
0 0
0 0
0 0
0 0
0 0
0 0
0 0
0 0
0 0
0 0
0 0
0 0
0 0
0 0
0 0
0 0
0 0
0 0
0 0
0 0
0 0
0 0
0 0
0 0
0 0
0 0
0 0
0 0
0 0
0 0
0 0
0 0
0 0
0 0
0 0
0 0
0 0
0 0
0 0
0 0
0 0
0 0
0 0
0 0
0 0
0 0
0 0
0 0
0 0
0 0
0 0
0 0
0 0
0 0
0 0
0 0
0 0
0 0
0 0
0 0
0 0
0 0
0 0
0 0
0 0
0 0
0 0
0 0
0 0
0 0
0 0
0 0
0 0
0 0
0 0
0 0
0 0
0 0
0 0
0 0
0 0
0 0
0 0
0 0
0 0
0 0
0 0
0 0
0 0
0 0
0 0
0 0
0 0
0 0
0 0
0 0
0 0
0 0
0 0
0 0
0 0
0 0
0 0
0 0
0 0
0 0
0 0
0 0
0 0
0 0
0 0
0 0
0 0
0 0
0 0
0 0
0 0
0 0
0 0
0 0
0 0
0 0
0 0
0 0
0 0
0 0
0 0
0 0
0 0
0 0
0 0
0 0
0 0
0 0
0 0
0 0
0 0
0 0
0 0
0 0
0 0
0 0
0 0
0 0
0 0
0 0
0 0
0 0
0 0
0 0
0 0
0 0
0 0
0 0
0 0
0 0
0 0
0 0
0 0
0 0
0 0
0 0
0 0
0 0
0 0
0 0
0 0
0 0
0 0
0 0
0 0
0 0
0 0
0 0
0 0
0 0
0 0
0 0
0 0
0 0
0 0
0 0
0 0
0 0
0 0
0 0
0 0
0 0
0 0
0 0
0 0
0 0
0 0
0 0
0 0
0 0
0 0
0 0
0 0
0 0
0 0
0 0
0 0
0 0
0 0
0 0
0 0
0 0
0 0
0 0
0 0
0 0
0 0
0 0
0 0
0 0
0 0
0 0
0 0
0 0
0 0
0 0
0 0
0 0
0 0
0 0
0 0
0 0
0 0
0 0
0 0
0 0
0 0
0 0
0 0
0 0
0 0
0 0
0 0
0 0
0 0
0 0
0 0
0 0
0 0
0 0
0 0
0 0
0 0
0 0
0 0
0 0
0 0
0 0
0 0
0 0
0 0
0 0
0 0
0 0
0 0
0 0
0 0
0 0
0 0
0 0
0 0
0 0
0 0
0 0
0 0
0 0
0 0
0 0
0 0
0 0
0 0
0 0
0 0
0 0
0 0
0 0
0 0
0 0
0 0
0 0
0 0
0 0
0 0
0 0
0 0
0 0
0 0
0 0
0 0
0 0
0 0
0 0
0 0
0 0
0 0
0 0
0 0
0 0
0 0
0 0
0 0
0 0
0 0
0 0
0 0
0 0
0 0
0 0
0 0
0 0
0 0
0 0
0 0
0 0
0 0
0 0
0 0
0 0
0 0
0 0
0 0
0 0
0 0
0 0
0 0
0 0
0 0
0 0
0 0
0 0
0 0
0 0
0 0
0 0
0 0
0 0
0 0
0 0
0 0
0 0
0 0
0 0
0 0
0 0
0 0
0 0
0 0
0 0
0 0
0 0
0 0
0 0
0 0
0 0
0 0
0 0
0 0
0 0
0 0
0 0
0 0
0 0
0 0
0 0
0 0
0 0
0 0
0 0
0 0
0 0
0 0
0 0
0 0
0 0
0 0
0 0
0 0
0 0
0 0
0 0
0 0
0 0
0 0
0 0
0 0
0 0
0 0
0 0
0 0
0 0
0 0
0 0
0 0
0 0
0 0
0 0
0 0
0 0
0 0
0 0
0 0
0 0
0 0
0 0
0 0
0 0
0 0
0 0
0 0
0 0
0 0
0 0
0 0
0 0
0 0
0 0
0 0
0 0
0 0
0 0
0 0
0 0
0 0
0 0
0 0
0 0
0 0
0 0
0 0
0 0
0 0
0 0
0 0
0 0
0 0
0 0
0 0
0 0
0 0
0 0
0 0
0 0
0 0
0 0
0 0
0 0
0 0
0 0
0 0
0 0
0 0
0 0
0 0
0 0
0 0
0 0
0 0
0 0
0 0
0 0
0 0
0 0
0 0
0 0
0 0
0 0
0 0
0 0
0 0
0 0
0 0
0 0
0 0
0 0
0 0
0 0
0 0
0 0
0 0
0 0
0 0
0 0
0 0
0 0
0 0
0 0
0 0
0 0
0 0
0 0
0 0
0 0
0 0
0 0
0 0
0 0
0 0
0 0
0 0
0 0
0 0
0 0
0 0
0 0
0 0
0 0
0 0
0 0
0 0
0 0
0 0
0 0
0 0
0 0
0 0
0 0
0 0
0 0
0 0
0 0
0 0
0 0
0 0
0 0
0 0
0 0
0 0
0 0
0 0
0 0
0 0
0 0
0 0
0 0
0 0
0 0
0 0
0 0
0 0
0 0
0 0
0 0
0 0
0 0
0 0
0 0
0 0
0 0
0 0
0 0
0 0
0 0
0 0
0 0
0 0
0 0
0 0
0 0
0 0
0 0
0 0
0 0
0 0
0 0
0 0
0 0
0 0
0 0
0 0
0 0
0 0
0 0
0 0
0 0
0 0
0 0
0 0
0 0
0 0
0 0
0 0
0 0
0 0
0 0
0 0
0 0
0 0
0 0
0 0
0 0
0 0
0 0
0 0
0 0
0 0
0 0
0 0
0 0
0 0
0 0
0 0
0 0
0 0
0 0
0 0
0 0
0 0
0 0
0 0
0 0
0 0
0 0
0 0
0 0
0 0
0 0
0 0
0 0
0 0
0 0
0 0
0 0
0 0
0 0
0 0
0 0
0 0
0 0
0 0
0 0
0 0
0 0
0 0
0 0
0 0
0 0
0 0
0 0
0 0
0 0
0 0
0 0
0 0
0 0
0 0
0 0
0 0
0 0
0 0
0 0
0 0
0 0
0 0
0 0
0 0
0 0
0 0
0 0
0 0
0 0
0 0
0 0
0 0
0 0
0 0
0 0
0 0
0 0
0 0
0 0
0 0
0 0
0 0
0 0
0 0
0 0
0 0
0 0
0 0
0 0
0 0
0 0
0 0
0 0
0 0
0 0
0 0
0 0
0 0
0 0
0 0
0 0
0 0
0 0
0 0
0 0
0 0
0 0
0 0
0 0
0 0
0 0
0 0
0 0
0 0
0 0
0 0
0 0
0 0
0 0
0 0
0 0
0 0
0 0
0 0
0 0
0 0
0 0
0 0
0 0
0 0
0 0
0 0
0 0
0 0
0 0
0 0
0 0
0 0
0 0
0 0
0 0
0 0
0 0
0 0
0 0
0 0
0 0
0 0
0 0
0 0
0 0
0 0
0 0
0 0
0 0
0 0
0 0
0 0
0 0
0 0
0 0
0 0
0 0
0 0
0 0
0 0
0 0
0 0
0 0
0 0
0 0
0 0
0 0
0 0
0 0
0 0
0 0
0 0
0 0
0 0
0 0
0 0
0 0
0 0
0 0
0 0
0 0
0 0
0 0
0 0
0 0
0 0
0 0
0 0
0 0
0 0
0 0
0 0
0 0
0 0
0 0
0 0
0 0
0 0
0 0
0 0
0 0
0 0
0 0
0 0
0 0
0 0
0 0
0 0
0 0
0 0
0 0
0 0
0 0
0 0
0 0
0 0
0 0
0 0
0 0
0 0
0 0
0 0
0 0
0 0
0 0
0 0
0 0
0 0
0 0
0 0
0 0
0 0
0 0
0 0
0 0
0 0
0 0
0 0
0 0
0 0
0 0
0 0
0 0
0 0
0 0
0 0
0 0
0 0
0 0
0 0
0 0
0 0
0 0
0 0
0 0
0 0
0 0
0 0
0 0
0 0
0 0
0 0
0 0
0 0
0 0
0 0
0 0
0 0
0 0
0 0
0 0
0 0
0 0
0 0
0 0
0 0
0 0
0 0
0 0
0 0
0 0
0 0
0 0
0 0
0 0
0 0
0 0
0 0
0 0
0 0
0 0
0 0
0 0
0 0
0 0
0 0
0 0
0 0
0 0
0 0
0 0
0 0
0 0
0 0
0 0
0 0
0 0
0 0
0 0
0 0
0 0
0 0
0 0
0 0
0 0
0 0
0 0
0 0
0 0
0 0
0 0
0 0
0 0
0 0
0 0
0 0
0 0
0 0
0 0
0 0
0 0
0 0
0 0
0 0
0 0
0 0
0 0
0 0
0 0
0 0
0 0
0 0
0 0
0 0
0 0
0 0
0 0
0 0
0 0
0 0
0 0
0 0
0 0
0 0
0 0
0 0
0 0
0 0
0 0
0 0
0 0
0 0
0 0
0 0
0 0
0 0
0 0
0 0
0 0
0 0
0 0
0 0
0 0
0 0
0 0
0 0
0 0
0 0
0 0
0 0
0 0
0 0
0 0
0 0
0 0
0 0
0 0
0 0
0 0
0 0
0 0
0 0
0 0
0 0
0 0
0 0
0 0
0 0
0 0
0 0
0 0
0 0
0 0
0 0
0 0
0 0
0 0
0 0
0 0
0 0
0 0
0 0
0 0
0 0
0 0
0 0
0 0
0 0
0 0
0 0
0 0
0 0
0 0
0 0
0 0
0 0
0 0
0 0
0 0
0 0
0 0
0 0
0 0
0 0
0 0
0 0
0 0
0 0
0 0
0 0
0 0
0 0
0 0
0 0
0 0
0 0
0 0
0 0
0 0
0 0
0 0
0 0
0 0
0 0
0 0
0 0
0 0
      </DataArray> 
      <DataArray type="Float64" NumberOfComponents="1" Name="CauchyShearStress" format="ascii">
-6.63037
5.83215
-1.9415
0.5597
0.289585
0.394769
0.284028
0.136515
-0.0357723
-0.0645618
-0.0609216
-0.101403
-0.141559
-0.104388
-0.0499966
-0.0388572
-0.0422471
0.0219787
0.0755432
0.0725679
0.0541373
0.100275
0.114588
0.036296
-0.0666568
-0.0863285
-0.172119
-0.594362
-0.750262
-0.976968
0.697316
0.010196
0.261831
0.608233
-7.42409
0.0387739
0.230915
0.274132
0.248226
0.0869554
0.0724671
0.154798
0.245706
0.235169
0.339974
0.266204
0.369126
0.479076
0.549248
0.547665
0.592885
0.608222
0.638356
0.285313
-0.148983
-0.293405
-0.451902
-0.572092
-0.689793
-1.06774
0.890053
1.23861
2.46608
-29.9255
-14.9676
-6.34511
-9.60704
-11.9171
-17.1453
0.218916
-28.8232
-25.0601
-19.0535
30.311
-2.5784
-20.6745
30.1664
-5.68021
15.4441
6.57815
9.71381
11.9589
17.175
-0.369797
-1.17872
-1.38949
-2.92184
0.00326456
-0.13139
0.263632
0.469705
0.852323
0.88115
0.187907
-0.163249
-0.28913
-0.423242
-0.53668
-0.604898
-0.65197
-0.671097
-0.71867
-0.62907
-0.606935
-0.585538
-0.520789
-0.533036
-0.391723
-0.232181
-0.172477
-0.229989
0.727954
1.41393
7.76695
2.01917
-16.3793
-9.45112
-16.4589
18.362
10.631
4.52934
4.62949
-4.14208
-0.376845
-15.6509
15.6586
-3.76749
-4.17517
-7.80739
-7.38428
8.36266
-6.56694
7.33324
-7.18197
-7.37313
7.95578
7.99102
-6.36482
-6.05817
-7.09625
-3.5683
2.67351
3.71863
8.03378
6.72034
9.09155
-8.24757
-9.50851
-9.98409
-9.57615
10.5048
8.80193
-3.75513
0.83247
3.48503
-6.19209
6.41753
-4.70517
-5.44393
-6.25731
-5.75963
6.07966
6.89231
6.19658
4.97289
-5.90891
-6.03509
-5.2346
-2.67286
1.1638
5.35072
-5.4326
-5.28474
6.19185
6.41743
5.70266
5.6089
6.38896
8.73951
-7.7647
-9.01363
-6.93838
-10.2801
-11.559
10.2884
5.89482
-4.30719
-2.9178
-0.278308
-1.42526
1.12458
2.7806
1.94071
3.92771
-5.58251
-5.75008
5.63676
5.70063
-4.52716
-3.85912
-4.21291
-3.6971
-4.1737
-5.20214
5.55448
4.72183
4.20631
4.46724
3.92362
4.48705
-5.47096
-5.17704
-7.06956
0.16102
4.05148
-3.31707
3.7312
5.34961
5.07739
10.7291
-13.0562
-2.76929
-14.2988
14.9305
12.0663
8.44756
-4.36359
-3.19783
-1.12488
0.794481
2.42462
3.95061
-5.36458
5.23424
-3.8255
-2.66158
-3.72765
3.89298
2.89172
3.94073
-4.37434
-4.74874
-4.82359
-4.40751
-2.42437
-1.77661
-17.6142
-3.15644
13.7635
-0.401569
0.408381
2.81545
3.93476
4.42086
4.51617
3.68323
14.1821
-14.0455
1.85166
5.61915
-17.7801
-4.79964
-3.89321
16.5375
5.25989
-4.1335
-4.18748
-3.01954
-3.74282
-1.51955
-2.21478
0.190449
-0.462986
1.43516
0.882168
2.95135
2.25388
4.18946
3.51212
-4.23467
-4.93117
-5.15965
4.29574
4.92027
4.87483
3.79246
-3.67451
-1.69413
-1.55662
-2.46508
2.48644
1.85254
1.8218
3.89981
-2.59999
-3.5592
-3.10797
-2.45721
-0.884422
-31.2613
-11.7512
-0.932426
7.46297
33.0323
2.39913
-2.36026
2.33866
3.93707
2.62369
23.4975
12.0288
-19.8594
-12.4403
12.4226
-20.3013
1.8402
-9.45622
9.65558
13.8396
-4.24398
-2.62208
-1.40324
-0.276447
0.745424
1.78478
3.35949
-4.71515
-3.57035
4.04551
3.97267
-2.34093
-1.7203
-4.24031
3.31417
1.32723
2.41045
-2.80748
3.13623
-0.847168
-1.52822
-1.36524
-1.9203
-1.47844
-1.70766
-1.40166
-1.12003
-0.606747
-58.0615
-8.42803
6.84843
52.1167
0.165687
1.12468
2.52774
3.44455
7.70556
-6.64694
-3.43636
-2.25151
-1.01498
0.0666345
0.854739
1.2231
1.09448
1.81111
0.770707
0.995464
1.15277
1.27912
18.0219
29.8798
17.0243
-17.6029
-23.9797
-29.7499
12.349
15.4394
17.5837
-11.1127
-25.0038
-17.3882
-2.30882
-4.27329
-1.62621
-1.39844
-1.41714
-0.97902
-0.915432
-0.976485
-0.520892
-0.353453
-0.451767
0.054091
0.22436
0.14116
0.583429
0.702902
0.6617
1.0345
1.00977
1.07797
1.87911
4.12422
2.04907
-1.02608
-0.947772
1.46439
1.60991
-4.6257
-5.10044
4.41015
4.49656
4.79261
-1.00989
-1.55528
1.76373
1.44635
-1.64533
1.51829
-2.35119
-1.8692
1.64594
2.09099
-3.66397
-7.62542
-3.79555
3.71145
3.97005
6.23247
5.12046
-6.0056
3.59296
-4.02639
0.241341
-0.0939554
4.82608
-5.06052
3.05974
-2.0219
4.48261
2.39183
1.24051
0.271716
-0.823276
-1.97525
-3.36407
-4.57275
-14.34
20.8154
-22.8946
23.2756
2.31169
2.98017
0.486021
-5.43238
6.51317
0.293262
24.246
-30.0411
-1.40876
-3.03253
-3.95812
-3.20008
2.63132
-3.56345
10.8324
-5.75839
-2.49274
3.26454
2.76989
-2.3362
-3.15624
5.01366
5.159
-5.4516
-4.98589
4.43393
3.31312
1.56384
0.0104018
-2.273
-4.01292
-4.50989
12.2273
2.1499
-4.16448
-2.78871
-12.0438
8.18681
5.12704
4.90328
2.93166
-3.12669
-3.7729
-5.61682
11.8159
-10.7702
4.45271
5.88779
6.59967
-5.85964
-5.24045
-4.53881
6.05785
-6.0601
2.29885
-0.621501
8.47867
-11.8769
7.5786
-7.52709
6.99318
-6.51088
9.12677
-8.23273
-6.62965
-32.5195
-3.16482
-36.2578
-25.6329
-3.85107
-19.0558
2.8413
25.3037
47.6945
4.29605
28.9076
26.1142
-27.9556
-42.0816
-42.9635
-44.2255
-22.4929
-28.6392
-32.9767
-25.2082
-24.4784
-23.1147
-26.802
-20.2045
-34.6082
-43.3318
-14.7191
-20.4979
25.622
43.754
40.0812
33.1516
22.646
28.81
26.7068
22.1749
25.3321
23.3301
20.5018
26.9714
14.9343
34.8706
43.5668
20.8188
22.5384
1.94598
7.7027
2.53024
68.5532
18.8188
79.2555
34.4099
14.1686
-26.5748
-10.4349
-2.1957
-81.3207
-67.1123
-31.1074
-3.32051
-18.1171
-40.7648
23.2248
23.5857
4.04255
13.9523
-3.74752
17.6713
12.5669
-21.8804
-12.0267
-30.0053
3.38001
4.70755
-4.35843
-18.3227
0.0585777
1.3625
-15.9342
-18.9562
-8.20739
1.69149
12.1272
-7.21671
18.6107
11.0471
32.3759
46.594
46.6465
31.151
34.0552
25.5624
26.0063
3.2378
2.67513
8.19322
-0.19348
14.7472
2.13748
-1.74072
-6.47826
-11.2691
-4.34108
-19.7329
-6.65276
-28.5267
-44.9523
-47.3663
-29.5509
-33.1066
-24.9951
-23.9135
16.062
18.5403
13.8468
14.4952
-12.3701
-19.9859
-9.12308
-13.0076
13.2841
15.3592
14.2274
13.7374
13.0614
12.5738
14.5177
9.38943
10.9431
12.9776
11.2502
-12.4016
-10.6418
-10.98
-9.88986
-7.30782
-12.1449
7.34199
8.32787
8.52968
6.2437
6.12593
5.39455
4.57778
3.46814
-2.94015
-1.56462
-1.33503
-0.195524
1.60462
-1.65488
-6.86557
-8.04951
-6.20999
-9.33469
-4.72999
-4.13703
-5.48089
-3.94054
-3.02453
-4.24604
-2.16049
-4.30735
-4.89499
19.2241
16.8002
20.634
18.8277
25.0148
28.8816
23.2249
12.4488
17.2293
11.7863
60.5987
68.4053
-11.5769
-16.9491
-12.1613
-18.5869
-58.3799
-66.347
-22.954
-20.199
-16.4045
-19.378
22.6954
3.45692
8.87244
6.2605
10.3246
1.12768
18.8742
10.9798
6.36876
16.6668
16.2103
13.9163
13.8268
22.5138
22.0028
15.2324
25.163
-23.4752
-13.9902
-21.5863
-10.6056
-24.4197
-15.1816
-14.5595
-17.5315
-10.2717
-23.6053
-14.7617
-13.1998
-8.34722
-5.97377
-5.19937
-6.25536
-2.86401
-3.17411
-10.6392
-14.8195
-10.9188
-13.2935
-15.622
-16.9911
-15.9827
-16.8376
-13.8822
-14.7327
-13.4449
1.04138
3.082
1.99049
5.18861
-0.969236
0.341726
3.34775
-0.579339
16.9366
21.3392
10.8532
24.9631
19.9723
8.9327
5.44257
6.84187
19.16
34.8848
30.0472
36.0213
22.9641
28.3961
37.3941
23.9497
-50.9194
-75.0199
-57.3904
-33.7313
-56.8759
-122.71
81.448
31.6891
56.0073
54.4123
23.3879
115.716
24.6696
5.09647
5.66879
3.85922
-44.2943
-30.2264
-1.23128
17.513
10.0859
-8.58371
-10.5151
-0.741038
-16.5692
-9.58741
4.77882
10.008
-8.09641
-22.0121
20.1432
14.9157
17.5397
13.8064
12.197
11.0476
18.5587
18.5837
20.1051
-2.76535
12.8786
9.06035
12.9402
-0.238222
-17.3236
-8.13387
-19.6409
-8.60369
-17.5885
39.7077
8.37198
4.26585
-11.151
-10.9765
21.9762
-11.6995
-11.3187
-19.4642
-5.6168
-11.263
-20.0288
-22.4248
-10.843
-1.19826
7.95737
-17.3443
-15.6813
-13.1847
0.729436
1.74322
-1.39956
-2.06399
-6.86926
1.13754
10.3405
-5.54324
2.24051
5.3046
3.36473
6.98771
7.08735
6.42436
16.268
13.9307
16.2255
15.3067
13.0974
17.6139
-3.98298
-1.5445
4.91865
-6.24012
0.188691
12.3723
-14.1624
-16.4224
-11.375
-14.5106
-8.52942
-20.2095
-18.7965
-18.1882
-11.4615
-14.8496
-16.8227
-17.8968
-7.49895
-13.5232
-14.0107
-11.276
9.45533
7.14191
10.9664
3.47547
5.18553
10.2945
9.12095
-22.7189
-21.2927
-19.0947
-13.6007
-10.3586
-16.0354
-27.584
-17.1882
-14.3147
-30.017
-3.33218
-31.3763
-20.5977
-5.44625
-33.7785
-31.1494
-42.4737
-5.66108
-7.19107
-14.1074
-8.80144
-6.34512
-19.6278
-79.6553
-5.39664
-12.9565
41.5945
51.9342
37.9634
7.16957
8.5231
14.0916
7.05908
7.2004
5.77864
18.4353
74.6558
16.7215
1.45504
0.297186
0.53875
0.207405
-0.134711
-0.0215958
0.686297
2.45784
1.9998
1.1636
0.346188
0.179931
0.305929
0.00106099
-0.180612
2.09743
0.407977
0.0516194
0.222375
0.0323435
-0.191321
-0.0958956
0.292499
0.773298
0.261167
-0.413059
-0.315881
-0.0420937
-0.427876
0.733466
0.692418
-0.38804
-2.69301
-1.17471
-0.932331
-1.39354
0.558303
0.452601
-0.738169
-3.80037
-4.38598
-5.00287
-3.02964
-1.7081
-3.59792
0.258832
0.116336
-6.00128
5.53042
1.63397
3.4689
1.33497
-0.731789
-0.869055
4.19586
7.20139
5.08808
2.8552
1.051
1.18083
0.849082
-0.858616
-0.505621
4.43792
0.566769
0.0866784
0.339834
0.0480751
-0.318215
0.0324975
0.455965
0.808263
0.260745
-0.85664
-0.213758
-0.0965142
-0.330498
0.601253
0.603571
-0.0189599
-0.990035
-1.31506
-1.52666
-0.504756
-0.439705
-0.622413
0.595908
0.547693
-0.361969
-2.20433
-2.40181
0.612521
-0.423874
-0.496052
-0.622417
-2.69899
0.427061
23.8643
11.8667
14.4877
-8.08502
-10.335
-8.81841
-11.7861
-7.38291
-19.0313
-21.7655
-24.0655
9.87822
9.92766
12.5694
16.2083
9.3188
-0.312681
-12.7181
-1.04996
8.54754
3.41441
2.85736
2.01455
3.21667
1.61157
1.02501
1.77645
2.6862
1.45418
-2.43436
-1.5385
-1.69115
-0.80396
-3.7977
1.77803
1.74197
2.63441
4.19588
1.2163
-1.9877
-1.241
-1.77489
-1.89769
-2.7273
-2.34939
-1.58595
-2.40628
-3.03597
-3.49163
18.4296
17.3503
-4.41644
-7.43986
-6.47053
-9.21141
-4.80646
-1.0283
-0.90305
-20.3103
-17.8438
3.69534
4.20033
4.47985
4.78099
3.4189
2.53611
3.15516
1.60144
3.46775
4.375
3.82297
-1.55258
-3.14505
-1.06728
0.395774
1.17882
0.625358
1.14098
2.158
-0.017169
4.34505
-0.52459
-1.59775
-2.1632
-1.59981
-1.3006
-1.88466
-1.20146
-0.388869
-0.664355
-2.73985
-3.0809
-3.70986
-3.74651
-4.16549
-5.05186
-4.46356
0.0372315
1.43765
4.63722
4.16015
4.8457
5.27502
5.17769
1.95214
1.76176
3.21214
4.40886
3.05902
-2.53465
-1.17421
-1.84365
-3.04146
-3.58015
4.14115
7.06097
8.54465
7.1487
-8.39696
-5.05477
-6.4414
-4.88737
-2.68044
-3.30896
-9.38137
5.6524
5.82804
6.27422
6.93161
6.05691
4.86271
4.95358
5.50048
7.29375
-5.36239
-4.38348
-4.34101
-4.61244
-4.1133
-6.41193
-6.46297
-4.44433
-5.32261
-5.93091
-5.37621
-5.99013
-7.31751
6.37306
6.86882
-3.06511
-3.08862
-2.4896
-3.43854
-3.80918
-4.80603
-4.06338
-4.46563
-0.597898
-0.158605
-0.310813
-0.0644506
-0.871724
-0.0537127
-0.0617734
-0.515996
0.345268
0.15988
5.31396
8.41841
9.41061
5.60658
0.381033
-0.463174
3.26345
0.770723
0
0
0
0
0
0
0
0
0
0
0
0
0
0
0
0
0
0
0
0
0
0
0
0
0
0
0
0
0
0
0
0
0
0
0
0
0
0
0
0
0
0
0
0
0
0
0
0
0
0
0
0
0
0
0
0
0
0
0
0
0
0
0
0
0
0
0
0
0
0
0
0
0
0
0
0
0
0
0
0
0
0
0
0
0
0
0
0
0
0
0
0
0
0
0
0
0
0
0
0
0
0
0
0
0
0
0
0
0
0
0
0
0
0
0
0
0
0
0
0
0
0
0
0
0
0
0
0
0
0
0
0
0
0
0
0
0
0
0
0
0
0
0
0
0
0
0
0
0
0
0
0
0
0
0
0
0
0
0
0
0
0
0
0
0
0
0
0
0
0
0
0
0
0
0
0
0
0
0
0
0
0
0
0
0
0
0
0
0
0
0
0
0
0
0
0
0
0
0
0
0
0
0
0
0
0
0
0
0
0
0
0
0
0
0
0
0
0
0
0
0
0
0
0
0
0
0
0
0
0
0
0
0
0
0
0
0
0
0
0
0
0
0
0
0
0
0
0
0
0
0
0
0
0
0
0
0
0
0
0
0
0
0
0
0
0
0
0
0
0
0
0
0
0
0
0
0
0
0
0
0
0
0
0
0
0
0
0
0
0
0
0
0
0
0
0
0
0
0
0
0
0
0
0
0
0
0
0
0
0
0
0
0
0
0
0
0
0
0
0
0
0
0
0
0
0
0
0
0
0
0
0
0
0
0
0
0
0
0
0
0
0
0
0
0
0
0
0
0
0
0
0
0
0
0
0
0
0
0
0
0
0
0
0
0
0
0
0
0
0
0
0
0
0
0
0
0
0
0
0
0
0
0
0
0
0
0
0
0
0
0
0
0
0
0
0
0
0
0
0
0
0
0
0
0
0
0
0
0
0
0
0
0
0
0
0
0
0
0
0
0
0
0
0
0
0
0
0
0
0
0
0
0
0
0
0
0
0
0
0
0
0
0
0
0
0
0
0
0
0
0
0
0
0
0
0
0
0
0
0
0
0
0
0
0
0
0
0
0
0
0
0
0
0
0
0
0
0
0
0
0
0
0
0
0
0
0
0
0
0
0
0
0
0
0
0
0
0
0
0
0
0
0
0
0
0
0
0
0
0
0
0
0
0
0
0
0
0
0
0
0
0
0
0
0
0
0
0
0
0
0
0
0
0
0
0
0
0
0
0
0
0
0
0
0
0
0
0
0
0
0
0
0
0
0
0
0
0
0
0
0
0
0
0
0
0
0
0
0
0
0
0
0
0
0
0
0
0
0
0
0
0
0
0
0
0
0
0
0
0
0
0
0
0
0
0
0
0
0
0
0
0
0
0
0
0
0
0
0
0
0
0
0
0
0
0
0
0
0
0
0
0
0
0
0
0
0
0
0
0
0
0
0
0
0
0
0
0
0
0
0
0
0
0
0
0
0
0
0
0
0
0
0
0
0
0
0
0
0
0
0
0
0
0
0
0
0
0
0
0
0
0
0
0
0
0
0
0
0
0
0
0
0
0
0
0
0
0
0
0
0
0
0
0
0
0
0
0
0
0
0
0
0
0
0
0
0
0
0
0
0
0
0
0
0
0
0
0
0
0
0
0
0
0
0
0
0
0
0
0
0
0
0
0
0
0
0
0
0
0
0
0
0
0
0
0
0
0
0
0
0
0
0
0
0
0
0
0
0
0
0
0
0
0
0
0
0
0
0
0
0
0
0
0
0
0
0
0
0
0
0
0
0
0
0
0
0
0
0
0
0
0
0
0
0
0
0
0
0
0
0
0
0
0
0
0
0
0
0
0
0
0
0
0
0
0
0
0
0
0
0
0
0
0
0
0
0
0
0
0
0
0
0
0
0
0
0
0
0
0
0
0
0
0
0
0
0
0
0
0
0
0
0
0
0
0
0
0
0
0
0
0
0
0
0
0
0
0
0
0
0
0
0
0
0
0
0
0
0
0
0
0
0
0
0
0
0
0
0
0
0
0
0
0
0
0
0
0
0
0
0
0
0
0
0
0
0
0
0
0
0
0
0
0
0
0
0
0
0
0
0
0
0
0
0
0
0
0
0
0
0
0
0
0
0
0
0
0
0
0
0
0
0
0
0
0
0
0
0
0
0
0
0
0
0
0
0
0
0
0
0
0
0
0
0
0
0
0
0
0
0
0
0
0
0
0
0
0
0
0
0
0
0
0
0
0
0
0
0
0
0
0
0
0
0
0
0
0
0
0
0
0
0
0
0
0
0
0
0
0
0
0
0
0
0
0
0
0
0
0
0
0
0
0
0
0
0
0
0
0
0
0
0
0
0
0
0
0
0
0
0
0
0
0
0
0
0
0
0
0
0
0
0
0
0
0
0
0
0
0
0
0
0
0
0
0
0
0
0
0
0
0
0
0
0
0
0
0
0
0
0
0
0
0
0
0
0
0
0
0
0
0
0
0
0
0
0
0
0
0
0
0
0
0
0
0
0
0
0
0
0
0
0
0
0
0
0
0
0
0
0
0
0
0
0
0
0
0
0
0
0
0
0
0
0
0
0
0
0
0
0
0
0
0
0
0
0
0
0
0
0
0
0
0
0
0
0
0
0
0
0
0
0
0
0
0
0
0
0
0
0
0
0
0
0
0
0
0
0
0
0
0
0
0
0
0
0
0
0
0
0
0
0
0
0
0
0
0
0
0
0
0
0
0
0
0
0
0
0
0
0
0
0
0
0
0
0
0
0
0
0
0
0
0
0
0
0
0
0
0
0
0
0
0
0
0
0
0
0
0
0
0
0
0
0
0
0
0
0
0
0
0
0
0
0
0
0
0
0
0
0
0
0
0
0
0
0
0
0
0
0
0
0
0
0
0
0
0
0
0
0
0
0
0
0
0
0
0
0
0
0
0
0
0
0
0
0
0
0
0
0
0
0
0
0
0
0
0
0
0
0
0
0
0
0
0
0
0
0
0
0
0
0
0
0
0
0
0
0
0
0
0
0
0
0
0
0
0
0
0
0
0
0
0
0
0
0
0
0
0
0
0
0
0
0
0
0
0
0
0
0
0
0
0
0
0
0
0
0
0
0
0
0
0
0
0
0
0
0
0
0
0
0
0
0
0
0
0
0
0
0
0
0
0
0
0
0
0
0
0
0
0
0
0
0
0
0
0
0
0
0
0
0
0
0
0
0
0
0
0
0
0
0
0
0
0
0
0
0
0
0
0
0
0
0
0
0
0
0
0
0
0
0
0
0
0
0
0
0
0
0
0
0
0
0
0
0
0
0
0
0
0
0
0
0
0
0
0
0
0
0
0
0
0
0
0
0
0
0
0
0
0
0
0
0
0
0
0
0
0
0
0
0
0
0
0
0
0
0
0
0
0
0
0
0
0
0
0
0
0
0
0
0
0
0
0
0
0
0
0
0
0
0
0
0
0
0
0
0
0
0
0
0
0
0
0
0
0
0
0
0
0
0
0
0
0
0
0
0
0
0
0
0
0
0
0
0
0
0
0
0
0
0
0
0
0
0
0
0
0
0
0
0
0
0
0
0
0
0
0
0
0
0
0
0
0
0
0
0
0
0
0
0
0
0
0
0
0
0
0
0
0
0
0
0
0
0
0
0
0
0
0
0
0
0
0
0
0
0
0
0
0
0
0
0
0
0
0
0
0
0
0
0
0
0
0
0
0
0
0
0
0
0
0
0
0
0
0
0
0
0
0
0
0
0
0
0
0
0
0
0
0
0
0
0
0
0
0
0
0
0
0
0
0
0
0
0
0
0
0
0
0
0
0
0
0
0
0
0
0
0
0
0
0
0
0
0
0
0
0
0
0
0
0
0
0
0
0
0
0
0
0
0
0
0
0
0
0
0
0
0
0
0
0
0
0
0
0
0
0
0
0
0
0
0
0
0
0
0
0
0
0
0
0
0
0
0
0
0
0
0
0
0
0
0
0
0
0
0
0
0
0
0
0
0
0
0
0
0
0
0
0
0
0
0
0
0
0
0
0
0
0
0
0
0
0
0
0
0
0
0
0
0
0
0
0
0
0
0
0
0
0
0
0
0
0
0
0
0
0
0
0
0
0
0
0
0
0
0
0
0
0
0
0
0
0
0
0
0
0
0
0
0
0
0
0
0
0
0
0
0
0
0
0
0
0
0
0
0
0
0
0
0
0
0
0
0
0
0
0
0
0
0
0
0
0
0
0
0
0
0
0
0
0
0
0
0
0
0
0
0
0
0
0
0
0
0
0
0
0
0
0
0
0
0
0
0
0
0
0
0
0
0
0
0
0
0
0
0
0
0
0
0
0
0
0
0
0
0
0
0
0
0
0
0
0
0
0
0
0
0
0
0
0
0
0
0
0
0
0
0
0
0
0
0
0
0
0
0
0
0
0
0
0
0
0
0
0
0
0
0
0
0
0
0
0
0
0
0
0
0
0
0
0
0
0
0
0
0
0
0
0
0
0
0
0
0
0
0
0
0
0
0
0
0
0
0
0
0
0
0
0
0
0
0
0
0
0
0
0
0
0
0
0
0
0
0
0
0
0
0
0
0
0
0
0
0
0
0
0
0
0
0
0
0
0
0
0
0
0
0
0
0
0
0
0
0
0
0
0
0
0
0
0
0
0
0
0
0
0
0
0
0
0
0
0
0
0
0
0
0
0
0
0
0
0
0
0
0
0
0
0
0
0
0
0
0
0
0
0
0
0
0
0
0
0
0
0
0
0
0
0
0
0
0
0
0
0
0
0
0
0
0
0
0
0
0
0
0
0
0
0
0
0
0
0
0
0
0
0
0
0
0
0
0
0
0
0
0
0
0
0
0
0
0
0
0
0
0
0
0
0
0
0
0
0
0
0
0
0
0
0
0
0
0
0
0
0
0
0
0
0
0
0
0
0
0
0
0
0
0
0
0
0
0
0
0
0
0
0
0
0
0
0
0
0
0
0
0
0
0
0
0
0
0
0
0
0
0
0
0
0
0
0
0
0
0
0
0
0
0
0
0
0
0
0
0
0
0
0
0
0
0
0
0
0
0
0
0
0
0
0
0
0
0
0
0
0
0
0
0
0
0
0
0
0
0
0
0
0
0
0
0
0
0
0
0
0
0
0
0
0
0
0
0
0
0
0
0
0
0
0
0
0
0
0
0
0
      </DataArray> 
      <DataArray type="Float64" NumberOfComponents="1" Name="NormalFibers" format="ascii">
0
0
0
0
0
0
0
0
0
0
0
0
0
0
0
0
0
0
0
0
0
0
0
0
0
0
0
0
0
0
0
0
0
0
0
0
0
0
0
0
0
0
0
0
0
0
0
0
0
0
0
0
0
0
0
0
0
0
0
0
0
0
0
0
0
0
0
0
0
0
0
0
0
0
0
0
0
0
0
0
0
0
0
0
0
0
0
0
0
0
0
0
0
0
0
0
0
0
0
0
0
0
0
0
0
0
0
0
0
0
0
0
0
0
0
0
0
0
0
0
0
0
0
0
0
0
0
0
0
0
0
0
0
0
0
0
0
0
0
0
0
0
0
0
0
0
0
0
0
0
0
0
0
0
0
0
0
0
0
0
0
0
0
0
0
0
0
0
0
0
0
0
0
0
0
0
0
0
0
0
0
0
0
0
0
0
0
0
0
0
0
0
0
0
0
0
0
0
0
0
0
0
0
0
0
0
0
0
0
0
0
0
0
0
0
0
0
0
0
0
0
0
0
0
0
0
0
0
0
0
0
0
0
0
0
0
0
0
0
0
0
0
0
0
0
0
0
0
0
0
0
0
0
0
0
0
0
0
0
0
0
0
0
0
0
0
0
0
0
0
0
0
0
0
0
0
0
0
0
0
0
0
0
0
0
0
0
0
0
0
0
0
0
0
0
0
0
0
0
0
0
0
0
0
0
0
0
0
0
0
0
0
0
0
0
0
0
0
0
0
0
0
0
0
0
0
0
0
0
0
0
0
0
0
0
0
0
0
0
0
0
0
0
0
0
0
0
0
0
0
0
0
0
0
0
0
0
0
0
0
0
0
0
0
0
0
0
0
0
0
0
0
0
0
0
0
0
0
0
0
0
0
0
0
0
0
0
0
0
0
0
0
0
0
0
0
0
0
0
0
0
0
0
0
0
0
0
0
0
0
0
0
0
0
0
0
0
0
0
0
0
0
0
0
0
0
0
0
0
0
0
0
0
0
0
0
0
0
0
0
0
0
0
0
0
0
0
0
0
0
0
0
0
0
0
0
0
0
0
0
0
0
0
0
0
0
0
0
0
0
0
0
0
0
0
0
0
0
0
0
0
0
0
0
0
0
0
0
0
0
0
0
0
0
0
0
0
0
0
0
0
0
0
0
0
0
0
0
0
0
0
0
0
0
0
0
0
0
0
0
0
0
0
0
0
0
0
0
0
0
0
0
0
0
0
0
0
0
0
0
0
0
0
0
0
0
0
0
0
0
0
0
0
0
0
0
0
0
0
0
0
0
0
0
0
0
0
0
0
0
0
0
0
0
0
0
0
0
0
0
0
0
0
0
0
0
0
0
0
0
0
0
0
0
0
0
0
0
0
0
0
0
0
0
0
0
0
0
0
0
0
0
0
0
0
0
0
0
0
0
0
0
0
0
0
0
0
0
0
0
0
0
0
0
0
0
0
0
0
0
0
0
0
0
0
0
0
0
0
0
0
0
0
0
0
0
0
0
0
0
0
0
0
0
0
0
0
0
0
0
0
0
0
0
0
0
0
0
0
0
0
0
0
0
0
0
0
0
0
0
0
0
0
0
0
0
0
0
0
0
0
0
0
0
0
0
0
0
0
0
0
0
0
0
0
0
0
0
0
0
0
0
0
0
0
0
0
0
0
0
0
0
0
0
0
0
0
0
0
0
0
0
0
0
0
0
0
0
0
0
0
0
0
0
0
0
0
0
0
0
0
0
0
0
0
0
0
0
0
0
0
0
0
0
0
0
0
0
0
0
0
0
0
0
0
0
0
0
0
0
0
0
0
0
0
0
0
0
0
0
0
0
0
0
0
0
0
0
0
0
0
0
0
0
0
0
0
0
0
0
0
0
0
0
0
0
0
0
0
0
0
0
0
0
0
0
0
0
0
0
0
0
0
0
0
0
0
0
0
0
0
0
0
0
0
0
0
0
0
0
0
0
0
0
0
0
0
0
0
0
0
0
0
0
0
0
0
0
0
0
0
0
0
0
0
0
0
0
0
0
0
0
0
0
0
0
0
0
0
0
0
0
0
0
0
0
0
0
0
0
0
0
0
0
0
0
0
0
0
0
0
0
0
0
0
0
0
0
0
0
0
0
0
0
0
0
0
0
0
0
0
0
0
0
0
0
0
0
0
0
0
0
0
0
0
0
0
0
0
0
0
0
0
0
0
0
0
0
0
0
0
0
0
0
0
0
0
0
0
0
0
0
0
0
0
0
0
0
0
0
0
0
0
0
0
0
0
0
0
0
0
0
0
0
0
0
0
0
0
0
0
0
0
0
0
0
0
0
0
0
0
0
0
0
0
0
0
0
0
0
0
0
0
0
0
0
0
0
0
0
0
0
0
0
0
0
0
0
0
0
0
0
0
0
0
0
0
0
0
0
0
0
0
0
0
0
0
0
0
0
0
0
0
0
0
0
0
0
0
0
0
0
0
0
0
0
0
0
0
0
0
0
0
0
0
0
0
0
0
0
0
0
0
0
0
0
0
0
0
0
0
0
0
0
0
0
0
0
0
0
0
0
0
0
0
0
0
0
0
0
0
0
0
0
0
0
0
0
0
0
0
0
0
0
0
0
0
0
0
0
0
0
0
0
0
0
0
0
0
0
0
0
0
0
0
0
0
0
0
0
0
0
0
0
0
0
0
0
0
0
0
0
0
0
0
0
0
0
0
0
0
0
0
0
0
0
0
0
0
0.00794483
0.00794483
0.0432465
0.0432465
-0.138534
-0.138534
-0.0697348
-0.0697348
-0.00366966
-0.00366966
-0.0655785
-0.0655785
0.00399147
0.00399147
0.0307729
0.0307729
-0.172479
-0.172479
-0.0216046
-0.0216046
-0.0557002
-0.0557002
-0.0848968
-0.0848968
-0.148002
-0.148002
0.0380436
0.0380436
-0.0699572
-0.0699572
0.0987469
0.0987469
-0.0587928
-0.0587928
-0.0043935
-0.0043935
0.0575777
0.0575777
-0.0359898
-0.0359898
-0.0206985
-0.0206985
-0.0868998
-0.0868998
-0.339917
-0.339917
-0.0336699
-0.0336699
-0.0434311
-0.0434311
-0.0303492
-0.0303492
-0.0204756
-0.0204756
-0.00541053
-0.00541053
-0.169317
-0.169317
0.0145328
0.0145328
0.0135289
0.0135289
0.0161099
0.0161099
-0.228551
-0.228551
-0.0363796
-0.0363796
-0.255355
-0.255355
-0.0135436
-0.0135436
-0.0532575
-0.0532575
-0.0196864
-0.0196864
0.0118984
0.0118984
-0.0667215
-0.0667215
-0.0504994
-0.0504994
0.082953
0.082953
-0.0770563
-0.0770563
-0.0697331
-0.0697331
-0.244124
-0.244124
-0.066773
-0.066773
-0.0407186
-0.0407186
-0.0432817
-0.0432817
-0.0272012
-0.0272012
-0.0272537
-0.0272537
0.121557
0.121557
-0.0393033
-0.0393033
0.0224533
0.0224533
-0.200948
-0.200948
-0.0063377
-0.0063377
-0.0204843
-0.0204843
-0.100641
-0.100641
-0.126132
-0.126132
-0.00857668
-0.00857668
-0.0260762
-0.0260762
-0.0975478
-0.0975478
0.0716185
0.0716185
0.000947739
0.000947739
-0.0963296
-0.0963296
-0.0714206
-0.0714206
-0.0709249
-0.0709249
-0.0723775
-0.0723775
0.0677748
0.0677748
0.0944826
0.0944826
-0.157535
-0.157535
-0.107819
-0.107819
-0.0351959
-0.0351959
-0.260962
-0.260962
0.0634779
0.0634779
-0.131776
-0.131776
-0.000398532
-0.000398532
-0.0394572
-0.0394572
-0.00483974
-0.00483974
-0.0990757
-0.0990757
-0.0739697
-0.0739697
-0.169457
-0.169457
0.0160251
0.0160251
-0.0900523
-0.0900523
-0.238937
-0.238937
-0.149833
-0.149833
-0.120702
-0.120702
-0.0336943
-0.0336943
-0.0111934
-0.0111934
0.0346464
0.0346464
-0.00739481
-0.00739481
-0.034014
-0.034014
-0.00135989
-0.00135989
0.0622779
0.0622779
-0.127182
-0.127182
-0.201283
-0.201283
-0.0147198
-0.0147198
0.00934734
0.00934734
-0.0514054
-0.0514054
-0.315012
-0.315012
-0.0685602
-0.0685602
-0.00176546
-0.00176546
-0.086675
-0.086675
-0.0353369
-0.0353369
-0.0694038
-0.0694038
-0.0128945
-0.0128945
0.0123624
0.0123624
-0.236357
-0.236357
-0.058115
-0.058115
-0.04021
-0.04021
-0.0465172
-0.0465172
-0.14701
-0.14701
0.116463
0.116463
0.0761423
0.0761423
0.0173926
0.0173926
0.0581198
0.0581198
-0.014077
-0.014077
-0.00661563
-0.00661563
-0.102396
-0.102396
-0.162052
-0.162052
0.0168742
0.0168742
-0.00757592
-0.00757592
-0.0307979
-0.0307979
0.017847
0.017847
-0.0529729
-0.0529729
-0.0824346
-0.0824346
-0.189603
-0.189603
-0.00712098
-0.00712098
-0.00801641
-0.00801641
0.00491608
0.00491608
-0.244058
-0.244058
-0.125006
-0.125006
0.0416809
0.0416809
0.00623082
0.00623082
-0.0336861
-0.0336861
0.0707507
0.0707507
-0.0431042
-0.0431042
-0.00886281
-0.00886281
-0.0930614
-0.0930614
-0.106682
-0.106682
-0.0375109
-0.0375109
-0.0115036
-0.0115036
-0.0531097
-0.0531097
-0.00973629
-0.00973629
-0.0253407
-0.0253407
-0.0183706
-0.0183706
-0.0123462
-0.0123462
-0.0349761
-0.0349761
0.0201299
0.0201299
-0.0316985
-0.0316985
-0.104627
-0.104627
-0.0199163
-0.0199163
-0.0126504
-0.0126504
0.028839
0.028839
-0.201241
-0.201241
-0.173549
-0.173549
-0.478324
-0.478324
-0.235885
-0.235885
-0.17949
-0.17949
0.00307797
0.00307797
-0.0312496
-0.0312496
-0.0915515
-0.0915515
0.0645299
0.0645299
-0.0439911
-0.0439911
0.0458545
0.0458545
-0.00905022
-0.00905022
-0.0594639
-0.0594639
-0.0979462
-0.0979462
0.0339857
0.0339857
-0.0796213
-0.0796213
-0.0478036
-0.0478036
-0.0360989
-0.0360989
-0.114347
-0.114347
-0.10968
-0.10968
-0.0145556
-0.0145556
0.00698301
0.00698301
-0.0676816
-0.0676816
-0.0178509
-0.0178509
-0.091727
-0.091727
-0.0825103
-0.0825103
-0.111806
-0.111806
-0.0144898
-0.0144898
-0.0205063
-0.0205063
-0.00182226
-0.00182226
-0.213264
-0.213264
-0.120254
-0.120254
-0.242762
-0.242762
-0.01066
-0.01066
-0.0126066
-0.0126066
0.0438891
0.0438891
0.0208035
0.0208035
0.0489609
0.0489609
0.0860383
0.0860383
-0.0746473
-0.0746473
-0.0824884
-0.0824884
0.00445387
0.00445387
-0.0256375
-0.0256375
-0.00106938
-0.00106938
-0.0201139
-0.0201139
-0.0525114
-0.0525114
0.0247126
0.0247126
-0.0309683
-0.0309683
-0.162516
-0.162516
-0.0132976
-0.0132976
0.0559875
0.0559875
-0.025061
-0.025061
-0.325145
-0.325145
0.0550827
0.0550827
0.0144116
0.0144116
-0.0238321
-0.0238321
-0.123015
-0.123015
-0.00430912
-0.00430912
-0.0218916
-0.0218916
-0.13864
-0.13864
-0.0647664
-0.0647664
0.0545422
0.0545422
-0.031686
-0.031686
-0.0624563
-0.0624563
-0.155663
-0.155663
0.0917029
0.0917029
0.0910527
0.0910527
-0.00306095
-0.00306095
-0.190127
-0.190127
0.0211641
0.0211641
-0.048061
-0.048061
-0.0741558
-0.0741558
-0.0142505
-0.0142505
0.000544947
0.000544947
-0.0201013
-0.0201013
-0.149741
-0.149741
-0.046611
-0.046611
-0.0134384
-0.0134384
-0.0130296
-0.0130296
-0.0490968
-0.0490968
-0.193911
-0.193911
0.00568495
0.00568495
-0.0408702
-0.0408702
-0.0591348
-0.0591348
-0.245331
-0.245331
-0.172395
-0.172395
-0.149791
-0.149791
-0.0443365
-0.0443365
-0.010021
-0.010021
-0.00867309
-0.00867309
0.0994264
0.0994264
-0.00426371
-0.00426371
-0.0199143
-0.0199143
-0.0119306
-0.0119306
0.0895821
0.0895821
-0.175295
-0.175295
-0.0761222
-0.0761222
-0.0128601
-0.0128601
-0.233747
-0.233747
-0.237642
-0.237642
-0.00873072
-0.00873072
-0.264131
-0.264131
-0.00249238
-0.00249238
-0.153756
-0.153756
0.0468166
0.0468166
-0.0231632
-0.0231632
-0.00114968
-0.00114968
-0.0393058
-0.0393058
-0.356413
-0.356413
-0.0458454
-0.0458454
-0.020265
-0.020265
-0.0456055
-0.0456055
-0.159425
-0.159425
-0.0740175
-0.0740175
-0.0733794
-0.0733794
0.10852
0.10852
-0.014356
-0.014356
-0.180081
-0.180081
-0.0209774
-0.0209774
-0.0093005
-0.0093005
-0.235106
-0.235106
-0.0325373
-0.0325373
-0.189492
-0.189492
-0.0227844
-0.0227844
-0.00526709
-0.00526709
-0.0942055
-0.0942055
0.0353079
0.0353079
0.00242891
0.00242891
-0.0559788
-0.0559788
-0.0700463
-0.0700463
-0.0503196
-0.0503196
-0.0905071
-0.0905071
-0.216322
-0.216322
0.069527
0.069527
-0.190351
-0.190351
0.01018
0.01018
-0.223452
-0.223452
-0.0654772
-0.0654772
-0.090185
-0.090185
-0.0116774
-0.0116774
0.0392742
0.0392742
-0.256502
-0.256502
0.0517135
0.0517135
0.0196437
0.0196437
0.101061
0.101061
-0.21616
-0.21616
-0.0640842
-0.0640842
-0.0039057
-0.0039057
-0.114168
-0.114168
-0.160251
-0.160251
-0.0435163
-0.0435163
-0.196937
-0.196937
-0.0775685
-0.0775685
-0.0225974
-0.0225974
-0.0372299
-0.0372299
0.0408859
0.0408859
-0.177541
-0.177541
0.0688357
0.0688357
-0.0569098
-0.0569098
0.00114552
0.00114552
-0.0709165
-0.0709165
0.010441
0.010441
0.0378131
0.0378131
-0.0652676
-0.0652676
-0.107531
-0.107531
-0.163584
-0.163584
0.0097726
0.0097726
-0.239716
-0.239716
0.0466761
0.0466761
-0.0312529
-0.0312529
-0.0953292
-0.0953292
-0.152943
-0.152943
-0.20992
-0.20992
-0.194525
-0.194525
-0.0262177
-0.0262177
-0.0929954
-0.0929954
-0.0012569
-0.0012569
-0.0144808
-0.0144808
-0.262645
-0.262645
-0.0269827
-0.0269827
0.0842229
0.0842229
0.0396081
0.0396081
-0.0310326
-0.0310326
-0.00213553
-0.00213553
0.00190672
0.00190672
-0.000169742
-0.000169742
-0.0752262
-0.0752262
-0.0719432
-0.0719432
0.0181119
0.0181119
-0.0130582
-0.0130582
-0.108486
-0.108486
0.0245084
0.0245084
-0.0586555
-0.0586555
-0.0374169
-0.0374169
-0.0446545
-0.0446545
-0.0200202
-0.0200202
-0.0186565
-0.0186565
-0.134473
-0.134473
-0.0137549
-0.0137549
0.00868763
0.00868763
-0.0073283
-0.0073283
0.0933661
0.0933661
-0.109402
-0.109402
-0.0879344
-0.0879344
-0.0783501
-0.0783501
-0.0897833
-0.0897833
-0.0321044
-0.0321044
-0.135788
-0.135788
-0.147223
-0.147223
-0.0695101
-0.0695101
-0.286176
-0.286176
0.0456031
0.0456031
-0.0200581
-0.0200581
-0.0144539
-0.0144539
0.0924569
0.0924569
0.0468875
0.0468875
-0.0131553
-0.0131553
-0.000823676
-0.000823676
-0.0254301
-0.0254301
-0.0274652
-0.0274652
-0.108501
-0.108501
-0.0720274
-0.0720274
-0.0728972
-0.0728972
-0.0655706
-0.0655706
-0.0967244
-0.0967244
-0.0226579
-0.0226579
0.0244443
0.0244443
0.0690743
0.0690743
-0.0457864
-0.0457864
-0.0694197
-0.0694197
-0.0284049
-0.0284049
-0.415015
-0.415015
0.0120306
0.0120306
0.0442935
0.0442935
-0.217637
-0.217637
0.0527153
0.0527153
-0.0338923
-0.0338923
0.0291417
0.0291417
-0.375642
-0.375642
-0.0464572
-0.0464572
0.0414837
0.0414837
-0.270912
-0.270912
-0.126622
-0.126622
-0.0696836
-0.0696836
-0.269587
-0.269587
-0.0262355
-0.0262355
-0.025348
-0.025348
-0.0886781
-0.0886781
-0.374246
-0.374246
-0.0926075
-0.0926075
-0.0115319
-0.0115319
-0.0293936
-0.0293936
0.00685905
0.00685905
-0.185898
-0.185898
-0.0983064
-0.0983064
0.0156511
0.0156511
-0.0837823
-0.0837823
-0.0327194
-0.0327194
-0.0303008
-0.0303008
-0.140988
-0.140988
-0.153183
-0.153183
-0.218527
-0.218527
-0.00330646
-0.00330646
-0.0494744
-0.0494744
-0.0852965
-0.0852965
-0.0459001
-0.0459001
-0.0537165
-0.0537165
0.00540601
0.00540601
-0.0727527
-0.0727527
0.029523
0.029523
-0.0530646
-0.0530646
-0.0413334
-0.0413334
-0.0169305
-0.0169305
0.052275
0.052275
-0.118509
-0.118509
-0.152153
-0.152153
-0.0151691
-0.0151691
-0.1727
-0.1727
-0.0407329
-0.0407329
-0.270291
-0.270291
-0.44806
-0.44806
0.0269452
0.0269452
0.0505622
0.0505622
0.0263947
0.0263947
-0.107338
-0.107338
0.00120573
0.00120573
-0.00589141
-0.00589141
-0.18392
-0.18392
-0.0121462
-0.0121462
-0.0140856
-0.0140856
0.00738318
0.00738318
-0.00891819
-0.00891819
-0.10766
-0.10766
-0.297796
-0.297796
-0.00622248
-0.00622248
-0.000587781
-0.000587781
-0.0311718
-0.0311718
-0.033697
-0.033697
-0.224
-0.224
-0.0110879
-0.0110879
-0.170582
-0.170582
0.00875285
0.00875285
-0.0795464
-0.0795464
-0.0526359
-0.0526359
0.0307453
0.0307453
-0.0456357
-0.0456357
0.0181189
0.0181189
0.0154488
0.0154488
-0.0416113
-0.0416113
-0.00841039
-0.00841039
-0.0573228
-0.0573228
-0.0626596
-0.0626596
-0.0196997
-0.0196997
0.0514755
0.0514755
-0.0465858
-0.0465858
-0.0739767
-0.0739767
0.0502718
0.0502718
-0.0106325
-0.0106325
-0.132388
-0.132388
-0.00549394
-0.00549394
-0.0855124
-0.0855124
-0.255736
-0.255736
-0.0333528
-0.0333528
-0.0637945
-0.0637945
-0.111399
-0.111399
0.0755075
0.0755075
0.0282672
0.0282672
-0.0615625
-0.0615625
0.0188849
0.0188849
-0.0080455
-0.0080455
-0.0694257
-0.0694257
-0.0586278
-0.0586278
-0.0553499
-0.0553499
-0.0136651
-0.0136651
0.000452829
0.000452829
-0.0499008
-0.0499008
-0.0522611
-0.0522611
-0.0177981
-0.0177981
-0.0350895
-0.0350895
-0.370987
-0.370987
-0.012545
-0.012545
-0.0444268
-0.0444268
-0.0568148
-0.0568148
-0.0246436
-0.0246436
0.0272875
0.0272875
-0.0323286
-0.0323286
-0.053782
-0.053782
0.0252252
0.0252252
0.00872922
0.00872922
-0.087399
-0.087399
-0.0658146
-0.0658146
-0.167305
-0.167305
-0.0264021
-0.0264021
0.00666387
0.00666387
-0.0218006
-0.0218006
-0.0175519
-0.0175519
-0.100984
-0.100984
-0.0122556
-0.0122556
-0.0353276
-0.0353276
-0.0332326
-0.0332326
-0.189719
-0.189719
-0.0211805
-0.0211805
-0.0215691
-0.0215691
-0.0504261
-0.0504261
-0.15824
-0.15824
-0.00498556
-0.00498556
-0.178462
-0.178462
-0.00549746
-0.00549746
-0.229979
-0.229979
-0.190583
-0.190583
-0.000480985
-0.000480985
0.0476739
0.0476739
0.0151647
0.0151647
-0.140273
-0.140273
-0.00426211
-0.00426211
-0.0427905
-0.0427905
-0.217429
-0.217429
0.0614121
0.0614121
-0.138586
-0.138586
-0.0491069
-0.0491069
-0.129509
-0.129509
-0.181148
-0.181148
0.0787048
0.0787048
-0.0283608
-0.0283608
-0.0721021
-0.0721021
-0.016188
-0.016188
-0.077584
-0.077584
-0.0179153
-0.0179153
-0.0239247
-0.0239247
-0.049308
-0.049308
-0.132621
-0.132621
-0.0865681
-0.0865681
0.00867011
0.00867011
-0.147631
-0.147631
-0.0628945
-0.0628945
-0.0741506
-0.0741506
-0.114005
-0.114005
-0.145048
-0.145048
-0.0904134
-0.0904134
0.0296827
0.0296827
-0.336014
-0.336014
0.0174688
0.0174688
-0.0848557
-0.0848557
-0.0383907
-0.0383907
-0.210551
-0.210551
-0.122628
-0.122628
0.0633657
0.0633657
-0.109011
-0.109011
-0.160131
-0.160131
-0.0478688
-0.0478688
-0.139007
-0.139007
-0.224473
-0.224473
0.0690144
0.0690144
-0.0512688
-0.0512688
-0.000431556
-0.000431556
-0.0174155
-0.0174155
-0.193209
-0.193209
-0.18571
-0.18571
-0.00943595
-0.00943595
-0.055406
-0.055406
0.0353439
0.0353439
-0.13432
-0.13432
-0.00949864
-0.00949864
-0.304392
-0.304392
-0.21969
-0.21969
-0.0332776
-0.0332776
-0.0341341
-0.0341341
-0.183408
-0.183408
-0.0727664
-0.0727664
0.109199
0.109199
-0.155463
-0.155463
0.101786
0.101786
-0.0419885
-0.0419885
-0.039699
-0.039699
-0.177422
-0.177422
-0.0237937
-0.0237937
-0.0063745
-0.0063745
-0.0356098
-0.0356098
-0.0513582
-0.0513582
-0.0417026
-0.0417026
-0.0420348
-0.0420348
0.00173221
0.00173221
-0.0270104
-0.0270104
-0.111699
-0.111699
-0.0363745
-0.0363745
-0.0462336
-0.0462336
-0.0319155
-0.0319155
-0.0151288
-0.0151288
-0.055388
-0.055388
0.0197154
0.0197154
-0.0374389
-0.0374389
0.00646085
0.00646085
-0.0222768
-0.0222768
-0.24421
-0.24421
-0.0449195
-0.0449195
-0.0715402
-0.0715402
0.0401265
0.0401265
-0.020277
-0.020277
0.0143825
0.0143825
-0.0400426
-0.0400426
-0.195176
-0.195176
-0.0142915
-0.0142915
-0.162883
-0.162883
-0.0355504
-0.0355504
-0.00713036
-0.00713036
-0.0425025
-0.0425025
-0.0418297
-0.0418297
-0.0400738
-0.0400738
-0.0536812
-0.0536812
-0.083935
-0.083935
0.0824567
0.0824567
0.00267074
0.00267074
-0.0068438
-0.0068438
-0.083961
-0.083961
0.0504339
0.0504339
-0.0231084
-0.0231084
-0.0129122
-0.0129122
-0.0462755
-0.0462755
-0.0392205
-0.0392205
-0.00655211
-0.00655211
-0.0289925
-0.0289925
-0.001111
-0.001111
-0.0157017
-0.0157017
-0.0567544
-0.0567544
0.0108435
0.0108435
-0.105323
-0.105323
-0.0518426
-0.0518426
0.105486
0.105486
-0.0138644
-0.0138644
0.033161
0.033161
-0.0329772
-0.0329772
-0.287913
-0.287913
-0.243441
-0.243441
-0.103694
-0.103694
0.0637807
0.0637807
-0.160949
-0.160949
-0.00385196
-0.00385196
-0.0175054
-0.0175054
-0.0193932
-0.0193932
-0.00541514
-0.00541514
-0.0432931
-0.0432931
-0.0545634
-0.0545634
-0.0163332
-0.0163332
-0.0786036
-0.0786036
-0.360179
-0.360179
-0.0272927
-0.0272927
-0.0423596
-0.0423596
-0.0281826
-0.0281826
-0.0975222
-0.0975222
0.0304898
0.0304898
-0.161067
-0.161067
-0.00778878
-0.00778878
0.0467486
0.0467486
-0.00803643
-0.00803643
-0.0196561
-0.0196561
-0.251108
-0.251108
-0.250769
-0.250769
-0.218754
-0.218754
-0.00389283
-0.00389283
0.0102773
0.0102773
-0.0478813
-0.0478813
-0.0109941
-0.0109941
-0.0166626
-0.0166626
-0.0193773
-0.0193773
-0.00923223
-0.00923223
0.0596487
0.0596487
-0.269125
-0.269125
-0.0161679
-0.0161679
-0.00177431
-0.00177431
-0.00920687
-0.00920687
-0.0231257
-0.0231257
-0.0131171
-0.0131171
0.0205355
0.0205355
-0.150597
-0.150597
-0.0318753
-0.0318753
-0.0845671
-0.0845671
-0.16328
-0.16328
-0.0554204
-0.0554204
-0.218661
-0.218661
-0.0730994
-0.0730994
-0.0695847
-0.0695847
-0.00541973
-0.00541973
-0.0258223
-0.0258223
0.0584149
0.0584149
0.0850698
0.0850698
-0.0177561
-0.0177561
-0.00934748
-0.00934748
0.018844
0.018844
-0.113334
-0.113334
-0.0106914
-0.0106914
0.0423242
0.0423242
-0.041661
-0.041661
-0.000341009
-0.000341009
-0.0159596
-0.0159596
-0.0226957
-0.0226957
-0.209221
-0.209221
0.0839909
0.0839909
-0.011133
-0.011133
-0.0773708
-0.0773708
-0.114979
-0.114979
-0.126764
-0.126764
-0.0165141
-0.0165141
-0.00994245
-0.00994245
-0.155429
-0.155429
0.0216137
0.0216137
-0.207475
-0.207475
-0.271944
-0.271944
0.0214223
0.0214223
-0.0173905
-0.0173905
-0.192742
-0.192742
-0.0368155
-0.0368155
-0.0487912
-0.0487912
-0.0806946
-0.0806946
-0.0260091
-0.0260091
0.0442623
0.0442623
-0.180881
-0.180881
-0.0702555
-0.0702555
0.0279738
0.0279738
-0.157731
-0.157731
-0.0425917
-0.0425917
-0.036369
-0.036369
-0.0159448
-0.0159448
-0.0134057
-0.0134057
-0.0509611
-0.0509611
-0.093554
-0.093554
-0.0179912
-0.0179912
0.0477793
0.0477793
-0.441716
-0.441716
0.00574046
0.00574046
-0.0224007
-0.0224007
-0.0636758
-0.0636758
0.0277476
0.0277476
-0.0612947
-0.0612947
-0.0296443
-0.0296443
-0.0420657
-0.0420657
-0.00572868
-0.00572868
0.0129088
0.0129088
0.00829289
0.00829289
0.015489
0.015489
-0.221606
-0.221606
-0.0608543
-0.0608543
0.00854021
0.00854021
0.0586661
0.0586661
0.0119496
0.0119496
0.055791
0.055791
-0.0269448
-0.0269448
0.013577
0.013577
-0.0276434
-0.0276434
-0.0305497
-0.0305497
-0.378101
-0.378101
0.0208202
0.0208202
-0.317373
-0.317373
0.0535582
0.0535582
0.00361875
0.00361875
-0.0587856
-0.0587856
-0.0319471
-0.0319471
-0.101323
-0.101323
-0.114365
-0.114365
-0.0372195
-0.0372195
-0.00475628
-0.00475628
0.0581241
0.0581241
-0.13337
-0.13337
-0.0343524
-0.0343524
-0.0287241
-0.0287241
0.0801676
0.0801676
0.00163732
0.00163732
-0.0073529
-0.0073529
0.00104005
0.00104005
-0.0127622
-0.0127622
-0.0839643
-0.0839643
-0.179335
-0.179335
-0.2061
-0.2061
-0.0310888
-0.0310888
0.0430251
0.0430251
-0.209468
-0.209468
-0.0815907
-0.0815907
0.0782993
0.0782993
-0.00970282
-0.00970282
0.00181091
0.00181091
-0.0579672
-0.0579672
-0.0473461
-0.0473461
-0.0131297
-0.0131297
-0.200462
-0.200462
0.121711
0.121711
-0.14321
-0.14321
-0.0131562
-0.0131562
-0.061436
-0.061436
-0.263588
-0.263588
0.0109029
0.0109029
-0.050496
-0.050496
-0.230727
-0.230727
0.0869039
0.0869039
-0.00625956
-0.00625956
0.0122623
0.0122623
-0.0365298
-0.0365298
0.0492168
0.0492168
-0.00325715
-0.00325715
-0.0097292
-0.0097292
-0.0680427
-0.0680427
-0.11086
-0.11086
-0.338868
-0.338868
-0.264082
-0.264082
0.0314087
0.0314087
-0.250231
-0.250231
-0.0483564
-0.0483564
-0.0240211
-0.0240211
0.00318845
0.00318845
-0.0785261
-0.0785261
0.018615
0.018615
-0.00977407
-0.00977407
0.0163174
0.0163174
-0.00860314
-0.00860314
0.000344406
0.000344406
-0.0683324
-0.0683324
-0.0413282
-0.0413282
-0.00888973
-0.00888973
-0.133814
-0.133814
0.00636539
0.00636539
-0.0507637
-0.0507637
-0.0587623
-0.0587623
0.042855
0.042855
-0.0674254
-0.0674254
-0.0312614
-0.0312614
0.0673299
0.0673299
0.0174097
0.0174097
0.062361
0.062361
-0.0813337
-0.0813337
-0.00327301
-0.00327301
-0.169162
-0.169162
-0.0515693
-0.0515693
-0.251568
-0.251568
-0.1372
-0.1372
-0.251904
-0.251904
-0.0200492
-0.0200492
-0.17486
-0.17486
0.00599801
0.00599801
-0.0460967
-0.0460967
-0.221032
-0.221032
-0.251889
-0.251889
0.0375069
0.0375069
-0.0503257
-0.0503257
0.0463463
0.0463463
0.0599762
0.0599762
-0.092518
-0.092518
-0.234986
-0.234986
-0.0081287
-0.0081287
0.0206313
0.0206313
0.0152239
0.0152239
0.0453287
0.0453287
-0.124784
-0.124784
-0.0461237
-0.0461237
0.00506658
0.00506658
-0.0465953
-0.0465953
-0.0514755
-0.0514755
-0.0641132
-0.0641132
0.0251201
0.0251201
-0.138812
-0.138812
-0.016775
-0.016775
-0.0150154
-0.0150154
-0.0310172
-0.0310172
-0.0453428
-0.0453428
-0.0130535
-0.0130535
-0.152471
-0.152471
-0.217007
-0.217007
-0.0330147
-0.0330147
-0.00759305
-0.00759305
-0.0489557
-0.0489557
0.0101562
0.0101562
-0.224735
-0.224735
-0.00313419
-0.00313419
0.0633336
0.0633336
-0.273097
-0.273097
-0.00526667
-0.00526667
-0.0696086
-0.0696086
-0.0768883
-0.0768883
-0.168732
-0.168732
-0.0385721
-0.0385721
-0.0419944
-0.0419944
-0.00554076
-0.00554076
-0.193026
-0.193026
-0.0488055
-0.0488055
-0.12966
-0.12966
0.00469497
0.00469497
-0.0188745
-0.0188745
0.0221665
0.0221665
0.032161
0.032161
-0.0919649
-0.0919649
0.00620165
0.00620165
0.00694456
0.00694456
0.00488667
0.00488667
0.00140693
0.00140693
-0.0082851
-0.0082851
-0.05327
-0.05327
-0.0537839
-0.0537839
-0.11302
-0.11302
-0.0172786
-0.0172786
0.0519498
0.0519498
-0.0589931
-0.0589931
-0.175772
-0.175772
0.0395632
0.0395632
-0.0579214
-0.0579214
-0.019304
-0.019304
-0.0535899
-0.0535899
-0.0393752
-0.0393752
-0.0315862
-0.0315862
-0.017161
-0.017161
-0.146636
-0.146636
-0.0196216
-0.0196216
-0.0316559
-0.0316559
-0.0309072
-0.0309072
-0.182889
-0.182889
-0.297103
-0.297103
-0.0382035
-0.0382035
-0.0195928
-0.0195928
-0.188486
-0.188486
-0.0428931
-0.0428931
-0.0188587
-0.0188587
-0.122756
-0.122756
-0.131817
-0.131817
-0.0547666
-0.0547666
-0.0124943
-0.0124943
-0.103425
-0.103425
0.0174251
0.0174251
0.0355594
0.0355594
0.00344218
0.00344218
-0.0109108
-0.0109108
-0.0364151
-0.0364151
0.0354333
0.0354333
0.0931182
0.0931182
-0.18932
-0.18932
-0.0264399
-0.0264399
-0.0366214
-0.0366214
-0.0804672
-0.0804672
-0.057949
-0.057949
0.021556
0.021556
-0.0667103
-0.0667103
0.0356237
0.0356237
-0.154453
-0.154453
-0.219624
-0.219624
0.10436
0.10436
-0.176474
-0.176474
-0.213162
-0.213162
-0.140669
-0.140669
-0.0744689
-0.0744689
-0.0274343
-0.0274343
-0.0277162
-0.0277162
-0.107053
-0.107053
-0.0745446
-0.0745446
0.00213649
0.00213649
-0.0251559
-0.0251559
-0.0115535
-0.0115535
0.0238537
0.0238537
-0.0699398
-0.0699398
-0.154828
-0.154828
-0.323891
-0.323891
-0.223447
-0.223447
-0.125655
-0.125655
-0.0864264
-0.0864264
-0.383957
-0.383957
-0.0180921
-0.0180921
-0.166006
-0.166006
0.039315
0.039315
-0.00551345
-0.00551345
-0.223281
-0.223281
-0.073909
-0.073909
-0.0641418
-0.0641418
-0.17112
-0.17112
-0.0140249
-0.0140249
-0.0235581
-0.0235581
-0.0140262
-0.0140262
-0.033259
-0.033259
-0.168294
-0.168294
-0.0211325
-0.0211325
-0.0165873
-0.0165873
-0.0150341
-0.0150341
-0.0032693
-0.0032693
-0.126182
-0.126182
-0.00744255
-0.00744255
-0.2306
-0.2306
-0.3797
-0.3797
-0.0388725
-0.0388725
0.0323632
0.0323632
-0.0697012
-0.0697012
-0.0722947
-0.0722947
-0.0266387
-0.0266387
-0.0955556
-0.0955556
0.0181298
0.0181298
-0.0176063
-0.0176063
-0.0133332
-0.0133332
-0.0108251
-0.0108251
-0.00939159
-0.00939159
-0.00735661
-0.00735661
-0.0057906
-0.0057906
-0.00429118
-0.00429118
-0.00293422
-0.00293422
-0.00180637
-0.00180637
-0.000672167
-0.000672167
0.000279613
0.000279613
0.00112583
0.00112583
0.00194748
0.00194748
0.00245784
0.00245784
0.0029239
0.0029239
0.00335724
0.00335724
0.00352037
0.00352037
0.00367039
0.00367039
0.00358348
0.00358348
0.00356047
0.00356047
0.00323903
0.00323903
0.00275372
0.00275372
0.00239106
0.00239106
0.00172408
0.00172408
0.000989661
0.000989661
-3.19016e-05
-3.19016e-05
-0.000891235
-0.000891235
-0.00182152
-0.00182152
-0.00330114
-0.00330114
-0.00449642
-0.00449642
-0.00665604
-0.00665604
-0.00788758
-0.00788758
-0.00922726
-0.00922726
-0.0124038
-0.0124038
-0.0148041
-0.0148041
-0.0156548
-0.0156548
-0.018564
-0.018564
-0.0240623
-0.0240623
-0.0264538
-0.0264538
-0.0292156
-0.0292156
-0.0361878
-0.0361878
-0.0427951
-0.0427951
-0.050397
-0.050397
-0.0611795
-0.0611795
-0.0798356
-0.0798356
-0.097968
-0.097968
-0.135491
-0.135491
-0.160186
-0.160186
-0.0776894
-0.0776894
0.0100353
0.0100353
-0.0230149
-0.0230149
-0.0340725
-0.0340725
-0.0274404
-0.0274404
-0.0275552
-0.0275552
-0.0258422
-0.0258422
-0.0349165
-0.0349165
-0.04989
-0.04989
-0.0588934
-0.0588934
-0.0684127
-0.0684127
-0.07745
-0.07745
-0.0837543
-0.0837543
-0.085207
-0.085207
-0.0828853
-0.0828853
-0.0785656
-0.0785656
-0.072031
-0.072031
-0.0640837
-0.0640837
-0.0551148
-0.0551148
-0.0468416
-0.0468416
-0.038846
-0.038846
-0.0326447
-0.0326447
-0.0299515
-0.0299515
-0.0272884
-0.0272884
-0.0155831
-0.0155831
-0.0144769
-0.0144769
-0.0125225
-0.0125225
-0.00951957
-0.00951957
-0.00790212
-0.00790212
-0.00680508
-0.00680508
-0.00448317
-0.00448317
-0.00347267
-0.00347267
-0.00180907
-0.00180907
-0.000869832
-0.000869832
-2.72395e-05
-2.72395e-05
0.00102946
0.00102946
0.00172069
0.00172069
0.00237533
0.00237533
0.00271571
0.00271571
0.00331017
0.00331017
0.00345222
0.00345222
0.0035724
0.0035724
0.00349139
0.00349139
0.00360534
0.00360534
0.00330847
0.00330847
0.00289235
0.00289235
0.0025263
0.0025263
0.00182718
0.00182718
0.00115486
0.00115486
0.000308002
0.000308002
-0.000706595
-0.000706595
-0.00173914
-0.00173914
-0.00300842
-0.00300842
-0.00435439
-0.00435439
-0.00593128
-0.00593128
-0.00742844
-0.00742844
-0.00918888
-0.00918888
-0.0110409
-0.0110409
-0.0135365
-0.0135365
-0.0179048
-0.0179048
-0.0267872
-0.0267872
-0.0300426
-0.0300426
-0.0326837
-0.0326837
-0.0389916
-0.0389916
-0.0468266
-0.0468266
-0.0556557
-0.0556557
-0.0649848
-0.0649848
-0.0728655
-0.0728655
-0.0795183
-0.0795183
-0.0838186
-0.0838186
-0.0854067
-0.0854067
-0.0837221
-0.0837221
-0.0787532
-0.0787532
-0.067576
-0.067576
-0.0560864
-0.0560864
-0.0443694
-0.0443694
-0.0358906
-0.0358906
-0.0311083
-0.0311083
-0.024265
-0.024265
-0.0250721
-0.0250721
-0.0269838
-0.0269838
-0.0218664
-0.0218664
-0.00657886
-0.00657886
-0.0647631
-0.0647631
-0.149223
-0.149223
-0.146953
-0.146953
-0.107173
-0.107173
-0.0756692
-0.0756692
-0.0643474
-0.0643474
-0.0481713
-0.0481713
-0.0419295
-0.0419295
-0.0378674
-0.0378674
-0.0300994
-0.0300994
-0.0253135
-0.0253135
-0.0237182
-0.0237182
-0.0199282
-0.0199282
      </DataArray> 
    </PointData>
    <CellData>
    </CellData>
  </Piece>
  </UnstructuredGrid>
</VTKFile>
